# Amorphous model                       
   1.00000000000000     
    14.1792272804632731   -3.2335821194076337   -4.6696505788849816
     0.0000000002579026    9.9983310406453079   -2.3730386983513334
     0.0000000000261906   -0.0000000000227780   15.6297215985089757
   C    H 
    77   156
Direct
     0.6082863204660200    1.2623682370234921    1.4565834408096929
     0.4459237971178569    0.5715949176566334    1.3463483225544708
     0.6041025786001604    0.4749554951603575    1.6995081663248943
     0.4831975510655661    0.5169045722058692    1.2668447079843859
    -0.1970833456066581    0.9434155846431483    0.1628459314384341
    -0.0565633667264234    0.6988085542190415    0.0702036958440169
     0.9933554557549035    1.2681013680308673    0.4633119970723296
     0.9427605428666386    1.1200255549900981    0.4314664860021915
     0.0263256127519531    0.7632928128927932    0.0481088829976730
     0.9092030686365546    1.0848718393679886    0.3207585346185598
     0.1928989299797295    0.8319795319864143    0.0800931533762070
     0.5105134347754611    0.6478229992684305    0.7637988306780675
    -0.1227131462903776    0.9174296730936963    0.1149531477514099
     0.4284356037840013    1.1821147327733466    0.7352604258860939
     1.0707727907767564    1.4966879743474581    0.5841846956230176
     0.3427301075744539    1.2424916692179175    0.7611405176048259
     0.4866129430106734    1.1119825279289997    0.7989026170725168
    -0.1731271187841350    0.8867578878653368    0.0038003854771946
     0.6375149633667536    0.9791398970883138    0.6406581296874876
     1.0111775673738423    1.0205835747336678    0.4669752028232574
    -0.2124362565106004    0.9935386606835831    0.9592869223737609
     1.0505382333807933    1.3427803964645362    0.5654398224065436
     0.6604554047412557    0.3207898221289794    1.5644494027661617
     0.6208074317379457    1.1102841412659676    0.6146889567177281
     0.5026257080394759    0.2667935341694766    1.2988774044607236
     0.3701819571204190    0.7505891252799327    0.5997647494049251
     0.7310161505601673    0.9579977140750792    0.2880857193004932
     0.6321958979958084    0.6968981755076058    0.1761624755681594
     0.0589772654133691    0.4064621667887140    0.1620889124690746
     0.1453212995709707    0.1376536498840633    0.3175144893147067
     0.7810007939925405    0.5674264447239343    1.7314094514335756
     0.6681429950763335    0.8079126295088059    0.2706609364732393
     0.5853418237010954    0.3741026451071752    1.5991245403025121
     0.7403166567145553    0.3651292028155622    1.2086742369903676
     0.6845230803098952    0.6046671153494643    1.7201633709036379
     0.2041636383639212    0.3308583273462801    0.2530078047479263
     0.5116041862617148    0.5263855848188199    0.6870960058450201
     0.1214237544498565    0.1952009207704192    0.0980697523872596
     0.2238180466910908    0.2063165477728984    0.2801878766978347
     0.3734198567132475    0.6566058379706039    1.3161723665359946
     0.1749929832250209    0.9515566155840289    0.6011929428658788
     0.1637045899156728    1.0545390357477284    0.6787795213985807
     0.2695392888519464    0.7679397840365136    0.5428761967895318
     0.7055555973132819    0.3018858446049401    1.2745361030749671
     0.2613272393485876    1.1435403494886693    0.7721348027888485
     0.2473876617741628    0.8594759285866849    0.6277228812974546
     0.5880671541161500    0.3494020971380422    1.3868556014580800
     0.0767244687664905    0.8558718997632551    0.5514684634170082
     0.3833913187676570   -0.1758776677740423    0.8696496539785664
     0.1247036088705891    0.8293923829942914    0.1311653982409136
     0.1412178052997168    0.3453420938204120    0.1576294925486081
     0.3797385592748255    0.1428944845226459    1.0587295646992643
     0.8719497050126438    0.7703790777910593    0.5609406854720059
     0.9951653441475775    0.9283974673798303    0.5312650048143641
     0.9000824380189657    0.8371713450720142    0.4973339809496897
     0.2909329208326823    0.2855569434464874    0.9484766791315341
     0.3384904019408453   -0.1053659760000690    0.9441241099716009
     0.0264161419966989    0.4877060649399736    0.0916954522143640
     0.7002654262770673    1.2220438955489756    1.6077775199832154
    -0.0902443119204401    0.7942785426804331    0.1373516070683873
     0.6811231155728112    1.3903942328651211    1.3564358391436508
     0.7630909689024243    0.7035573255844596    0.5224354740566549
     0.2187022528468771    0.2274726929666422    0.8469272378422971
     0.0241995032726563    0.3612690210827513    0.8672813049665270
    -0.0309096533205945    0.3781362941368319    0.0031201606891388
     0.2879478031580256    0.5383630095562302    0.9552200580194790
     0.4575889616172046    0.2816966513767057    1.1256343742931263
     0.2713639230032979    0.4189763206927513    0.9971935434513073
     0.2920310663458509    0.1851520821185771    1.0047481949390047
    -0.0497251890350594    0.3850658298864877   -0.0928460018691536
     0.8227987303131626    0.9567603260057793    0.2661460512202646
     0.4124748620122393    0.0294036911029846    0.9945125867923073
    -0.3155609991061663    0.9840796749454002    0.9558345225837246
    -0.4653158006186515    0.6338767787218125    0.8630933340398879
     0.4532389276402808    0.3472657256024353    1.2300117368330208
     0.3954405930859988    0.6112894283313675    1.0098130279889419
    -0.0325853938258513    0.5833185518714950    0.1226463793282172
     0.6473182986741091    1.1872928078641740    1.4429132988945348
     0.5317125702612284    0.1928582336648166    1.2584545444753301
     0.4412357170010342    0.5339110164628399    1.1980862212668371
     0.7415626931293966    0.6699226377439166    0.4431385865430003
     0.7438287817707918    1.1734721708509008    1.5654070458240241
     0.8417453921987903    0.6476651097348041    1.7911671320172680
     0.1720852485250641    0.1430619664503766    0.0881863152338619
    -0.0095153818029606    0.3636978558382356    0.7942290435933371
     0.0935287049900687    0.5531984800218923    0.0870465384105312
     0.2359719314582525    0.1407055965577898    0.2247264320677971
     0.2916046793145826    0.2193400826064799    0.3365019263451978
     0.6794951716264794    0.6648470440713740    1.7856689161739789
     0.7971256201938143    0.5302486584770255    1.6666615246680292
     0.0862261380992074    0.4752673509558401    0.2347630399963604
     0.9044353657088088    0.6849721675773610    0.5500058426196113
     0.5656991503598269    0.4395599744550725    1.4110315013039749
     0.3797675994785704    0.6966509926497864    1.2605529194422822
     0.9886484812892746    1.0168467128325733    0.5886088886145726
     0.6140397669141521    0.4134041272711438    1.7503474135791706
     0.6623572160290601    0.6508867793138873    1.6593861484484005
     0.7402925994025314    0.6075384099014386    0.5466439789293603
     0.7450253645929638    1.2799455996236855    1.6844359611379369
     0.1475511015278829    0.2183912955028023    0.3775302308426935
     0.5383699708294266    1.2164252434937710    1.4560467235027303
     0.7708735919779935    0.2526669566099927    1.3011036179002322
     0.6816454450907999    1.4075222685831168    1.1612371234804133
     0.3008896544595676    0.5880715200560472    1.2753056326514025
     0.8807994291401635    0.7700227545475782    0.4254438210180903
     1.0249865450860300    1.3223735302932746    0.6181351499525400
     0.6870261001397751    1.4943438679681109    1.3484204825166124
     0.5959046131960495    0.9611336729960298    0.6819216371063256
     0.0812372056734614    1.1155012700190217    0.2635606849049080
     0.7189224791840035    1.0008513178592617    0.6845010750516074
     1.0496443264099671    1.2927229679887426    0.4322041251006821
     0.8801549554249116    1.1017512302030739    0.4517124570323555
     0.8800148505009325    1.1688837064373221    0.3034703256451380
     0.1470818112196038    1.0405535746286698    0.3330457632795754
     1.1229919293935453    1.3277256970195925    0.5858695148208308
     0.9619682417598798    1.0615093652352339    0.2916782187657139
    -0.0578623178648929    0.4946266219424695   -0.1030853070055741
     1.1320148205800749    1.5371690657107551    0.6485868936462795
     0.7492534598781043    1.2882119862605639    1.1470990319117635
     0.9447921984818621    1.3333271419613744    0.4263186106787067
     0.7828159110747840    1.0407475067898941    0.1438954841878566
     0.7417348851615295    1.4118044575721855    1.4210791646707146
     0.5538606175726533    0.4350853417692652    1.5515689653889775
     0.7298782926178879    0.7913758677985762    0.5468873702411725
     0.4229881567805730    0.4997364183494207    1.3787327163516458
     0.7082145714196624    0.4162335004698055    1.5849400317409499
     0.6458857631292614    0.2055668041491179    1.2321096507306368
     1.0876740295703538    1.5596355593574938    0.5406764385697432
     0.4573784525367877    1.2217551789150627    1.3248281575187673
     0.8436246191525427    0.8985347708837120    0.4792762819202061
     0.5157797008677749    0.3130192632585758    1.5757726360540527
     0.5480883973060686    1.7342381422799080    0.9199215742454609
     0.8880824589275651    0.8275610761367472    0.6502172963111901
     0.6041428210783030    1.1638873888625476    0.6736076583228663
     0.0851286285871475    0.4559199436912949    0.8958839439580363
     1.0335124798951520    1.5619194634333249    0.6251077474088944
     0.6343723607301026    0.8799208749801978    0.5839130797260320
    -0.0025855815049918    0.2752815651780806    1.0031834424435813
     0.7822453243686749    0.4812555850420521    1.7654990087836557
    -0.1522870804475974    0.7231106314305336    0.1371467980197409
     0.4465539309808604    0.6883058455491984    0.7494117317462732
     0.3784563601522291    0.3413288108756969    1.2178475574214551
     0.2617343378605697    0.2340400243306890    1.0489081040046528
     0.5587922555279253    0.5522399229425982    1.2814957260624247
    -0.3612718041352552    0.9252017765066907    0.8870983557699725
     0.2658055908217733   -0.1066428068820491    0.8997866802119391
     0.2450656979452619    0.0946879860159695    0.9488538828669142
     0.3321652648754421   -0.1610053065442256    1.0036482304675598
     0.4489455373092106    0.3599729413942539    1.0834385663064166
     0.4804752779057277    0.0085788115932396    1.0439644382027329
     0.3563643348955989   -0.2800311142913322    0.8302846528629211
     0.4592974193649100   -0.1667658166793380    0.8891133500236088
    -0.2014538391295898    0.9481768813505914    0.8926590472856935
    -0.0925104202789597    0.3417114661923935    1.0183835139041804
     0.3770056914277736   -0.1132162513765818    0.8238629120546874
     0.5288238843604021    0.2613980055515506    1.1401385145906431
     0.3640674989859263    0.7451100020009234    1.3651233110090615
     0.0387497368487360    0.6978985239965159   -0.0106805885412726
     0.2639497457907424    0.8743757888952900    0.1334246026388206
    -0.1188908655937847    0.3054880494469893   -0.1363042510298952
     0.4367317721281780    0.5236805487175735    1.0104402834932484
     0.4332092593201413    0.6680732464089686    0.9799230615465651
     0.3786582983512560    0.0813048403801554    1.1125429932366870
     0.4378186941715647    0.0883838619317373    0.9529513246553653
    -0.0993557080675865    0.5122396339087805    0.1256978265577609
    -0.3933750992466889    0.6188097760771192    0.8977749172901789
     0.0083151996486531    0.6452575452407149    0.1928091677615847
     0.1884943569109170    0.3110885563494618    0.8249345019533197
    -0.0430022055022692    0.8370862952351900    0.2144912528579227
     0.1866404266726448    0.4235694929013510    0.1371547109666479
     0.4701442621809205    0.2772897993655343    0.7361669982221750
    -0.2486732322002022    0.9843799155855038    0.3644083462917543
     0.5455670451368687    0.0885722724067156    0.7745864013773590
     0.1364134999268647    0.7453839424698880    0.1634181104504931
    -0.5060538819054171    0.5638038269547320    0.8861132561502012
    -0.1734308278751422    1.0987071064157645   -0.0169773608332795
     0.3197786685220855    0.4280558225386316    1.0712448586399028
     0.2337642505683725    0.6092642946575054    0.9540912547125706
     0.3725659322577530    0.3073943526555841    0.9571250696933649
     0.5067536568912868    0.6465464236711280    1.4068005451597607
     0.2002158648176738    0.3778284610038684    1.0055953984181307
     0.2868597845954096    0.4828208131951978    0.8875796343888411
     0.4008557297972769    0.6676915826014553    1.0779794316667968
     0.1591649592184155    0.1804973256149499    0.8561682104220113
    -0.2665581315276075    0.8591600231488000    0.1215527205371804
     0.0854678723803891    0.1904916067660569    0.0247379230021260
     0.3157339859379542    1.2657438020821385    0.6970285021192949
    -0.1391464819531273    0.8855993406054856    0.2830129733023677
     0.0500323908961871    0.2610824966141085    0.8675822365575000
     0.0786212788372842    0.8195271376404212    0.4796091694107582
     0.2304916570257552    0.7904545199091975    0.6652740610143562
     0.1827695709147950    1.0000395880656177    0.5460226981650254
     0.4174529984806683    0.8381177298480456    0.6603652377457253
     0.8004164767594998    0.4477030835919666    1.2474025313944010
     0.5594663655209715    1.0865231193253784    1.5603634210828901
     0.7070987037615295    0.7623569299526931    0.3202739888866404
     0.6117838802908178    0.8160499181108283    0.2974451269416807
     0.4956294791745751    0.5613270990514627    0.6271403028497892
     0.2754314574175956    0.3964468042211618    0.2728303106702507
     0.0103366818691050    0.3367916404535805    0.1708572738735286
     0.1900191871576981    0.3881140987824740    0.3090195431171803
     0.4590964800919138    0.4211440468972592    0.6778207954368757
     0.6990375490329376    1.0129084241934987    0.2437955332665865
     0.6801868026035481    0.7154817459912194    0.1392943759714048
     0.5689085701432505    0.7167020874015557    0.1233713411091739
     0.5624017451900761    0.7358379653705037    0.7551226772305200
     0.0760078526288877    0.1430619781448083    0.1248336160065768
    -0.3303616911219234    1.0879978645971562    0.9747460300799113
     0.2918106482911308    1.0735456158382259    0.8028264375254343
    -0.3319260567739154    0.9247942967961759    1.0062744602649885
     0.2434514472300873    0.6507834698608270    0.5129934184130244
     0.0277847696574084    0.9593008439070836    0.4048675345026077
    -0.1200239056052922    0.6499524674254260    0.0072981200814913
     0.1861335227847916    0.7168711712466417    0.0423069715530836
    -0.0688215179227678    1.0075624662196871    0.1435345139565210
     0.0164027504005886    0.8594482007128397    0.0293537060734497
     0.1317603861350511    0.9233056847943516    0.1898691784038598
     0.0878604268312166    1.0965299714942445    0.5170333770119599
     0.4439230176828937    1.0064137261505695    0.7775580844455516
     0.3766248359249688    1.3476903713855106    0.8181177195433652
     0.1924105504074231    0.8772985436463162    0.0304756666829987
    -0.2304817161775438    0.7966645096861700   -0.0116710425360419
    -0.1283817751213958    0.8478659436715571   -0.0316610555422308
     0.5081152318309392    1.1446620419999722    0.8705503811102165
     0.2821568330431098    0.8026739308942618    0.4871422300647324
     0.3121855653154045    0.9294884509677481    0.6851820223557740
     0.1197347307970742    1.1290349895143379    0.6578258830611464
     0.4151365151869757    0.7206232442841723    0.5560739288319431
     0.1129502019220175    0.9914291447046392    0.6997087186195035
     0.3652901124000261    0.6683299921007050    0.6256203497438678
     0.0495648396316039    0.7663875902765537    0.5733039213876617
     0.4051352539622894    1.1219829032512894    0.6605559273809962
     0.6161715422634254    0.5918488603012727    0.1726325145902677
Lattice velocities and vectors
           1
  0.24879600E-03  0.10921368E-02  0.12518640E-02
 -0.23001316E-03  0.51863738E-03  0.33656467E-03
 -0.12434400E-02  0.13862267E-04  0.11838315E-03
  0.14179124E+02 -0.32333812E+01 -0.46696022E+01
  0.25790597E-09  0.99985393E+01 -0.23729005E+01
  0.26193917E-10 -0.22780437E-10  0.15629769E+02
 
 -0.43306443E-02 -0.11713903E-01  0.58123522E-02
  0.57595374E-02 -0.10951763E-01 -0.69754944E-02
 -0.35267250E-02  0.71868361E-02  0.88504818E-02
  0.33162156E-02 -0.45581501E-02 -0.13201034E-02
  0.22239728E-02 -0.80448454E-02 -0.58174363E-02
 -0.72909984E-02 -0.40166542E-02 -0.18112062E-02
 -0.25930075E-02  0.43215535E-02 -0.26150929E-02
 -0.10374124E-01  0.29395678E-02 -0.21595803E-02
 -0.11166103E-02  0.91953417E-02 -0.83917234E-02
  0.25465233E-02  0.83009557E-02 -0.12628605E-01
  0.12746350E-01  0.36598242E-02 -0.81720156E-02
 -0.98973835E-02  0.69553507E-02  0.80141050E-02
 -0.50342882E-02  0.73729437E-02 -0.16380081E-03
  0.50120701E-02 -0.61236715E-03 -0.36805215E-02
  0.72614648E-02 -0.49975100E-04  0.16259637E-02
  0.31218802E-02  0.71316997E-02 -0.16101082E-02
 -0.15121733E-02  0.33733032E-02 -0.19465602E-01
  0.92470367E-02  0.12533942E-01  0.12948857E-01
  0.16500188E-01 -0.83534696E-03 -0.55081612E-02
  0.18654729E-02  0.66869444E-02 -0.14041759E-03
  0.49868875E-02  0.33941692E-02 -0.23994071E-03
  0.93956506E-02 -0.73156245E-02 -0.41834073E-03
 -0.32026921E-02 -0.51147876E-02 -0.83722499E-02
 -0.10631727E-01 -0.11594689E-01 -0.34421777E-02
 -0.34728043E-02 -0.81284937E-02  0.19651004E-02
 -0.49820908E-02 -0.64641945E-02 -0.85750229E-02
  0.73058518E-02 -0.45126276E-02  0.10882228E-04
  0.31232802E-02  0.14801997E-02  0.10977286E-01
  0.34906485E-02 -0.10450297E-01  0.10640525E-01
  0.13092572E-02 -0.20871310E-02  0.39985352E-02
 -0.78926498E-03  0.90675385E-02 -0.74056832E-02
 -0.38624153E-02  0.23382145E-02 -0.11949598E-01
 -0.56576967E-02  0.12834884E-01  0.44846114E-02
 -0.46763749E-03 -0.16319621E-04  0.25240214E-02
 -0.22888338E-02 -0.44004604E-02 -0.11391909E-01
  0.41644706E-03  0.38403610E-02 -0.30776597E-02
 -0.65167948E-02 -0.65218775E-02 -0.39407405E-02
  0.56065064E-02  0.14379576E-01  0.25670823E-03
 -0.92316148E-03  0.71863751E-02 -0.52853260E-02
 -0.92202935E-02 -0.60014590E-02  0.79574418E-02
 -0.91591146E-02  0.39386190E-02  0.21141716E-01
  0.13580569E-01  0.23851468E-02 -0.70099333E-02
  0.58687625E-05  0.32486370E-02  0.87594763E-02
 -0.10845668E-01  0.58490518E-02 -0.81340505E-02
  0.50729412E-02  0.55366073E-02  0.14340516E-01
 -0.49179185E-02  0.11946386E-01 -0.34913951E-02
  0.27259259E-02 -0.55638616E-02 -0.12864869E-01
  0.82769501E-02 -0.57253398E-03 -0.59446378E-02
 -0.36622912E-02 -0.19620908E-01  0.35230465E-02
  0.53904416E-02  0.26308423E-02 -0.70765363E-02
  0.82346237E-03 -0.47969927E-02  0.73694641E-02
  0.63120147E-02 -0.98190730E-02 -0.46860491E-02
  0.13676855E-01  0.12363192E-01  0.26768609E-02
 -0.13048070E-02  0.39695521E-02 -0.92132183E-03
 -0.39797941E-02 -0.81765837E-02  0.58989187E-02
  0.60163206E-03  0.17772440E-02  0.25925947E-02
  0.40062283E-02 -0.43780383E-02  0.86559941E-02
  0.15523486E-02  0.69823393E-02  0.13848379E-01
 -0.10895955E-01 -0.11064081E-01 -0.31356410E-02
  0.71715465E-02 -0.59131351E-02 -0.55597582E-02
 -0.23969812E-02 -0.81912269E-02 -0.60652145E-02
  0.78442573E-02  0.26401280E-02  0.27680466E-02
 -0.46690360E-02  0.53051506E-02  0.48732169E-02
 -0.12392194E-01  0.51286233E-02  0.43078984E-02
  0.15786066E-02 -0.33547130E-02  0.67774232E-02
 -0.52534170E-02 -0.75490648E-02 -0.71460522E-02
  0.62543617E-02  0.16700461E-02 -0.88291268E-02
  0.65117557E-03 -0.41843858E-02 -0.13898276E-02
  0.14954199E-03  0.20251608E-01  0.29587192E-01
 -0.11219982E-01 -0.16874181E-01  0.43332826E-02
 -0.60532089E-02  0.52605661E-02  0.43443863E-02
  0.36863115E-03 -0.37171614E-02  0.17671409E-02
  0.12072605E-01  0.14105368E-02  0.35906620E-02
  0.89568434E-03  0.65120011E-02 -0.78441802E-02
  0.65626078E-04 -0.16680457E-01  0.58786109E-02
 -0.33585015E-02 -0.79066876E-02  0.51574076E-02
  0.54568109E-02 -0.36826405E-02 -0.21223317E-01
  0.24727264E-02 -0.12719415E-02 -0.92533283E-02
 -0.21000866E-01 -0.23900381E-01 -0.17651639E-01
  0.23424914E-01 -0.19911616E-01  0.18627489E-01
 -0.13099997E-01 -0.35556175E-01 -0.12690995E-03
 -0.20661391E-01  0.21172342E-01  0.34214665E-02
 -0.79820691E-02 -0.23067806E-01 -0.32951983E-01
 -0.26209048E-02 -0.30977335E-01 -0.34372513E-01
  0.34036835E-03  0.55405353E-01 -0.34232511E-01
  0.12663876E-01  0.51747854E-02  0.42268806E-01
 -0.62835474E-02  0.19689717E-01  0.86862621E-02
  0.14829685E-01  0.50679016E-02  0.37659623E-02
  0.67037697E-02  0.15937195E-01 -0.29337150E-01
 -0.10833619E-01 -0.11366257E-01 -0.32344649E-02
 -0.17370917E-01  0.23443559E-01  0.35125593E-01
 -0.29657806E-01  0.46716698E-01  0.91576205E-02
 -0.16159565E-01 -0.14972962E-01  0.92007715E-02
 -0.12953162E-01 -0.23264372E-01  0.26755005E-01
 -0.30839379E-01 -0.23987688E-01  0.14653282E-03
 -0.18417285E-01  0.65379883E-02  0.52240548E-03
 -0.75209861E-02  0.26743547E-01 -0.91235574E-02
 -0.63791315E-01 -0.66469710E-02  0.52602467E-01
  0.40968064E-01  0.24531685E-01 -0.28817519E-01
  0.50875028E-02 -0.15491014E-01  0.55906020E-01
 -0.29164468E-01 -0.16564651E-01 -0.19142117E-01
 -0.46929616E-01  0.76239555E-01  0.29300746E-01
  0.58573135E-03 -0.30564508E-02 -0.19505575E-01
  0.21526281E-01  0.66452288E-02 -0.32177070E-02
  0.12452325E-01 -0.54259532E-01  0.68077001E-02
  0.13280324E-01 -0.43861271E-01  0.14680091E-01
 -0.24160190E-01  0.22691287E-01 -0.68825241E-02
 -0.99398053E-02  0.10807964E-01  0.56393284E-01
 -0.15255993E-01 -0.80287483E-02  0.12835139E-01
 -0.77277205E-03  0.10006064E-01  0.99198204E-03
  0.28232870E-01 -0.27031393E-01  0.17775366E-01
 -0.65906199E-01 -0.19598730E-02 -0.23563751E-01
  0.58220586E-01 -0.60459159E-01  0.11536578E-01
 -0.20297954E-01  0.19382177E-01  0.43243355E-01
  0.37664722E-01  0.29374928E-01 -0.16181111E-01
 -0.25151921E-01 -0.61782663E-02 -0.37921125E-01
  0.82211675E-02 -0.99879462E-02  0.39290915E-02
 -0.32570877E-01  0.99972967E-03  0.14606459E-01
  0.22160927E-01 -0.11136663E-01  0.52590170E-01
  0.53002183E-02 -0.10372996E-01 -0.48136911E-01
 -0.53130120E-02  0.42566123E-02  0.38509024E-01
 -0.43242252E-01  0.41473353E-01 -0.32678665E-01
  0.26606409E-01  0.26328310E-02 -0.26776158E-01
  0.94611701E-02  0.38511641E-01  0.78978212E-02
 -0.30073009E-01 -0.60501986E-01 -0.63763555E-02
 -0.12496887E-01  0.94110101E-02 -0.37269296E-02
  0.34341771E-01 -0.14475422E-01 -0.33238783E-02
  0.91549401E-02 -0.95774701E-02  0.65221968E-02
 -0.32614714E-01 -0.15137922E-01  0.11484242E-01
 -0.35460446E-02  0.12069352E-01 -0.48023470E-01
 -0.15941119E-01  0.36211886E-03  0.20851549E-02
 -0.21600764E-02  0.31154549E-02  0.22357307E-01
 -0.32931957E-01  0.92010619E-02  0.60829104E-02
 -0.27507768E-01 -0.29933782E-01  0.17411073E-02
 -0.10668429E-01  0.13344114E-01 -0.86015406E-03
  0.82539971E-02 -0.41973984E-02  0.19891094E-01
  0.25303590E-01 -0.57054165E-02  0.62902421E-01
 -0.17952125E-01 -0.45409050E-01  0.91802525E-02
 -0.28278588E-01  0.11981545E-01  0.17384413E-01
 -0.60669178E-01 -0.21185830E-01 -0.12866418E-01
  0.33975331E-01 -0.45872540E-01  0.28796173E-01
 -0.11990072E-01 -0.14537769E-01  0.53777682E-02
  0.14179444E-01 -0.13093043E-01 -0.43522247E-02
  0.89568820E-02  0.67153543E-02  0.21842052E-01
  0.22143175E-01  0.43297870E-02  0.52244411E-02
 -0.15499321E-01  0.15898023E-01 -0.15434552E-01
  0.14307950E-01  0.13471090E-01  0.20333918E-01
  0.25239983E-01 -0.91793282E-02  0.19217534E-01
  0.78060693E-02  0.21934997E-01  0.68208232E-01
 -0.69943512E-03  0.10316879E-02  0.25203496E-01
  0.22901706E-02 -0.55437550E-02 -0.33371228E-01
  0.12776006E-01 -0.18756958E-01  0.19046677E-01
  0.11946156E-01  0.21124228E-01 -0.41300967E-01
  0.28936191E-01  0.16743174E-01 -0.33422262E-01
  0.10660002E-01  0.14613553E-01 -0.92345909E-02
  0.29565257E-01  0.27580577E-01  0.25056070E-02
  0.90909025E-03 -0.18909911E-01 -0.74248269E-02
 -0.19522087E-01  0.54278405E-01  0.15512507E-01
  0.33678003E-02 -0.35860060E-01  0.20719473E-01
  0.12710036E-01 -0.36682688E-01 -0.38545349E-01
 -0.32659700E-01  0.40751743E-01  0.20347334E-01
  0.20994540E-01 -0.26350297E-02  0.48524095E-01
 -0.62266660E-02  0.70436132E-02 -0.27626416E-01
  0.14555521E-01 -0.26615759E-02 -0.32536565E-01
 -0.27689407E-01 -0.74515378E-03 -0.12728481E-01
 -0.65334652E-02  0.23945514E-01  0.15109853E-01
 -0.51225854E-02 -0.42815520E-02  0.20257298E-01
 -0.30012837E-01 -0.50547056E-01  0.76071605E-02
  0.16790075E-01  0.51138662E-01 -0.39423138E-01
  0.30500634E-01  0.53462563E-01  0.60445575E-01
  0.10747371E-01 -0.48318734E-01  0.71173415E-02
 -0.38582700E-02 -0.18461289E-01  0.65461700E-01
 -0.22243380E-01 -0.29363853E-02  0.62503715E-01
 -0.29495418E-01  0.27240625E-01  0.49095244E-02
  0.37801474E-02  0.74977868E-03 -0.37449699E-01
 -0.41484371E-01 -0.25186970E-01  0.53700572E-01
 -0.26570409E-01  0.39060361E-01 -0.28697303E-01
  0.26516248E-02  0.84610600E-02  0.78558411E-02
 -0.99973867E-03  0.33600541E-03 -0.48239780E-01
 -0.14693098E-01  0.23977833E-01  0.10295171E-01
  0.28337898E-01  0.27404187E-01  0.17134159E-01
 -0.97083702E-02 -0.62911080E-01 -0.42759651E-01
 -0.28321456E-02  0.19352916E-01  0.10265563E-01
 -0.45010349E-02  0.29192121E-01 -0.90637626E-02
 -0.12447749E-01 -0.25643170E-02 -0.47246955E-01
  0.54082636E-02  0.18342282E-01  0.77860851E-02
  0.11133075E-01 -0.15050084E-01  0.27203393E-01
  0.64542091E-01 -0.30075991E-01  0.21503814E-01
 -0.57695747E-02 -0.13964061E-01 -0.46716777E-01
  0.42141937E-01  0.19350171E-01  0.44341684E-02
  0.23075875E-01 -0.34416916E-01  0.15174578E-02
  0.25928101E-01 -0.41744913E-01  0.11409790E-01
  0.18649249E-01 -0.38534075E-01  0.19566345E-01
 -0.88305051E-02 -0.56113253E-01  0.20689628E-01
 -0.21547672E-02  0.58012719E-02 -0.28970849E-01
  0.14663543E-01 -0.36768946E-01 -0.14593141E-01
  0.13466605E-01  0.19768883E-01  0.63194977E-02
  0.18283728E-01  0.91462883E-03  0.93704498E-02
  0.48787160E-01 -0.54363088E-01 -0.23829233E-01
 -0.53012687E-02 -0.62853100E-01 -0.26672396E-01
  0.33295151E-01 -0.27112440E-01 -0.88788116E-03
  0.12893361E-01  0.61194179E-02 -0.34477808E-01
 -0.50603639E-01 -0.30801181E-01 -0.17783538E-01
 -0.14011362E-01 -0.37641740E-01 -0.21338392E-01
  0.32116820E-01 -0.16210114E-01  0.13510171E-01
  0.10341529E-01  0.26567824E-01  0.22417250E-01
  0.44930274E-02 -0.29061124E-01 -0.89791352E-02
  0.11782101E-01  0.31130744E-01 -0.33206079E-01
  0.39308009E-01 -0.51154848E-02  0.40698738E-01
  0.95294094E-02 -0.11480375E-01  0.49339428E-02
 -0.66389327E-02  0.25938527E-01  0.74271714E-02
  0.11371958E-01  0.30337537E-01  0.22161245E-01
 -0.15344631E-01  0.18340487E-01 -0.16996953E-01
 -0.96872542E-02  0.43292331E-02  0.31120153E-01
 -0.10773980E-01 -0.59975363E-01  0.27414100E-01
  0.25368826E-01 -0.10028411E-01  0.32062160E-02
  0.26005633E-01  0.11723808E-01 -0.50571721E-01
 -0.35437353E-01 -0.14025372E-01 -0.60424395E-02
  0.10982707E-01 -0.19883976E-01  0.62928799E-02
  0.37970943E-01 -0.18954180E-01  0.92378386E-02
  0.33708473E-01  0.38565422E-01  0.15652071E-01
  0.29374705E-01 -0.10560267E-01 -0.59040466E-02
  0.27775189E-02  0.22757461E-01  0.40693624E-01
  0.40748272E-01 -0.30836591E-01 -0.60810860E-02
 -0.64430693E-02 -0.68395493E-02 -0.28631374E-01
 -0.63811184E-03 -0.19062533E-01 -0.16280903E-01
  0.17957183E-01  0.55880151E-01  0.31856179E-02
 -0.28575948E-02  0.12568687E-01 -0.19495426E-01
  0.52843339E-01  0.27716616E-01  0.39233817E-01
 -0.36417382E-03  0.56984407E-02  0.22410953E-01
 -0.22939966E-01  0.21255224E-01  0.11473581E-01
  0.89791930E-02 -0.85276712E-02  0.31313472E-01
  0.92324791E-02  0.55164980E-02  0.60144778E-02
 
           1
  0.400000000000000     
  0.10000000E+01  0.00000000E+00  0.00000000E+00  0.00000000E+00
  0.60816415E+00  0.26186010E+00  0.45661855E+00
  0.44608628E+00  0.57120933E+00  0.34615981E+00
  0.60400309E+00  0.47521084E+00  0.69974371E+00
  0.48329110E+00  0.51675247E+00  0.26681578E+00
  0.80297939E+00  0.94311403E+00  0.16267001E+00
  0.94323095E+00  0.69858135E+00  0.70061399E-01
  0.99328231E+00  0.26825060E+00  0.46324587E+00
  0.94246788E+00  0.12004851E+00  0.43132727E+00
  0.26294113E-01  0.76365049E+00  0.47939012E-01
  0.90927491E+00  0.85227158E-01  0.32051075E+00
  0.19325851E+00  0.83224223E+00  0.80031326E-01
  0.51023422E+00  0.64801096E+00  0.76394905E+00
  0.87714483E+00  0.91767871E+00  0.11494433E+00
  0.42857700E+00  0.18213596E+00  0.73521170E+00
  0.70977640E-01  0.49675222E+00  0.58429726E+00
  0.34281818E+00  0.24280546E+00  0.76117326E+00
  0.48657028E+00  0.11210368E+00  0.79841010E+00
  0.82713374E+00  0.88734368E+00  0.42986458E-02
  0.63798044E+00  0.97925701E+00  0.64067401E+00
  0.11230193E-01  0.20868110E-01  0.46703053E+00
  0.78770443E+00  0.99371994E+00  0.95935033E+00
  0.50803289E-01  0.34257344E+00  0.56547689E+00
  0.66036506E+00  0.32055598E+00  0.56417264E+00
  0.62050751E+00  0.10972329E+00  0.61442611E+00
  0.50252774E+00  0.26643667E+00  0.29884425E+00
  0.37004141E+00  0.75028507E+00  0.59945714E+00
  0.73122225E+00  0.95788383E+00  0.28813028E+00
  0.63228401E+00  0.69698589E+00  0.17648305E+00
  0.59075738E-01  0.40607594E+00  0.16233201E+00
  0.14535823E+00  0.13758210E+00  0.31761699E+00
  0.78097853E+00  0.56778200E+00  0.73126725E+00
  0.66803403E+00  0.80797094E+00  0.27033142E+00
  0.58518222E+00  0.37456450E+00  0.59926175E+00
  0.74030346E+00  0.36512428E+00  0.20873414E+00
  0.68445851E+00  0.60447019E+00  0.71982264E+00
  0.20417539E+00  0.33101576E+00  0.25295645E+00
  0.51142034E+00  0.52606522E+00  0.68689159E+00
  0.12158192E+00  0.19582734E+00  0.98218677E-01
  0.22379200E+00  0.20659562E+00  0.28008720E+00
  0.37315975E+00  0.65628163E+00  0.31624908E+00
  0.17473460E+00  0.95163063E+00  0.60166805E+00
  0.16408770E+00  0.54758349E-01  0.67874788E+00
  0.26953945E+00  0.76806980E+00  0.54312016E+00
  0.70524964E+00  0.30202090E+00  0.27425703E+00
  0.26147035E+00  0.14380813E+00  0.77258522E+00
  0.24724892E+00  0.85990899E+00  0.62765783E+00
  0.58814405E+00  0.34920438E+00  0.38651932E+00
  0.76957966E-01  0.85592450E+00  0.55139407E+00
  0.38328800E+00  0.82330397E+00  0.86958471E+00
  0.12485568E+00  0.82954681E+00  0.13105317E+00
  0.14124104E+00  0.34515770E+00  0.15779704E+00
  0.37991662E+00  0.14255925E+00  0.58611942E-01
  0.87233554E+00  0.77099845E+00  0.56121850E+00
  0.99512853E+00  0.92854437E+00  0.53125273E+00
  0.89997017E+00  0.83680793E+00  0.49739623E+00
  0.29094989E+00  0.28563353E+00  0.94855973E+00
  0.33860342E+00  0.89449543E+00  0.94435836E+00
  0.26459935E-01  0.48799956E+00  0.92107505E-01
  0.69995805E+00  0.22150187E+00  0.60752315E+00
  0.90995800E+00  0.79410741E+00  0.13724378E+00
  0.68105550E+00  0.39004467E+00  0.35620734E+00
  0.76331226E+00  0.70373451E+00  0.52259933E+00
  0.21857054E+00  0.22764234E+00  0.84703836E+00
  0.23849913E-01  0.36136114E+00  0.86730109E+00
  0.96913488E+00  0.37801649E+00  0.32887257E-02
  0.28779960E+00  0.53801308E+00  0.95493977E+00
  0.45776540E+00  0.28182052E+00  0.12547994E+00
  0.27138229E+00  0.41881486E+00  0.99713895E+00
  0.29203528E+00  0.18596363E+00  0.56298648E-02
  0.94995829E+00  0.38428841E+00  0.90705230E+00
  0.82262797E+00  0.95691556E+00  0.26622978E+00
  0.41248526E+00  0.29258346E-01  0.99453885E+00
  0.68477957E+00  0.98424624E+00  0.95605345E+00
  0.53470947E+00  0.63414547E+00  0.86294093E+00
  0.45324078E+00  0.34659901E+00  0.23006152E+00
  0.39534585E+00  0.61094248E+00  0.98640369E-02
  0.96756855E+00  0.58322101E+00  0.12213441E+00
  0.64738806E+00  0.18726448E+00  0.44269303E+00
  0.53112013E+00  0.19171049E+00  0.25765155E+00
  0.44189655E+00  0.53332814E+00  0.19867188E+00
  0.74119314E+00  0.66838067E+00  0.44279083E+00
  0.74324591E+00  0.17413070E+00  0.56542045E+00
  0.84152021E+00  0.64666944E+00  0.79010538E+00
  0.17201131E+00  0.14179878E+00  0.87092782E-01
  0.99049422E+00  0.36591750E+00  0.79369281E+00
  0.93885959E-01  0.55352103E+00  0.88283994E-01
  0.23579467E+00  0.14143598E+00  0.22500666E+00
  0.29202303E+00  0.21967812E+00  0.33677461E+00
  0.67968429E+00  0.66554578E+00  0.78508070E+00
  0.79682000E+00  0.52969511E+00  0.66640340E+00
  0.85736096E-01  0.47604676E+00  0.23563390E+00
  0.90359870E+00  0.68657054E+00  0.55023291E+00
  0.56524328E+00  0.43881355E+00  0.41101745E+00
  0.37940218E+00  0.69560211E+00  0.26096923E+00
  0.98777849E+00  0.15605722E-01  0.58816431E+00
  0.61352021E+00  0.41349767E+00  0.75021976E+00
  0.66214505E+00  0.65188806E+00  0.65924128E+00
  0.73849302E+00  0.60669053E+00  0.54732382E+00
  0.74618109E+00  0.28130076E+00  0.68424949E+00
  0.14769462E+00  0.21781798E+00  0.37891683E+00
  0.53754723E+00  0.21549650E+00  0.45517003E+00
  0.76954968E+00  0.25528885E+00  0.30185601E+00
  0.68166197E+00  0.40740534E+00  0.16072512E+00
  0.30149692E+00  0.58853375E+00  0.27547489E+00
  0.88115072E+00  0.76796566E+00  0.42541069E+00
  0.25361189E-01  0.32073998E+00  0.61837477E+00
  0.68634453E+00  0.49503124E+00  0.34814507E+00
  0.59562421E+00  0.96147538E+00  0.68333297E+00
  0.80806827E-01  0.11504089E+00  0.26369069E+00
  0.71890068E+00  0.12445690E-02  0.68457965E+00
  0.50440789E-01  0.29189912E+00  0.43277191E+00
  0.87829571E+00  0.10107157E+00  0.45045075E+00
  0.88165728E+00  0.16699612E+00  0.30396970E+00
  0.14650920E+00  0.41143800E-01  0.33407099E+00
  0.12405447E+00  0.32924448E+00  0.58600343E+00
  0.96125869E+00  0.61032741E-01  0.29042339E+00
  0.94236961E+00  0.49430205E+00  0.89703526E+00
  0.13109598E+00  0.53691192E+00  0.64864715E+00
  0.74987863E+00  0.28796863E+00  0.14859476E+00
  0.94494172E+00  0.33296051E+00  0.42507569E+00
  0.78266603E+00  0.40869326E-01  0.14485473E+00
  0.74051500E+00  0.41306914E+00  0.42007039E+00
  0.55461120E+00  0.43543340E+00  0.55116079E+00
  0.73014520E+00  0.79300287E+00  0.54741624E+00
  0.42213978E+00  0.49704163E+00  0.37790695E+00
  0.70786203E+00  0.41649599E+00  0.58477918E+00
  0.64685456E+00  0.20530100E+00  0.23227367E+00
  0.87932295E-01  0.55933592E+00  0.54087503E+00
  0.45645838E+00  0.22085203E+00  0.32471006E+00
  0.84352458E+00  0.89898527E+00  0.47808576E+00
  0.51532999E+00  0.31288832E+00  0.57567176E+00
  0.54802746E+00  0.73434307E+00  0.92049147E+00
  0.88715343E+00  0.82762874E+00  0.65010568E+00
  0.60336681E+00  0.16243891E+00  0.67320047E+00
  0.84827667E-01  0.45635646E+00  0.89583829E+00
  0.33745329E-01  0.56182684E+00  0.62567231E+00
  0.63508619E+00  0.87992347E+00  0.58573655E+00
  0.99690798E+00  0.27330116E+00  0.29664168E-02
  0.78144757E+00  0.48147694E+00  0.76573918E+00
  0.84600141E+00  0.72170960E+00  0.13609348E+00
  0.44751239E+00  0.68678063E+00  0.75020348E+00
  0.37811811E+00  0.34063783E+00  0.21777923E+00
  0.26213435E+00  0.23364558E+00  0.48856345E-01
  0.55904493E+00  0.55259029E+00  0.28218340E+00
  0.63935287E+00  0.92557700E+00  0.88747566E+00
  0.26536835E+00  0.89385181E+00  0.89933614E+00
  0.24546933E+00  0.95357438E-01  0.94959650E+00
  0.33287730E+00  0.83885773E+00  0.43319843E-02
  0.44916575E+00  0.36092168E+00  0.85393993E-01
  0.48045555E+00  0.86137043E-02  0.44608853E-01
  0.35642894E+00  0.71976800E+00  0.82941941E+00
  0.45965784E+00  0.83260035E+00  0.88961225E+00
  0.79888317E+00  0.94913096E+00  0.89184760E+00
  0.90830588E+00  0.34264527E+00  0.17913816E-01
  0.37730642E+00  0.88746563E+00  0.82381995E+00
  0.52965793E+00  0.26277111E+00  0.14066029E+00
  0.36409314E+00  0.74436179E+00  0.36482736E+00
  0.38199009E-01  0.69989188E+00  0.98985450E+00
  0.26404475E+00  0.87297190E+00  0.13377011E+00
  0.88146769E+00  0.30413648E+00  0.86261122E+00
  0.43581043E+00  0.52501291E+00  0.10888030E-01
  0.43380153E+00  0.66815936E+00  0.98135492E+00
  0.37848264E+00  0.81529821E-01  0.11181765E+00
  0.43822931E+00  0.88410171E-01  0.95224531E+00
  0.89986316E+00  0.51195722E+00  0.12509583E+00
  0.60644059E+00  0.61970813E+00  0.89824293E+00
  0.81706890E-02  0.64503953E+00  0.19325132E+00
  0.18764768E+00  0.30879258E+00  0.82452766E+00
  0.95747145E+00  0.83928531E+00  0.21395769E+00
  0.18750086E+00  0.42598656E+00  0.13932567E+00
  0.47044745E+00  0.27545481E+00  0.73616114E+00
  0.75121792E+00  0.98360616E+00  0.36593366E+00
  0.54493955E+00  0.88251877E-01  0.77594989E+00
  0.13558142E+00  0.74620464E+00  0.16341976E+00
  0.49405276E+00  0.56386831E+00  0.88519649E+00
  0.82539888E+00  0.97321024E-01  0.98383688E+00
  0.31902910E+00  0.42937607E+00  0.70486928E-01
  0.23383905E+00  0.60962698E+00  0.95436971E+00
  0.37253773E+00  0.30739867E+00  0.95588274E+00
  0.50633916E+00  0.64737163E+00  0.40706547E+00
  0.20101529E+00  0.37918331E+00  0.64784306E-02
  0.28658591E+00  0.48021543E+00  0.88600795E+00
  0.40077583E+00  0.66843998E+00  0.78331900E-01
  0.15903798E+00  0.18162412E+00  0.85606938E+00
  0.73309071E+00  0.85894388E+00  0.12020584E+00
  0.85620442E-01  0.19127474E+00  0.25101664E-01
  0.31604806E+00  0.26524328E+00  0.69774254E+00
  0.86267428E+00  0.88498493E+00  0.28401400E+00
  0.49869628E-01  0.26047122E+00  0.86624522E+00
  0.79810123E-01  0.82068571E+00  0.48025373E+00
  0.23114264E+00  0.78928816E+00  0.66533031E+00
  0.18350102E+00  0.99860609E+00  0.54631560E+00
  0.41797910E+00  0.83674628E+00  0.66081495E+00
  0.80016736E+00  0.44537767E+00  0.24750456E+00
  0.55940558E+00  0.86735546E-01  0.55963608E+00
  0.70751237E+00  0.76101973E+00  0.31982109E+00
  0.61216378E+00  0.81696364E+00  0.29785908E+00
  0.49614527E+00  0.56153049E+00  0.62756509E+00
  0.27680777E+00  0.39471704E+00  0.27236905E+00
  0.10187130E-01  0.33422879E+00  0.16974090E+00
  0.19095846E+00  0.38733319E+00  0.30915888E+00
  0.45946021E+00  0.42150648E+00  0.67710213E+00
  0.69761000E+00  0.11214547E-01  0.24265675E+00
  0.67979154E+00  0.71384803E+00  0.13838216E+00
  0.56981460E+00  0.71634659E+00  0.12393381E+00
  0.56269348E+00  0.73699518E+00  0.75595923E+00
  0.76134603E-01  0.14194035E+00  0.12447140E+00
  0.66997069E+00  0.89350763E-01  0.97420091E+00
  0.29291955E+00  0.73699568E-01  0.80422268E+00
  0.66834277E+00  0.92442195E+00  0.64245176E-02
  0.24326416E+00  0.65176060E+00  0.51327589E+00
  0.28105578E-01  0.96061827E+00  0.40573055E+00
  0.87954321E+00  0.65054621E+00  0.68239435E-02
  0.18586024E+00  0.71695599E+00  0.43034635E-01
  0.93087454E+00  0.50648117E-02  0.14376610E+00
  0.17118417E-01  0.85927844E+00  0.29623803E-01
  0.13249402E+00  0.92401195E+00  0.18890134E+00
  0.86860722E-01  0.95645585E-01  0.51644580E+00
  0.44423285E+00  0.57184446E-02  0.77770614E+00
  0.37769601E+00  0.34727850E+00  0.81861163E+00
  0.19336148E+00  0.87914890E+00  0.31441262E-01
  0.77034696E+00  0.79651002E+00  0.98840198E+00
  0.87169658E+00  0.84880171E+00  0.96954586E+00
  0.50926476E+00  0.14380014E+00  0.87060734E+00
  0.28197507E+00  0.80234153E+00  0.48630472E+00
  0.31216756E+00  0.92872002E+00  0.68464332E+00
  0.12024131E+00  0.13143434E+00  0.65842303E+00
  0.41505590E+00  0.72110000E+00  0.55562329E+00
  0.11444094E+00  0.99302005E+00  0.70139971E+00
  0.36527984E+00  0.66855464E+00  0.62622493E+00
  0.48917692E-01  0.76702865E+00  0.57350154E+00
  0.40538856E+00  0.12172366E+00  0.66139363E+00
  0.61643200E+00  0.59215378E+00  0.17291054E+00
  0.00000000E+00  0.00000000E+00  0.00000000E+00
  0.00000000E+00  0.00000000E+00  0.00000000E+00
  0.00000000E+00  0.00000000E+00  0.00000000E+00
  0.00000000E+00  0.00000000E+00  0.00000000E+00
  0.00000000E+00  0.00000000E+00  0.00000000E+00
  0.00000000E+00  0.00000000E+00  0.00000000E+00
  0.00000000E+00  0.00000000E+00  0.00000000E+00
  0.00000000E+00  0.00000000E+00  0.00000000E+00
  0.00000000E+00  0.00000000E+00  0.00000000E+00
  0.00000000E+00  0.00000000E+00  0.00000000E+00
  0.00000000E+00  0.00000000E+00  0.00000000E+00
  0.00000000E+00  0.00000000E+00  0.00000000E+00
  0.00000000E+00  0.00000000E+00  0.00000000E+00
  0.00000000E+00  0.00000000E+00  0.00000000E+00
  0.00000000E+00  0.00000000E+00  0.00000000E+00
  0.00000000E+00  0.00000000E+00  0.00000000E+00
  0.00000000E+00  0.00000000E+00  0.00000000E+00
  0.00000000E+00  0.00000000E+00  0.00000000E+00
  0.00000000E+00  0.00000000E+00  0.00000000E+00
  0.00000000E+00  0.00000000E+00  0.00000000E+00
  0.00000000E+00  0.00000000E+00  0.00000000E+00
  0.00000000E+00  0.00000000E+00  0.00000000E+00
  0.00000000E+00  0.00000000E+00  0.00000000E+00
  0.00000000E+00  0.00000000E+00  0.00000000E+00
  0.00000000E+00  0.00000000E+00  0.00000000E+00
  0.00000000E+00  0.00000000E+00  0.00000000E+00
  0.00000000E+00  0.00000000E+00  0.00000000E+00
  0.00000000E+00  0.00000000E+00  0.00000000E+00
  0.00000000E+00  0.00000000E+00  0.00000000E+00
  0.00000000E+00  0.00000000E+00  0.00000000E+00
  0.00000000E+00  0.00000000E+00  0.00000000E+00
  0.00000000E+00  0.00000000E+00  0.00000000E+00
  0.00000000E+00  0.00000000E+00  0.00000000E+00
  0.00000000E+00  0.00000000E+00  0.00000000E+00
  0.00000000E+00  0.00000000E+00  0.00000000E+00
  0.00000000E+00  0.00000000E+00  0.00000000E+00
  0.00000000E+00  0.00000000E+00  0.00000000E+00
  0.00000000E+00  0.00000000E+00  0.00000000E+00
  0.00000000E+00  0.00000000E+00  0.00000000E+00
  0.00000000E+00  0.00000000E+00  0.00000000E+00
  0.00000000E+00  0.00000000E+00  0.00000000E+00
  0.00000000E+00  0.00000000E+00  0.00000000E+00
  0.00000000E+00  0.00000000E+00  0.00000000E+00
  0.00000000E+00  0.00000000E+00  0.00000000E+00
  0.00000000E+00  0.00000000E+00  0.00000000E+00
  0.00000000E+00  0.00000000E+00  0.00000000E+00
  0.00000000E+00  0.00000000E+00  0.00000000E+00
  0.00000000E+00  0.00000000E+00  0.00000000E+00
  0.00000000E+00  0.00000000E+00  0.00000000E+00
  0.00000000E+00  0.00000000E+00  0.00000000E+00
  0.00000000E+00  0.00000000E+00  0.00000000E+00
  0.00000000E+00  0.00000000E+00  0.00000000E+00
  0.00000000E+00  0.00000000E+00  0.00000000E+00
  0.00000000E+00  0.00000000E+00  0.00000000E+00
  0.00000000E+00  0.00000000E+00  0.00000000E+00
  0.00000000E+00  0.00000000E+00  0.00000000E+00
  0.00000000E+00  0.00000000E+00  0.00000000E+00
  0.00000000E+00  0.00000000E+00  0.00000000E+00
  0.00000000E+00  0.00000000E+00  0.00000000E+00
  0.00000000E+00  0.00000000E+00  0.00000000E+00
  0.00000000E+00  0.00000000E+00  0.00000000E+00
  0.00000000E+00  0.00000000E+00  0.00000000E+00
  0.00000000E+00  0.00000000E+00  0.00000000E+00
  0.00000000E+00  0.00000000E+00  0.00000000E+00
  0.00000000E+00  0.00000000E+00  0.00000000E+00
  0.00000000E+00  0.00000000E+00  0.00000000E+00
  0.00000000E+00  0.00000000E+00  0.00000000E+00
  0.00000000E+00  0.00000000E+00  0.00000000E+00
  0.00000000E+00  0.00000000E+00  0.00000000E+00
  0.00000000E+00  0.00000000E+00  0.00000000E+00
  0.00000000E+00  0.00000000E+00  0.00000000E+00
  0.00000000E+00  0.00000000E+00  0.00000000E+00
  0.00000000E+00  0.00000000E+00  0.00000000E+00
  0.00000000E+00  0.00000000E+00  0.00000000E+00
  0.00000000E+00  0.00000000E+00  0.00000000E+00
  0.00000000E+00  0.00000000E+00  0.00000000E+00
  0.00000000E+00  0.00000000E+00  0.00000000E+00
  0.00000000E+00  0.00000000E+00  0.00000000E+00
  0.00000000E+00  0.00000000E+00  0.00000000E+00
  0.00000000E+00  0.00000000E+00  0.00000000E+00
  0.00000000E+00  0.00000000E+00  0.00000000E+00
  0.00000000E+00  0.00000000E+00  0.00000000E+00
  0.00000000E+00  0.00000000E+00  0.00000000E+00
  0.00000000E+00  0.00000000E+00  0.00000000E+00
  0.00000000E+00  0.00000000E+00  0.00000000E+00
  0.00000000E+00  0.00000000E+00  0.00000000E+00
  0.00000000E+00  0.00000000E+00  0.00000000E+00
  0.00000000E+00  0.00000000E+00  0.00000000E+00
  0.00000000E+00  0.00000000E+00  0.00000000E+00
  0.00000000E+00  0.00000000E+00  0.00000000E+00
  0.00000000E+00  0.00000000E+00  0.00000000E+00
  0.00000000E+00  0.00000000E+00  0.00000000E+00
  0.00000000E+00  0.00000000E+00  0.00000000E+00
  0.00000000E+00  0.00000000E+00  0.00000000E+00
  0.00000000E+00  0.00000000E+00  0.00000000E+00
  0.00000000E+00  0.00000000E+00  0.00000000E+00
  0.00000000E+00  0.00000000E+00  0.00000000E+00
  0.00000000E+00  0.00000000E+00  0.00000000E+00
  0.00000000E+00  0.00000000E+00  0.00000000E+00
  0.00000000E+00  0.00000000E+00  0.00000000E+00
  0.00000000E+00  0.00000000E+00  0.00000000E+00
  0.00000000E+00  0.00000000E+00  0.00000000E+00
  0.00000000E+00  0.00000000E+00  0.00000000E+00
  0.00000000E+00  0.00000000E+00  0.00000000E+00
  0.00000000E+00  0.00000000E+00  0.00000000E+00
  0.00000000E+00  0.00000000E+00  0.00000000E+00
  0.00000000E+00  0.00000000E+00  0.00000000E+00
  0.00000000E+00  0.00000000E+00  0.00000000E+00
  0.00000000E+00  0.00000000E+00  0.00000000E+00
  0.00000000E+00  0.00000000E+00  0.00000000E+00
  0.00000000E+00  0.00000000E+00  0.00000000E+00
  0.00000000E+00  0.00000000E+00  0.00000000E+00
  0.00000000E+00  0.00000000E+00  0.00000000E+00
  0.00000000E+00  0.00000000E+00  0.00000000E+00
  0.00000000E+00  0.00000000E+00  0.00000000E+00
  0.00000000E+00  0.00000000E+00  0.00000000E+00
  0.00000000E+00  0.00000000E+00  0.00000000E+00
  0.00000000E+00  0.00000000E+00  0.00000000E+00
  0.00000000E+00  0.00000000E+00  0.00000000E+00
  0.00000000E+00  0.00000000E+00  0.00000000E+00
  0.00000000E+00  0.00000000E+00  0.00000000E+00
  0.00000000E+00  0.00000000E+00  0.00000000E+00
  0.00000000E+00  0.00000000E+00  0.00000000E+00
  0.00000000E+00  0.00000000E+00  0.00000000E+00
  0.00000000E+00  0.00000000E+00  0.00000000E+00
  0.00000000E+00  0.00000000E+00  0.00000000E+00
  0.00000000E+00  0.00000000E+00  0.00000000E+00
  0.00000000E+00  0.00000000E+00  0.00000000E+00
  0.00000000E+00  0.00000000E+00  0.00000000E+00
  0.00000000E+00  0.00000000E+00  0.00000000E+00
  0.00000000E+00  0.00000000E+00  0.00000000E+00
  0.00000000E+00  0.00000000E+00  0.00000000E+00
  0.00000000E+00  0.00000000E+00  0.00000000E+00
  0.00000000E+00  0.00000000E+00  0.00000000E+00
  0.00000000E+00  0.00000000E+00  0.00000000E+00
  0.00000000E+00  0.00000000E+00  0.00000000E+00
  0.00000000E+00  0.00000000E+00  0.00000000E+00
  0.00000000E+00  0.00000000E+00  0.00000000E+00
  0.00000000E+00  0.00000000E+00  0.00000000E+00
  0.00000000E+00  0.00000000E+00  0.00000000E+00
  0.00000000E+00  0.00000000E+00  0.00000000E+00
  0.00000000E+00  0.00000000E+00  0.00000000E+00
  0.00000000E+00  0.00000000E+00  0.00000000E+00
  0.00000000E+00  0.00000000E+00  0.00000000E+00
  0.00000000E+00  0.00000000E+00  0.00000000E+00
  0.00000000E+00  0.00000000E+00  0.00000000E+00
  0.00000000E+00  0.00000000E+00  0.00000000E+00
  0.00000000E+00  0.00000000E+00  0.00000000E+00
  0.00000000E+00  0.00000000E+00  0.00000000E+00
  0.00000000E+00  0.00000000E+00  0.00000000E+00
  0.00000000E+00  0.00000000E+00  0.00000000E+00
  0.00000000E+00  0.00000000E+00  0.00000000E+00
  0.00000000E+00  0.00000000E+00  0.00000000E+00
  0.00000000E+00  0.00000000E+00  0.00000000E+00
  0.00000000E+00  0.00000000E+00  0.00000000E+00
  0.00000000E+00  0.00000000E+00  0.00000000E+00
  0.00000000E+00  0.00000000E+00  0.00000000E+00
  0.00000000E+00  0.00000000E+00  0.00000000E+00
  0.00000000E+00  0.00000000E+00  0.00000000E+00
  0.00000000E+00  0.00000000E+00  0.00000000E+00
  0.00000000E+00  0.00000000E+00  0.00000000E+00
  0.00000000E+00  0.00000000E+00  0.00000000E+00
  0.00000000E+00  0.00000000E+00  0.00000000E+00
  0.00000000E+00  0.00000000E+00  0.00000000E+00
  0.00000000E+00  0.00000000E+00  0.00000000E+00
  0.00000000E+00  0.00000000E+00  0.00000000E+00
  0.00000000E+00  0.00000000E+00  0.00000000E+00
  0.00000000E+00  0.00000000E+00  0.00000000E+00
  0.00000000E+00  0.00000000E+00  0.00000000E+00
  0.00000000E+00  0.00000000E+00  0.00000000E+00
  0.00000000E+00  0.00000000E+00  0.00000000E+00
  0.00000000E+00  0.00000000E+00  0.00000000E+00
  0.00000000E+00  0.00000000E+00  0.00000000E+00
  0.00000000E+00  0.00000000E+00  0.00000000E+00
  0.00000000E+00  0.00000000E+00  0.00000000E+00
  0.00000000E+00  0.00000000E+00  0.00000000E+00
  0.00000000E+00  0.00000000E+00  0.00000000E+00
  0.00000000E+00  0.00000000E+00  0.00000000E+00
  0.00000000E+00  0.00000000E+00  0.00000000E+00
  0.00000000E+00  0.00000000E+00  0.00000000E+00
  0.00000000E+00  0.00000000E+00  0.00000000E+00
  0.00000000E+00  0.00000000E+00  0.00000000E+00
  0.00000000E+00  0.00000000E+00  0.00000000E+00
  0.00000000E+00  0.00000000E+00  0.00000000E+00
  0.00000000E+00  0.00000000E+00  0.00000000E+00
  0.00000000E+00  0.00000000E+00  0.00000000E+00
  0.00000000E+00  0.00000000E+00  0.00000000E+00
  0.00000000E+00  0.00000000E+00  0.00000000E+00
  0.00000000E+00  0.00000000E+00  0.00000000E+00
  0.00000000E+00  0.00000000E+00  0.00000000E+00
  0.00000000E+00  0.00000000E+00  0.00000000E+00
  0.00000000E+00  0.00000000E+00  0.00000000E+00
  0.00000000E+00  0.00000000E+00  0.00000000E+00
  0.00000000E+00  0.00000000E+00  0.00000000E+00
  0.00000000E+00  0.00000000E+00  0.00000000E+00
  0.00000000E+00  0.00000000E+00  0.00000000E+00
  0.00000000E+00  0.00000000E+00  0.00000000E+00
  0.00000000E+00  0.00000000E+00  0.00000000E+00
  0.00000000E+00  0.00000000E+00  0.00000000E+00
  0.00000000E+00  0.00000000E+00  0.00000000E+00
  0.00000000E+00  0.00000000E+00  0.00000000E+00
  0.00000000E+00  0.00000000E+00  0.00000000E+00
  0.00000000E+00  0.00000000E+00  0.00000000E+00
  0.00000000E+00  0.00000000E+00  0.00000000E+00
  0.00000000E+00  0.00000000E+00  0.00000000E+00
  0.00000000E+00  0.00000000E+00  0.00000000E+00
  0.00000000E+00  0.00000000E+00  0.00000000E+00
  0.00000000E+00  0.00000000E+00  0.00000000E+00
  0.00000000E+00  0.00000000E+00  0.00000000E+00
  0.00000000E+00  0.00000000E+00  0.00000000E+00
  0.00000000E+00  0.00000000E+00  0.00000000E+00
  0.00000000E+00  0.00000000E+00  0.00000000E+00
  0.00000000E+00  0.00000000E+00  0.00000000E+00
  0.00000000E+00  0.00000000E+00  0.00000000E+00
  0.00000000E+00  0.00000000E+00  0.00000000E+00
  0.00000000E+00  0.00000000E+00  0.00000000E+00
  0.00000000E+00  0.00000000E+00  0.00000000E+00
  0.00000000E+00  0.00000000E+00  0.00000000E+00
  0.00000000E+00  0.00000000E+00  0.00000000E+00
  0.00000000E+00  0.00000000E+00  0.00000000E+00
  0.00000000E+00  0.00000000E+00  0.00000000E+00
  0.00000000E+00  0.00000000E+00  0.00000000E+00
  0.00000000E+00  0.00000000E+00  0.00000000E+00
  0.00000000E+00  0.00000000E+00  0.00000000E+00
  0.00000000E+00  0.00000000E+00  0.00000000E+00
  0.00000000E+00  0.00000000E+00  0.00000000E+00
  0.00000000E+00  0.00000000E+00  0.00000000E+00
  0.00000000E+00  0.00000000E+00  0.00000000E+00
  0.00000000E+00  0.00000000E+00  0.00000000E+00
  0.00000000E+00  0.00000000E+00  0.00000000E+00
  0.00000000E+00  0.00000000E+00  0.00000000E+00
  0.00000000E+00  0.00000000E+00  0.00000000E+00
  0.00000000E+00  0.00000000E+00  0.00000000E+00
  0.00000000E+00  0.00000000E+00  0.00000000E+00
  0.00000000E+00  0.00000000E+00  0.00000000E+00
  0.00000000E+00  0.00000000E+00  0.00000000E+00
  0.00000000E+00  0.00000000E+00  0.00000000E+00
  0.00000000E+00  0.00000000E+00  0.00000000E+00
  0.00000000E+00  0.00000000E+00  0.00000000E+00
  0.00000000E+00  0.00000000E+00  0.00000000E+00
  0.00000000E+00  0.00000000E+00  0.00000000E+00
  0.00000000E+00  0.00000000E+00  0.00000000E+00
  0.00000000E+00  0.00000000E+00  0.00000000E+00
  0.00000000E+00  0.00000000E+00  0.00000000E+00
  0.00000000E+00  0.00000000E+00  0.00000000E+00
  0.00000000E+00  0.00000000E+00  0.00000000E+00
  0.00000000E+00  0.00000000E+00  0.00000000E+00
  0.00000000E+00  0.00000000E+00  0.00000000E+00
  0.00000000E+00  0.00000000E+00  0.00000000E+00
  0.00000000E+00  0.00000000E+00  0.00000000E+00
  0.00000000E+00  0.00000000E+00  0.00000000E+00
  0.00000000E+00  0.00000000E+00  0.00000000E+00
  0.00000000E+00  0.00000000E+00  0.00000000E+00
  0.00000000E+00  0.00000000E+00  0.00000000E+00
  0.00000000E+00  0.00000000E+00  0.00000000E+00
  0.00000000E+00  0.00000000E+00  0.00000000E+00
  0.00000000E+00  0.00000000E+00  0.00000000E+00
  0.00000000E+00  0.00000000E+00  0.00000000E+00
  0.00000000E+00  0.00000000E+00  0.00000000E+00
  0.00000000E+00  0.00000000E+00  0.00000000E+00
  0.00000000E+00  0.00000000E+00  0.00000000E+00
  0.00000000E+00  0.00000000E+00  0.00000000E+00
  0.00000000E+00  0.00000000E+00  0.00000000E+00
  0.00000000E+00  0.00000000E+00  0.00000000E+00
  0.00000000E+00  0.00000000E+00  0.00000000E+00
  0.00000000E+00  0.00000000E+00  0.00000000E+00
  0.00000000E+00  0.00000000E+00  0.00000000E+00
  0.00000000E+00  0.00000000E+00  0.00000000E+00
  0.00000000E+00  0.00000000E+00  0.00000000E+00
  0.00000000E+00  0.00000000E+00  0.00000000E+00
  0.00000000E+00  0.00000000E+00  0.00000000E+00
  0.00000000E+00  0.00000000E+00  0.00000000E+00
  0.00000000E+00  0.00000000E+00  0.00000000E+00
  0.00000000E+00  0.00000000E+00  0.00000000E+00
  0.00000000E+00  0.00000000E+00  0.00000000E+00
  0.00000000E+00  0.00000000E+00  0.00000000E+00
  0.00000000E+00  0.00000000E+00  0.00000000E+00
  0.00000000E+00  0.00000000E+00  0.00000000E+00
  0.00000000E+00  0.00000000E+00  0.00000000E+00
  0.00000000E+00  0.00000000E+00  0.00000000E+00
  0.00000000E+00  0.00000000E+00  0.00000000E+00
  0.00000000E+00  0.00000000E+00  0.00000000E+00
  0.00000000E+00  0.00000000E+00  0.00000000E+00
  0.00000000E+00  0.00000000E+00  0.00000000E+00
  0.00000000E+00  0.00000000E+00  0.00000000E+00
  0.00000000E+00  0.00000000E+00  0.00000000E+00
  0.00000000E+00  0.00000000E+00  0.00000000E+00
  0.00000000E+00  0.00000000E+00  0.00000000E+00
  0.00000000E+00  0.00000000E+00  0.00000000E+00
  0.00000000E+00  0.00000000E+00  0.00000000E+00
  0.00000000E+00  0.00000000E+00  0.00000000E+00
  0.00000000E+00  0.00000000E+00  0.00000000E+00
  0.00000000E+00  0.00000000E+00  0.00000000E+00
  0.00000000E+00  0.00000000E+00  0.00000000E+00
  0.00000000E+00  0.00000000E+00  0.00000000E+00
  0.00000000E+00  0.00000000E+00  0.00000000E+00
  0.00000000E+00  0.00000000E+00  0.00000000E+00
  0.00000000E+00  0.00000000E+00  0.00000000E+00
  0.00000000E+00  0.00000000E+00  0.00000000E+00
  0.00000000E+00  0.00000000E+00  0.00000000E+00
  0.00000000E+00  0.00000000E+00  0.00000000E+00
  0.00000000E+00  0.00000000E+00  0.00000000E+00
  0.00000000E+00  0.00000000E+00  0.00000000E+00
  0.00000000E+00  0.00000000E+00  0.00000000E+00
  0.00000000E+00  0.00000000E+00  0.00000000E+00
  0.00000000E+00  0.00000000E+00  0.00000000E+00
  0.00000000E+00  0.00000000E+00  0.00000000E+00
  0.00000000E+00  0.00000000E+00  0.00000000E+00
  0.00000000E+00  0.00000000E+00  0.00000000E+00
  0.00000000E+00  0.00000000E+00  0.00000000E+00
  0.00000000E+00  0.00000000E+00  0.00000000E+00
  0.00000000E+00  0.00000000E+00  0.00000000E+00
  0.00000000E+00  0.00000000E+00  0.00000000E+00
  0.00000000E+00  0.00000000E+00  0.00000000E+00
  0.00000000E+00  0.00000000E+00  0.00000000E+00
  0.00000000E+00  0.00000000E+00  0.00000000E+00
  0.00000000E+00  0.00000000E+00  0.00000000E+00
  0.00000000E+00  0.00000000E+00  0.00000000E+00
  0.00000000E+00  0.00000000E+00  0.00000000E+00
  0.00000000E+00  0.00000000E+00  0.00000000E+00
  0.00000000E+00  0.00000000E+00  0.00000000E+00
  0.00000000E+00  0.00000000E+00  0.00000000E+00
  0.00000000E+00  0.00000000E+00  0.00000000E+00
  0.00000000E+00  0.00000000E+00  0.00000000E+00
  0.00000000E+00  0.00000000E+00  0.00000000E+00
  0.00000000E+00  0.00000000E+00  0.00000000E+00
  0.00000000E+00  0.00000000E+00  0.00000000E+00
  0.00000000E+00  0.00000000E+00  0.00000000E+00
  0.00000000E+00  0.00000000E+00  0.00000000E+00
  0.00000000E+00  0.00000000E+00  0.00000000E+00
  0.00000000E+00  0.00000000E+00  0.00000000E+00
  0.00000000E+00  0.00000000E+00  0.00000000E+00
  0.00000000E+00  0.00000000E+00  0.00000000E+00
  0.00000000E+00  0.00000000E+00  0.00000000E+00
  0.00000000E+00  0.00000000E+00  0.00000000E+00
  0.00000000E+00  0.00000000E+00  0.00000000E+00
  0.00000000E+00  0.00000000E+00  0.00000000E+00
  0.00000000E+00  0.00000000E+00  0.00000000E+00
  0.00000000E+00  0.00000000E+00  0.00000000E+00
  0.00000000E+00  0.00000000E+00  0.00000000E+00
  0.00000000E+00  0.00000000E+00  0.00000000E+00
  0.00000000E+00  0.00000000E+00  0.00000000E+00
  0.00000000E+00  0.00000000E+00  0.00000000E+00
  0.00000000E+00  0.00000000E+00  0.00000000E+00
  0.00000000E+00  0.00000000E+00  0.00000000E+00
  0.00000000E+00  0.00000000E+00  0.00000000E+00
  0.00000000E+00  0.00000000E+00  0.00000000E+00
  0.00000000E+00  0.00000000E+00  0.00000000E+00
  0.00000000E+00  0.00000000E+00  0.00000000E+00
  0.00000000E+00  0.00000000E+00  0.00000000E+00
  0.00000000E+00  0.00000000E+00  0.00000000E+00
  0.00000000E+00  0.00000000E+00  0.00000000E+00
  0.00000000E+00  0.00000000E+00  0.00000000E+00
  0.00000000E+00  0.00000000E+00  0.00000000E+00
  0.00000000E+00  0.00000000E+00  0.00000000E+00
  0.00000000E+00  0.00000000E+00  0.00000000E+00
  0.00000000E+00  0.00000000E+00  0.00000000E+00
  0.00000000E+00  0.00000000E+00  0.00000000E+00
  0.00000000E+00  0.00000000E+00  0.00000000E+00
  0.00000000E+00  0.00000000E+00  0.00000000E+00
  0.00000000E+00  0.00000000E+00  0.00000000E+00
  0.00000000E+00  0.00000000E+00  0.00000000E+00
  0.00000000E+00  0.00000000E+00  0.00000000E+00
  0.00000000E+00  0.00000000E+00  0.00000000E+00
  0.00000000E+00  0.00000000E+00  0.00000000E+00
  0.00000000E+00  0.00000000E+00  0.00000000E+00
  0.00000000E+00  0.00000000E+00  0.00000000E+00
  0.00000000E+00  0.00000000E+00  0.00000000E+00
  0.00000000E+00  0.00000000E+00  0.00000000E+00
  0.00000000E+00  0.00000000E+00  0.00000000E+00
  0.00000000E+00  0.00000000E+00  0.00000000E+00
  0.00000000E+00  0.00000000E+00  0.00000000E+00
  0.00000000E+00  0.00000000E+00  0.00000000E+00
  0.00000000E+00  0.00000000E+00  0.00000000E+00
  0.00000000E+00  0.00000000E+00  0.00000000E+00
  0.00000000E+00  0.00000000E+00  0.00000000E+00
  0.00000000E+00  0.00000000E+00  0.00000000E+00
  0.00000000E+00  0.00000000E+00  0.00000000E+00
  0.00000000E+00  0.00000000E+00  0.00000000E+00
  0.00000000E+00  0.00000000E+00  0.00000000E+00
  0.00000000E+00  0.00000000E+00  0.00000000E+00
  0.00000000E+00  0.00000000E+00  0.00000000E+00
  0.00000000E+00  0.00000000E+00  0.00000000E+00
  0.00000000E+00  0.00000000E+00  0.00000000E+00
  0.00000000E+00  0.00000000E+00  0.00000000E+00
  0.00000000E+00  0.00000000E+00  0.00000000E+00
  0.00000000E+00  0.00000000E+00  0.00000000E+00
  0.00000000E+00  0.00000000E+00  0.00000000E+00
  0.00000000E+00  0.00000000E+00  0.00000000E+00
  0.00000000E+00  0.00000000E+00  0.00000000E+00
  0.00000000E+00  0.00000000E+00  0.00000000E+00
  0.00000000E+00  0.00000000E+00  0.00000000E+00
  0.00000000E+00  0.00000000E+00  0.00000000E+00
  0.00000000E+00  0.00000000E+00  0.00000000E+00
  0.00000000E+00  0.00000000E+00  0.00000000E+00
  0.00000000E+00  0.00000000E+00  0.00000000E+00
  0.00000000E+00  0.00000000E+00  0.00000000E+00
  0.00000000E+00  0.00000000E+00  0.00000000E+00
  0.00000000E+00  0.00000000E+00  0.00000000E+00
  0.00000000E+00  0.00000000E+00  0.00000000E+00
  0.00000000E+00  0.00000000E+00  0.00000000E+00
  0.00000000E+00  0.00000000E+00  0.00000000E+00
  0.00000000E+00  0.00000000E+00  0.00000000E+00
  0.00000000E+00  0.00000000E+00  0.00000000E+00
  0.00000000E+00  0.00000000E+00  0.00000000E+00
  0.00000000E+00  0.00000000E+00  0.00000000E+00
  0.00000000E+00  0.00000000E+00  0.00000000E+00
  0.00000000E+00  0.00000000E+00  0.00000000E+00
  0.00000000E+00  0.00000000E+00  0.00000000E+00
  0.00000000E+00  0.00000000E+00  0.00000000E+00
  0.00000000E+00  0.00000000E+00  0.00000000E+00
  0.00000000E+00  0.00000000E+00  0.00000000E+00
  0.00000000E+00  0.00000000E+00  0.00000000E+00
  0.00000000E+00  0.00000000E+00  0.00000000E+00
  0.00000000E+00  0.00000000E+00  0.00000000E+00
  0.00000000E+00  0.00000000E+00  0.00000000E+00
  0.00000000E+00  0.00000000E+00  0.00000000E+00
  0.00000000E+00  0.00000000E+00  0.00000000E+00
  0.00000000E+00  0.00000000E+00  0.00000000E+00
  0.00000000E+00  0.00000000E+00  0.00000000E+00
  0.00000000E+00  0.00000000E+00  0.00000000E+00
  0.00000000E+00  0.00000000E+00  0.00000000E+00
  0.00000000E+00  0.00000000E+00  0.00000000E+00
  0.00000000E+00  0.00000000E+00  0.00000000E+00
  0.00000000E+00  0.00000000E+00  0.00000000E+00
  0.00000000E+00  0.00000000E+00  0.00000000E+00
  0.00000000E+00  0.00000000E+00  0.00000000E+00
  0.00000000E+00  0.00000000E+00  0.00000000E+00
  0.00000000E+00  0.00000000E+00  0.00000000E+00
  0.00000000E+00  0.00000000E+00  0.00000000E+00
  0.00000000E+00  0.00000000E+00  0.00000000E+00
  0.00000000E+00  0.00000000E+00  0.00000000E+00
  0.00000000E+00  0.00000000E+00  0.00000000E+00
  0.00000000E+00  0.00000000E+00  0.00000000E+00
  0.00000000E+00  0.00000000E+00  0.00000000E+00
  0.00000000E+00  0.00000000E+00  0.00000000E+00
  0.00000000E+00  0.00000000E+00  0.00000000E+00
  0.00000000E+00  0.00000000E+00  0.00000000E+00
  0.00000000E+00  0.00000000E+00  0.00000000E+00
  0.00000000E+00  0.00000000E+00  0.00000000E+00
  0.00000000E+00  0.00000000E+00  0.00000000E+00
  0.00000000E+00  0.00000000E+00  0.00000000E+00
  0.00000000E+00  0.00000000E+00  0.00000000E+00
  0.00000000E+00  0.00000000E+00  0.00000000E+00
  0.00000000E+00  0.00000000E+00  0.00000000E+00
  0.00000000E+00  0.00000000E+00  0.00000000E+00
  0.00000000E+00  0.00000000E+00  0.00000000E+00
  0.00000000E+00  0.00000000E+00  0.00000000E+00
  0.00000000E+00  0.00000000E+00  0.00000000E+00
  0.00000000E+00  0.00000000E+00  0.00000000E+00
  0.00000000E+00  0.00000000E+00  0.00000000E+00
  0.00000000E+00  0.00000000E+00  0.00000000E+00
  0.00000000E+00  0.00000000E+00  0.00000000E+00
  0.00000000E+00  0.00000000E+00  0.00000000E+00
  0.00000000E+00  0.00000000E+00  0.00000000E+00
  0.00000000E+00  0.00000000E+00  0.00000000E+00
  0.00000000E+00  0.00000000E+00  0.00000000E+00
  0.00000000E+00  0.00000000E+00  0.00000000E+00
  0.00000000E+00  0.00000000E+00  0.00000000E+00
  0.00000000E+00  0.00000000E+00  0.00000000E+00
  0.00000000E+00  0.00000000E+00  0.00000000E+00
  0.00000000E+00  0.00000000E+00  0.00000000E+00
  0.00000000E+00  0.00000000E+00  0.00000000E+00
  0.00000000E+00  0.00000000E+00  0.00000000E+00
  0.00000000E+00  0.00000000E+00  0.00000000E+00
  0.00000000E+00  0.00000000E+00  0.00000000E+00
