# Amorphous model
1.000000
13.7426276575136121  0.0000000000000000  0.0000000000000000
 0.0000000000000000 13.7426276575136121  0.0000000000000000
 0.0000000000000000  0.0000000000000000 13.7426276575136121
C H
77 156
Cartesian
 9.2839234202222620 13.5051450574356231 10.9904874857348531
 7.1519129999872249  3.5832534314172371  8.7888088267302429
11.8753595675362007  1.9764761878060710 13.1170981021738058
 6.9946342523074883  2.8144585693494584 10.1302337194543206
 0.2730682814555596  7.0784142621398587  2.5025976048646363
 4.2908996111481095  7.1224741769373878  2.4214095309917578
11.0519938434783711  9.8173529262673611  5.7044341082998979
12.1256149544125762  8.6753948417832802  5.6710793477613652
 4.8748005474779728  7.9861121816610989  3.5945074604257137
12.5696541027363615  8.3636856431571509  4.2011155005713210
 4.2074920946190595 10.3416553068267127  2.7502558582935297
13.0411281006387867  1.9582757769308827  1.7437300537081537
 1.6784223787827131  7.6026372890139804  2.0709636879677369
 2.8778602562521449 13.6296746335422903  4.9356706139531994
 8.9761961343689407  8.3337772764086431  5.2211201455521419
 1.8962299521235870 12.7472369935447212  5.7589126859028941
 4.3649030155156083 13.3931428979140570  5.2911635586441772
 1.7558416200438547  7.7544594873230821  0.5141831514340840
10.0219136053501927 11.3833805857367665  1.1763363987044233
13.3515532673606288  9.0435529584442165  6.5812526836811855
 1.6775065557339044  6.4249055705223022 13.4610147001973921
 9.7814518270604971  9.5955595211742661  4.8352173743225375
10.5806832486701552  0.0856791917026865 11.8086731278741794
 9.6617454448192142 12.4374201632248038  0.1073422441531999
 7.6300780675318727  0.4745041085611881  9.1309269369213268
 4.3331545690083395  8.9157055691126885  7.9686194015100220
13.4326300978209900  5.9445936428607489  4.7658246181278088
11.9368796601467295  3.9029647651111397  5.1598528990802315
 7.3704822676183923  4.6368050022278560  1.6690268028447974
 8.6566906834603152  0.0587637284418729  3.5320346049418330
12.7990575993047386  3.3945061830710799 11.1456384837276019
12.1433722766038770  5.1941798017205603  4.3363703674150180
10.5372593193002579  1.5266018512488397 12.4252610165813202
11.2145405572648365  0.1312768757117997  6.2588140161591976
12.3345322979624434  3.3846846966573541 12.6206668867647771
 8.1633546823901462  2.4449511304668814  2.7171308266834782
11.7168050779531505  1.9639777956581188  0.9306160227401890
 8.0654361517037465  4.5806877276812301  4.1593794484055415
 8.1176752350242722  1.4533536736221553  3.9090189942684663
 7.5969366223318069  5.0453063809939547  9.0051366071354266
 1.6599839433089016 10.6360307322594387  8.2763151713082017
 0.9939115917660626 12.0420765564599783  8.0834127935631166
 3.7795275476316146  9.4355938980426366  9.3164745363767238
10.3394302812304844  0.8112349915399975  7.3325506423929738
 1.8284937332301485 13.0981515201433609  7.2810862151009523
 2.9383739209830626 10.7357344576875384  9.1829980898458317
 9.1250339321550946  0.5057053902231807  9.6180804616154560
 0.6406808891106888  9.6082970640374121  8.8839845131006321
 2.5640155065174159  3.0014304360992359 12.8583981876729325
 4.1427311727813141  9.3185366101601090  3.9078711855777808
 7.4222256598271876  3.7892150065566010  2.9853673850783338
 3.9769763067636656  1.6981061302632412 10.2716025278191587
11.8095755074753122  8.4184717542830896 10.2350739524260526
13.0528805968365447  9.3536319613424936  8.0896833753244870
12.2255260789697360  8.1981253356133124  8.7548265392352320
 2.2580789178637932  1.7806740191582087  8.1842832043264657
 2.8870142841346471  1.5015339273392296 12.7060612927782657
 6.6375514702955734  6.0206445706232614  1.7503152208950716
10.8457195189181625 12.7181441757217151 12.8815550899178071
 2.8037105204319488  6.6911924561716702  2.6812905339973252
10.0636428351658331 13.6165508882478612  8.5388981216493605
10.8394149522618441  9.6055319072777827 10.4244152512378392
 1.2480525353491796  0.7923052497834799  7.5175230787383924
 7.1492608744201043  8.9425271541754725 12.8368907178266056
 6.7313001581483931  6.7482509862301434  0.3654025266562932
 2.5713113010683966  4.3594959250301883  8.5919015054487140
 5.1544575348771264  1.1057139577905222  9.4131524225557008
 1.6518585918411883  3.2189136514671794  8.0962726458414593
 2.5784615597957519  1.3241488418322405  9.6582868028272379
 7.0445459523038956  8.2651007744521117  0.4770747297234053
13.7005073094921883  7.2969676263843795  4.0222322732083633
 4.0905470723871957  1.2151724422064607 11.7648050375845159
 1.7632160098759542  6.6568305357397293 11.9386797326899767
 0.0749397748720320  0.6242910469543261  1.6512965841914493
 6.6032655253720982  1.3047664148374682  9.9794186290722848
 2.0261563624188383  5.7480015428928137  8.1983361902596457
 5.1525557827018158  5.8331194244242752  2.2205701114860315
 9.2349247026084740 12.4252864535016307 10.7975402999475243
 7.5674259644589874  0.8122845704795356  8.0905810157410087
 7.9305033188676219  2.8902084470203775 10.6975738291068154
 9.9619813318910140  9.5008141269934825  9.7741472657825028
11.0930322471526388 11.7862555709019716 12.3604643849087701
11.9757407797319573  3.1752188778018819 10.4556947010857186
 8.1062872046070424  3.9821639849566921  5.0765481924251770
 7.3499811001977200 10.0152377839114415 12.9503554222911745
 7.1776754586796052  6.6282077934071069  2.4848171927455365
 8.7154647691555027  1.8448083874498877  4.7397684886338052
 7.0864959617551051  1.3541504859108642  4.2700998365103242
13.1710656878245693  3.7409227336245223 13.2318279534570884
13.5842445507296787  2.6472124913281370 10.9872451605278236
 6.8932550943392314  4.0365663251223598  0.8823340791494623
11.3126413004918298  7.5066453500766883 10.5900444125553470
 9.4299714013630229  1.5496718038327799  9.7367366776836768
 8.5632449331904077  5.0849181890414084  9.5241683114320708
12.4510184831697153 10.2670869021967874  8.1400655639405919
12.6644253484649347  1.2671050287971575 12.8397096125872423
11.5250068499068519  4.1134841617409013 12.7555947679734345
10.4871211723970994  9.6439520618231143 11.4626218065779284
11.7400357006105800 12.9680543412804425 13.4644230861801084
 9.6951414754275014  0.1228590597429093  3.1833229400433822
 8.4300763888899262 13.7256608243724827 11.6385449087847164
 9.3979489577239548  1.1252375738157738  6.8699860556539214
10.7244704570814697 12.9708431206981594  5.8760298048835455
 7.7085088371449331  5.5583784522772568  8.0414270447252072
12.7977218433994544  7.2650387629091426  8.6868893033436976
 9.1296344634160249 10.4709810215561205  4.9502740607729354
11.0293209105057528 13.3533004306373044  8.9855416663062968
 9.1666121863212027 11.2044853678115395  1.8395850526465285
 8.6279948418222467 13.1318581645646049  4.4005477143851675
10.8661647438955917 11.7211662959270733  1.7908924992219379
10.7168060034912145  9.9784647105798392  6.7358624191235315
11.6652836791846752  7.7616895670811843  6.0626659586825742
11.6972692619909004  8.0286162151287428  3.6278659389091050
 8.0474150527270147 13.3523942563306441  2.7375146869371392
10.0449876143697416  9.5567584654151219  3.7713944896231713
12.8994389693346072  9.2994735437993796  3.7305424997120564
 7.9893115960193057  8.4068153848743705  1.0175260549311815
 9.5503785796835245  7.4199197067226130  5.0306110057418252
12.1898032723347463 13.5890148471504020  6.6698398989152068
11.5281025654746507 10.7540385669153871  5.3872630276181201
13.2455401299268232  7.5724777612608065  1.8954144448534560
 9.6282848157709005 12.6729008457262182  8.1846398946006040
10.2863280819268503  2.2408819022314059 11.6347117192411602
11.3293750645503053 10.5596699594381853 10.1944717680009482
 7.8942381986485231  3.0877374608141306  8.1516047855435403
11.4340455535538368  0.0588119802199198 11.1202443640068935
10.8419349813871975  1.7224331851567865  7.6820099618075872
 8.6994917142458057  8.3551121159087245  6.2827033777331103
 7.2994752720847735 13.1704561663857156  9.1129152509166218
11.3007417310562772  8.0281150295249546  8.1924881711840705
 9.7020200767102658  1.6039578137606192 13.1332642249195928
13.1922689593725444 13.5281445282865285  1.9830723509683423
12.6890944976697639  8.5484433244714744 10.8760069526438414
 9.3526478590969830 13.3642897331595378  0.6036575410932130
 7.9634979404877733  8.5035395369626698 12.2462841597468106
 8.0535696738737599  8.2776911368591009  4.6308316988387315
10.2925373633228325 10.4287682295650832  0.7080071409789834
 7.5239382495264557  6.2914074887304903 13.5010512385097421
13.2075787752303704  4.3776991450794522 10.8793011208477175
 2.6404091642173881  5.6757795401432389  2.2997422937060374
12.7971098773201568  2.1352881621801778  2.7981739414921094
 6.6100030967960031  0.8727423067367113 10.9836093448990972
 1.7772900179400999  1.7182769076872066 10.2885032627626316
 6.2489083501296125  3.3263284352805247 10.7502954857488646
 1.6490185853967727  5.7091456283021191 11.4015373955965309
 3.1223507169023890  1.0991216309570468 13.6998695726236370
 2.4889639241932606  0.2351989729672859  9.7388507861769753
 1.9959915211866317  0.9582713794258222 12.3701125648026995
 5.1284107866629451  1.5240937417778984  8.4021727522454377
 4.9712048371649047  1.6787876643803337 12.2258224927103569
 2.2648124139104571  3.4414726250360577 11.9006623840879975
 3.4349550063678915  3.5509335053140791 13.2371291795294432
 0.7401306375490950  5.9022810306684335 13.6886345589147780
 5.8026441034701062  6.5981625133518129 13.5413675636824635
 1.7388416968762588  3.1424045481981455 13.5664366377947623
 4.9755052095945249  0.0290879127909829  9.2949019566241695
 6.8587060172048169  5.5951413433974331  9.6026223189457376
 4.8894674798350959  7.3790626095653984  4.5091915007924346
 3.7069171058834094 11.2738133527250852  3.0366773069636039
 6.2695646272215235  8.7747145448703883  1.0580741146153798
 2.6740938252275299  6.5369425655157691  8.5966757889746717
 1.9823349891903952  5.8595409844223472  7.1071167591568525
 4.0764462791264258  2.7866851504514383 10.2736525784742128
 4.2714878720126155  0.1327499697270103 11.7738115391275961
 4.6577580322447112  5.1809838363620901  1.4886111740136165
 0.9638512575166160  0.6564131029814497  2.2936589566274623
 5.1320076691337988  5.2897126138115667  3.1720920912197244
 0.9063525459983417  1.2103681239607003  6.5621147131950188
 2.6623141419569247  6.5943920544115002  3.7642656493529998
 6.3973685280255275  3.5250218462550453  3.2725975820430140
 2.6396500438981363  0.9508466070681472  5.0577559971373951
 0.5523400419441309  5.2832520353747032  4.6103043626764002
 5.0097545214909385  0.2149303647653760  4.6063669453424936
 4.6139638400549412  9.7694550710743151  4.7908840953020615
 0.4086940607754261  0.4225134721789257  0.6266471381215659
 2.4996000051935034  5.7646080375686140  0.0165049775040043
 0.7058396453446925  3.2542311065879250  8.6516239041096838
 3.5813060453875369  4.2355236079081102  8.1804330561022098
 3.1667275338916028  1.7675077815405107  7.5731434588707884
 6.2016782160958055  3.5788505397146739  8.2406995450455156
 1.3962930430481180  3.4230243488479939  7.0481415889266223
 2.6517777374394580  4.3230805853703167  9.6833093177975549
 1.0187384398052224  5.8992173279290210  8.6051574938455602
 0.3434122698663362  0.7451224620966794  8.1387448418558925
 0.2052158142821874  6.0130869628058008  2.2508633897312382
 7.4847350463520321  5.4782284030975710  4.4005399393405344
 2.1947707680937114 11.7010899533670241  5.6252935674204103
 0.8566655524193738  7.7248194318087293  4.4811963986527363
 6.2134518100671130  8.8287971937558325 12.2744726488784686
 1.1382583048236725  8.6390057944645058  8.9989686980361618
 2.6416145257725514 11.0675257357149626 10.1868556779354549
 1.9785178923968303 10.2659770630595979  7.2970964206355404
 4.8915582261171906  9.7028285761196251  7.4465575660181678
11.3853427345280735  0.8091179735573490  5.4135940703008689
 8.7936991070406094 12.0735940130279857 13.2871090034575872
11.2697048733855354  5.8419000676623281  4.4707206745740589
12.1893596511137510  4.9352166711206795  3.2714160290688685
11.1307235291523412  2.8425545032955064  1.2267015570645565
 7.7134194203678632  1.9605658107794657  1.8400374135006690
 8.4027264487025022  4.8083514080165113  1.3359773512038782
 9.2090067971950376  2.6496227956654543  2.4610757116493716
11.1303912016701894  1.0908389460883487  1.2397875124633497
13.3918202932061767  6.1223134292709460  5.8473746188004458
12.8025012422683986  3.2345340122204362  5.0657499178604546
11.0479849598557927  3.3620862230976822  4.8115167933642553
13.6901757802985173  2.7871622183838056  1.4395945784244759
 9.0859551496101787  4.8906070821754497  3.9052508741339498
 2.7345230852286520  7.0876582302886462 11.6662863943827162
 2.8537884635430206 13.0908011768175321  7.6582393396360580
 0.9730773865338112  7.3361895307496212 11.5976901542325201
 4.6282342306949147  9.6425735988489443  9.9810350318832448
 0.3398320463970865  8.2281198254088324  6.5666169929050042
 4.3389486422227765  7.6981295974904285  1.4946847966697447
 5.2488626185603291 10.5798804868069460  2.5001509114033631
 1.7802533346396192  8.6142957843419623  2.4785692865381694
 5.9209980428088560  8.2321073131247431  3.3833640364376727
 3.1017183890751987  9.1284755412442316  4.1935116869083675
 0.1036456504097849  9.9085984315997493  6.1226775281130355
 4.6249518160640797 12.3305903337630838  5.2044808089279879
 0.8905017104907369 12.8333230650609806  5.3259789791565346
 3.7149875654836055  9.9617278396942446  1.8478325129298483
 2.6732624320599818  8.2855520717772109  0.2344173826268126
 0.9363950615781729  8.4070941747499681  0.1860551772656436
 4.5919387359670285 13.7220104416138184  6.3125360547286054
 3.1997126640908622  8.6480344440320813  9.8099873419252361
 3.6178871972338502 11.5047060851968368  8.8032576963316274
 0.0308907068936257 11.9380474430004639  7.5714392830327455
 3.5264859565641569  8.5685385326803605  7.3113625613462041
 0.7600699306160088 12.4370432545491134  9.0809931928216869
 5.0127836827281254  8.0708512907047911  8.1358315163481159
 0.3937538559231832  9.9489609740824463  9.8969723732425834
 2.7360455284800729 13.4055698080120465  3.8709064193290583
11.7988479113544678  4.1366749731525534  6.2233068095940087
