# Amorphous model                       
   1.00000000000000     
    12.2030999870183727    5.7283410028858670    9.4350076661057916
     0.0000000000412996   17.5427347742805502   -3.9854747222385396
    -0.0000000001045221   -0.0000000003512409    8.9785607227661401
   C    H    N    O 
   100   112    10    10
Direct
     0.6907967093848673    0.4246950880251776    1.3537413211599310
     0.1131871977674133    0.8956839415190708   -0.2712796345167967
     0.4690971369465589    0.6131881204629547    0.2192206819864050
     0.9567414973137566   -0.0271212321233063   -0.8036688640835531
     0.4249511547856449    0.5928089608537601    0.3887901512099471
     0.5004708898793723    0.4470534217665592    0.1575788905242282
     0.4572671837177635    0.3839475123213380    0.1588312170676315
     1.0124892339035509    0.0209034295920411   -0.8612918466099507
     0.9808269501398952    0.0993494295220815   -0.7414324597949519
     0.5627448360416927   -0.1467817265651997   -0.6590554680002040
     0.4213599412516335    0.5051799048293587   -0.1790377265311850
     0.4639032287411116    0.5077309998078803    0.3476975606707340
     0.2877458202380709    0.5191200367583454    0.1794228953550747
    -0.1348773168840415    0.4852633138339955    0.9299907321922956
     0.6544219376332824    0.1149795969988677    0.8313357883943920
     0.1594171921749559    0.3829654186167387   -0.0453829688391091
     0.2118848310987864    0.5689658649384480    0.3858093031831152
     0.2444189113322380    0.3915022302827036    0.2755801034020888
     0.1806508727140636    0.6544734045720532    0.4494322642739086
     0.2249260601307548    0.6932103786502379    0.3228948559834920
     0.0978444842623402    0.3488206574212294    0.1030997943996725
     0.6844206328372007    0.2385034046708741   -0.1112037323275596
     0.3306468463942182    0.5627572760611212    0.0548526950103786
     0.6691538458319429    0.0130067227530439    0.2846762176089511
     0.6452374464401225   -0.1662374170194321   -0.8594152737979666
     0.4394166509531393    0.3578829622746398    0.0039047947120017
     1.1124707058774628    0.0277571982506213    0.4689101488254281
    -0.3625453737237327    0.5786194299552779    1.4120357638758636
     0.3219948787778790    0.4233785619546330    0.1121329918905220
     0.8213318918701864    0.1043098647421505   -0.4665876249869885
     0.2876467043734924    0.8252208045760447   -0.3262113537030480
     0.9943608294528289    0.6440537676096028    0.4964034885963340
     0.5683906856670131   -0.2282294185578448   -0.9896519007164724
     0.2995716416468878    0.0472203208328435    0.5487210889733226
     0.8861088584598585    0.1478159944656125   -0.5253032961499600
     0.6043263748438813    0.2729978606842788    0.1154660757900747
     0.7216918696035820    0.1468326598082688   -0.2640164491315855
     0.2888861024412798   -0.0040377724657494    0.7841662100555735
    -0.2966878588991823    0.4921560564944615    1.2910245994155249
    -0.4133095052535929    0.6542401515599716    1.5183427871149162
    -0.0679529637596321    1.1243054306422029   -0.0358961202411091
     0.4688163233070723   -0.1876900777342834   -0.7917573605740907
     0.3625990378053195    0.0505392321834850    0.3496232302880746
     0.6396852957804834   -0.1966213918347899   -1.0112002566581944
     0.7579175065692976   -0.0009004648660504   -0.5753430670349903
    -0.0719350116387051    0.9709056144111503   -0.1578492019746071
     0.0330549741559836    0.9662115677113207   -0.2196169246260580
    -0.0896141067500237    0.6017497126761415    0.9293488277819536
     1.0439718487015994    0.5271572945788706    0.2133911421597082
     0.1612602815083244    0.8054844238972640    0.0023559660247308
     0.2540059877023044    0.8182331484647167   -0.1370957894893065
    -0.2012521094384911    0.4481212633082391    1.0553253861348653
     0.4884502545935118    0.3567174137515264    0.5728348934961778
     0.0546702550745088    0.7253062809422225    0.0627636029770812
     0.2346422495420738    0.8562172340071126   -0.3963617526708756
     0.8499345708133567    0.0222059830820361   -0.6089917220737426
     0.1321280619299682    0.7500372836134583   -0.0691203557785215
     0.0312608101666060    1.0464597147378289   -0.1634244315461952
     0.2880335642199874    0.6496832034978047    0.1167133130586026
     0.2470654812359988    0.3187769330152878   -0.2440161505098304
     0.2173606711653039    0.3297579529740442    0.2172763629370307
     0.5678811349611275    0.4675323943709996   -0.0027707338863325
     0.0552744130097212    0.3506975241127417    0.7614981759054287
     0.4767275684056947   -0.0860581459022054   -0.0464972890417850
     0.8900874857588030    0.8097989626862546    0.0463121875363250
     0.1148351478807016    0.3584690259570330    0.2655735110584253
     0.8430920755185379    1.1269724835162294   -0.0170456330307485
     0.3089843599914389    0.1052710090060421    0.1553073921845002
     0.0448257936158473   -0.1950914696352700    0.3354852117836668
     0.8060878504616898    0.3051682353084433    1.0256782019669277
     1.2560100585465572    0.4346543093015562   -0.3599398690320313
     0.7082270037731854   -0.2209706601809811   -0.4920472944542449
     0.2468256122673993    0.1872192879794358    0.2081824017805742
     0.9043235391753627    0.9028499780307581   -0.1268989789937879
     0.3022388541275622    0.0960990224848252    0.3097549487527236
     0.4803833598540146   -0.1814390061263307   -0.6428386585527831
     0.8473105758692472    1.0525608946036167   -0.0975551948484769
     0.6631769663447791    0.4030202768027096   -0.2129848884306661
     0.3709906445388526    0.2192083036721685   -0.0978172312915537
     0.4921924023161638    0.3158617112935306    0.2020221129312186
     0.1495255143770375   -0.1079020418066273    0.2713240465037788
     0.5380513141800062    0.1607317825084663   -0.6495143233107428
     0.7531042165407259    0.3381463214154692    1.2256461461633437
     0.5784348135137568   -0.1334898186337614   -0.5105391320379697
     0.0204227011087135   -0.2545960491668033    0.2524492779359439
     0.4916452309833327   -0.0033388757089851    0.1881064862456779
     0.4490389947947647    0.1419670740173564    0.5299357160170569
     0.1145568171813761   -0.1682188649787976    0.2072048827408230
     1.2834817207031937    0.3515283380972798   -0.3937886049052088
     0.8218992513567291    0.3658349824908020    0.9476295045128806
     0.5388858919333149    0.5537366624185225    0.0239292591859092
     0.2763735539904429    0.2422921902414184    0.1219592402586045
     0.4009458678691737   -0.1809104316593733   -0.4559637052038159
     0.1332366392675526    0.2360487480503819    0.4493950849700856
     0.8471394712027517    0.3617744479777308   -0.5195531605401187
     1.1359510272436601    0.4691367144803837    0.0084224744805047
     1.1835556664486990    0.4923892847109805   -0.1493340419114062
     0.5340844376142148   -0.0461011072263336   -0.0164912094937762
     0.3943652693620672    0.1475577150541819    0.7386158867415860
     0.1293823425503406    0.2526344334167013    0.0143591902092402
     0.4322118011957619    0.6820130586280783    0.2649001406572716
     0.6630591304464895    0.2819123836146854   -0.1566089590064282
     0.9321694684822585    0.6650419181493842    0.4762788163210327
     0.8625009132316573    0.3932706644895676   -0.6145894815473516
     1.0115531146597860    0.7019440811414585    0.5109597339979820
     0.8623615388111334    0.2378671867264341    0.9469747705358833
     0.5445532868235383    0.0272499368022563    0.1829575481537989
     0.2253955033115396    0.2715438882845999    0.4771585995217341
     0.3510884072147463   -0.0160997745616226    0.8095847234755837
     1.1566355266702792    0.5663860563382163    0.2165928497455701
     0.7706951005562435    1.1812498230633433    0.0552158039633321
     0.2534463921019915   -0.0561128911108613    0.8007937649718948
     0.9626807537652555    0.6399310169346668    0.6262976030103339
     0.7810678944466743    0.3042578541647756    1.2930140557370962
     0.8101928645952658    1.0350416863248233   -0.1498667279210040
     0.5888364134622924    0.5711407232922462   -0.0896255803106013
     0.7104120340618436    0.0302407066792327   -0.8381787981753077
     0.8970644138199348    0.9289602271362838    0.0995461358882030
     1.0738761973846298    0.0388680827395384    0.6260680620858537
     1.0556848974104827    0.0978064206607794    0.5257457009698860
     0.7163794400687463   -0.0553144655488567    0.2039811451650466
     0.5810070417614563    0.0436485042032272    0.3785564293962735
     0.6116086654316012    0.1051600097319430    0.7725383301905255
     0.6373672460742227    0.4320312902845280    1.5138831324114059
     0.9414615701904333    0.7457705332057231   -0.0639376521745714
     0.9232892132641570    0.3440962805467066   -0.5324224013645495
     1.0122185579959877    0.0021153423689279    0.4502971716279578
     0.8657037613123806    0.7960237794257476    0.1708081449264543
     0.6967379803080416   -0.1291334055858289   -0.8759346044982538
     0.5303728483779240    0.0035934807537315    0.9309994756974073
     0.4244463916194131   -0.0348733805054718    0.4923322503565462
     1.3211442692305033    0.3089993007844466   -0.5301346938447808
     0.5845009156573003    0.1527774383977556    0.9989596956417913
     0.8263083116995502    0.8040029411071529    0.0295979767271350
     0.6904124490597154    0.0992891282004764    0.3861165758559654
     1.0324288949840288    0.1300708146383549   -0.8162962694557516
     1.2892897328428781    0.4706627763116322   -0.4627367040945179
     0.9837052280921136   -0.0826820529480724   -0.9122346820266423
     0.4412197293759239    0.3058619047255502    0.3183480385563640
     1.1694829034994529    0.5568500541936836   -0.1156892647212580
     1.2009666274707103    0.0251168387001078    0.3492120983062462
     0.7775848102007037    0.4468201673984081   -0.2287033329542217
     0.8399767384664454    0.3041053660048926   -0.5745338566391057
     0.6304934825064731    0.2605066974343040    0.1951692778417055
     0.7089842252021984   -0.2079398946820069   -1.1611962105417006
     0.7624671253445735    0.2342330370264826   -0.1751100642691007
     0.3873053291630171    1.0723636042216060   -1.0099418327824996
     0.5828996736800928   -0.2706772413515390   -1.1174721869899982
     0.5066226475195700    0.3457876776118184   -0.1420656686939227
     0.2889088233141775    0.3623184240099517    0.3196967051934486
     0.1238544622585961    0.6803792617367267    0.6122288840275496
     0.0099960352276350    0.3926518222657606    0.2163117092690780
     0.3028926840037534    0.2803996326277299   -0.2303788513868922
     0.3256338156268820    0.4017478892626941   -0.0174233442602962
     0.0854187600205260    0.8402215365112706   -0.2528851616355892
     0.2216582331300100    0.0617113529782699    0.8903627798408247
     0.1605230008666511    0.5449596710577698    0.4890769107729025
     0.4374743869190585    0.2963159393017090   -0.0246574486637129
     0.2201552890522719    0.7578285970627850    0.3586882605021806
    -0.0212739793800008    0.3422350955048933    0.8277905035595627
    -0.0261125237609140   -0.2891759254918266    0.3155137870046191
     0.6313550835318015   -0.0803567449647578   -0.1185813572622224
     0.0841147104074196    0.3550094363936048    0.8294208347363186
    -0.0057359195917311   -0.1641370963766242    0.4943524213377631
    -0.0205408117338646    0.5741470798232079    0.7587828491020250
     0.6750475915224644   -0.2415928930417655   -0.3817990989102249
     0.4191791480724241   -0.1545613326386605   -0.3689799186698923
     0.3221562233909004    0.1296765483878021    0.7964884381925948
     0.7131806565933565   -0.1651964176522306   -0.4585592913534458
     0.6705750888656821   -0.2582772237849762   -0.6670161875282522
     0.5216245847425380    0.2279443694690700    0.4041865197001471
     0.7940387527171399   -0.2631902968688952   -0.6147015510264972
     0.0709813335801456    0.4251783594008802    0.3466192391780071
     0.3666099821541048    0.2754182442675397   -0.1276129327745233
     0.4530872706021190    0.1946858058022441    0.8636899346694684
     0.1689630051998424    0.2198287406532595    0.0611225176236049
     0.3799644444681348    0.2052879350541954   -0.4102343034541924
     0.1779162511151492    0.4509714660131235    0.4098167110425652
     0.3670233442473483    0.4194507295373315    0.3156733303251364
     0.2992861636738023    0.6896087615508785    0.0453087034182953
     0.1756959576842438    0.2383021859799110   -0.1513311531605983
     0.4102900390228860   -0.0836531505678564    0.0787924791272582
     0.8870890175925775    0.1977219099326585   -0.4523848272861899
     0.3179580566621610    0.4658561532434897    0.8263974803285237
     0.3680013712799836    0.6459596656470702    0.5519278115406915
     0.4503156039402572    0.0765723294899720    0.7042257671238615
    -0.0687967656304795    1.1803574825574827    0.0424753417847723
     0.0463089659338373    0.4011609184291828    0.7190895921867466
     0.1117290887265900    1.0356915858322300   -0.2123128348528541
     0.0197245977831634    0.6961401025962274    0.0123039067547329
     0.0719788910011236    0.3279557230243346    0.3530566182940553
     0.5262641902776130   -0.1519367720592605   -0.1766631259832204
    -0.0397148379806894    0.6168152934322011    0.9737291276191657
     0.4978677712735679   -0.0519543691645445    0.2556990215545948
     0.3902659626871013   -0.1751624276821451   -0.7513251056777893
     0.8702706594319478    0.3355713101470956    0.7981459526851898
    -0.4826787571089580    0.7130795385916275    1.6493989822732729
     0.4514864567849116    0.4897466316727825    0.4631924933804298
     1.5349970591310609    0.3583865853167674   -0.5705699304325519
     0.2847311016701772    0.8461837534704189   -0.0764914796884942
     0.0473866708454230    0.2416449940871445    0.0733437114894483
     0.4691953359662642    0.0770040122693805   -0.5448198665413486
     0.5305531344884880    0.3363933523713767    0.6255134628814523
     0.4362699721246833    0.9610579125565486   -0.0824606383826290
     0.1708782478859932    0.7181629144967031   -0.2192717245148712
     0.4359545371185372    0.3263051948507880    0.5950954341789837
     0.2754901789641008    0.7993457142908813   -0.5392488593149690
    -0.1853297685308748    0.5866977328440437    1.1622923772598213
    -0.1346534680411566    0.6628640454257773    0.9378066240597559
     0.5456584434517733    0.1507698435382870   -0.7786377358545099
     0.2558905545932538    0.9010693463855685   -0.4602268155855307
     0.0961411874829801   -0.0012432748848334   -1.0096760154533131
     0.1518440284756826    0.2782273973777509    0.5548118273400273
     0.6966790784747946    0.0458097515076229    0.4014176646600887
     0.3460230111925371   -0.0071515392021910    0.5931302184714626
     0.9143967250629632    0.8724299028816749    0.0048493096396424
     0.0762659413029199   -0.0346473735891389    0.4253380696004664
     0.7545483667623522    0.4126027020905860   -0.2966154970846303
     0.6602901572078341   -0.2083536045653542   -0.5789029399398868
    -0.1406854108136866    0.5564955945757155    1.0305469331776094
     1.0809194333283982    0.5700404005912318    0.2960854786343928
     0.4067684625381260    0.4395122954990533    0.7474635782345391
     0.2492335841101826   -0.1291521881670421    0.1497682362037086
     0.2038847022214798    0.0998769164263081    0.6859053587344873
     0.7515376842616182   -0.0654161342607009   -0.5438538187527777
    -0.1111033688969625    0.8579500216712047   -0.2225819320920984
    -0.0538598935170490    0.5402067711962854    0.2979779524486884
     0.5436301379860636   -0.0653666071660686   -0.3783840845634159
    -0.1013420761471773    0.4658575500865504    0.7508258925183555
     0.6666300072851533    0.3400012388101222   -0.3151466211483689
     0.4904423317492466    0.5321099868375753    0.7529281201820485
     0.0493381560589290    0.2234364152986104    0.5044346384184691
Lattice velocities and vectors
           1
 -0.94025614E-03 -0.34313114E-03  0.69844442E-04
 -0.20287436E-03 -0.21825480E-03  0.59062871E-03
  0.61584487E-03  0.26757559E-03  0.12084588E-03
  0.12202456E+02  0.57281109E+01  0.94354387E+01
  0.41289150E-10  0.17542695E+02 -0.39850293E+01
 -0.10452192E-09 -0.35124937E-09  0.89786091E+01
 
 -0.92656606E-02 -0.71777905E-02  0.97032716E-02
  0.18224061E-01  0.28060740E-02  0.19785810E-02
  0.15720312E-02 -0.36185339E-02 -0.96767334E-02
 -0.11571930E-01 -0.31167673E-02 -0.26872460E-02
  0.69723105E-02  0.23175514E-02 -0.46954189E-02
  0.67113466E-02 -0.14550240E-01 -0.90966156E-02
  0.67615610E-02 -0.15394856E-02 -0.19814621E-01
 -0.39509691E-02  0.76798057E-03 -0.50924646E-02
  0.12545404E-03 -0.85116941E-02  0.56148899E-02
  0.12874972E-02 -0.11441597E-02 -0.88037228E-02
  0.11396038E-01 -0.80580505E-02  0.84675795E-02
  0.66892553E-02  0.65803886E-02  0.58874683E-02
  0.30098990E-02 -0.34787838E-02 -0.10589322E-01
  0.64630829E-02  0.13244923E-01 -0.20509969E-02
  0.14721397E-01 -0.95230603E-02 -0.91677755E-02
 -0.52576524E-02 -0.97113617E-03  0.17072472E-01
  0.74394818E-02 -0.17404475E-01 -0.90979331E-02
 -0.58983734E-02 -0.82098813E-02 -0.52034545E-02
 -0.11270040E-01 -0.56432958E-02  0.22902023E-02
  0.18926126E-02  0.21564938E-02 -0.96792579E-02
  0.15424314E-01 -0.46285598E-02  0.43747550E-02
 -0.68661645E-02  0.87307045E-02 -0.48332295E-03
 -0.30827506E-01 -0.13428268E-02  0.40958669E-02
 -0.23906820E-02  0.51019207E-03 -0.69240819E-02
 -0.63814854E-02 -0.34750302E-02  0.89540031E-02
  0.20342447E-01  0.20547257E-02  0.89310264E-02
 -0.54184893E-02 -0.19539375E-01  0.69429465E-02
  0.27933331E-02  0.60280534E-02  0.20952988E-03
 -0.21966691E-02  0.12822544E-01  0.44419137E-02
 -0.39889879E-02 -0.13995201E-01 -0.12070230E-01
 -0.99130149E-03 -0.11012533E-01 -0.17868315E-02
 -0.17015118E-01  0.14474815E-01  0.58872054E-02
 -0.10675629E-02 -0.10795833E-01  0.63677268E-02
 -0.65437200E-04 -0.43907338E-02 -0.27611693E-02
  0.78569604E-02  0.33258778E-02 -0.48635282E-02
  0.19389099E-02 -0.30341546E-02 -0.10125589E-01
 -0.13836273E-01 -0.36062461E-02 -0.54896400E-02
  0.18097621E-01  0.47444064E-02  0.19002035E-02
  0.76749521E-02 -0.11654235E-01 -0.83742745E-02
 -0.72596308E-03 -0.72636467E-03 -0.13907866E-01
 -0.11302463E-01  0.10108797E-02 -0.11345913E-02
  0.18221509E-02 -0.13774583E-02  0.13546620E-01
  0.10398874E-01  0.71787803E-02 -0.11081980E-01
 -0.32767749E-02 -0.68808308E-02  0.20911071E-02
  0.11631873E-01  0.98506784E-02  0.13548835E-01
 -0.46388534E-02 -0.83092231E-02 -0.15742800E-01
  0.61378968E-02  0.84534093E-02  0.94410555E-02
  0.98434680E-02 -0.88138247E-02  0.84203971E-02
 -0.34739062E-03  0.10576213E-01  0.53841354E-02
  0.31715788E-02 -0.99073959E-02 -0.95682614E-02
  0.61515038E-02 -0.92325814E-02  0.88607056E-02
  0.30554964E-02 -0.23245431E-03  0.88262341E-02
  0.44547697E-02 -0.18504451E-01  0.21926015E-03
  0.83099760E-02  0.99577450E-02  0.61812241E-02
 -0.45380745E-02 -0.58717791E-02 -0.56725489E-03
  0.10535752E-02 -0.12470672E-02  0.69963659E-02
  0.19185628E-02  0.56754680E-02 -0.16909395E-01
 -0.10632325E-01  0.16985179E-01  0.57519494E-02
 -0.11941777E-01 -0.51816786E-02  0.10120184E-01
 -0.24653669E-01 -0.29322557E-03  0.14993587E-02
 -0.60572248E-02  0.90569591E-02 -0.36437883E-02
  0.78720061E-02 -0.13058445E-01 -0.40345550E-03
  0.96595019E-02 -0.98503247E-03  0.66868576E-02
  0.68184702E-02  0.30964090E-03 -0.59087815E-02
 -0.79445878E-02 -0.39995442E-02  0.31513788E-02
  0.11921281E-01  0.74605310E-02 -0.24157544E-02
  0.68588759E-02 -0.39306224E-02  0.38643519E-02
 -0.65568989E-02  0.70656290E-02  0.20969861E-01
  0.79896686E-02 -0.99449447E-02  0.97366707E-02
 -0.96731411E-02  0.52709487E-02 -0.15667799E-01
  0.31239672E-02  0.10960759E-01 -0.50910196E-02
  0.97172488E-02 -0.57014316E-02 -0.88785276E-02
  0.56809047E-02 -0.68734202E-02  0.72154554E-02
 -0.37577359E-02  0.72444109E-02 -0.21388182E-02
  0.97047802E-02 -0.56696348E-02  0.17013591E-01
 -0.88960977E-02 -0.11709054E-01 -0.12350183E-01
  0.34218794E-02  0.25295288E-03  0.83297690E-03
 -0.87978219E-02 -0.64684379E-02  0.85247824E-02
 -0.76716240E-02  0.14431832E-01 -0.24838731E-02
  0.26646796E-02  0.92516303E-02 -0.89470324E-02
  0.82534531E-02  0.20381647E-02 -0.68658640E-03
 -0.42618457E-03  0.43123121E-02 -0.94234861E-02
 -0.13206281E-01  0.49120209E-02  0.38581993E-03
  0.29883270E-02 -0.24018613E-03  0.22461530E-02
  0.30753407E-02 -0.47852107E-02  0.49995848E-03
 -0.39361749E-02  0.31199666E-02 -0.59615923E-02
  0.26152025E-02  0.13162814E-01  0.32149807E-02
  0.39417809E-02  0.76584545E-02 -0.36035299E-02
 -0.64015884E-03  0.48845894E-02 -0.60191477E-02
 -0.10122845E-01 -0.14775041E-02 -0.17898127E-02
 -0.16712926E-02 -0.74848333E-02 -0.18353627E-02
 -0.41638932E-02  0.13252454E-01  0.30532871E-02
  0.15946300E-02 -0.70571155E-03  0.32555522E-02
 -0.14764332E-02 -0.32372118E-02  0.15880564E-01
  0.95588477E-03 -0.16423924E-01  0.45774096E-02
 -0.56137802E-02 -0.17512005E-01 -0.27045390E-02
 -0.59667605E-02 -0.51240025E-02  0.90318040E-02
  0.27712588E-02  0.40870337E-03 -0.82522701E-02
 -0.89298402E-02  0.57906915E-02  0.25908646E-02
 -0.54779998E-02  0.44916710E-02  0.90899653E-02
  0.12292469E-01 -0.20292835E-01 -0.44220468E-01
 -0.54845758E-01 -0.38296301E-02 -0.22000803E-01
 -0.48048619E-01  0.13446171E-01 -0.11951837E-01
  0.62068661E-01  0.25086584E-01  0.19178063E-01
  0.16007613E-04  0.10947594E-01 -0.27924149E-01
  0.10590971E-01 -0.36859508E-01 -0.49112212E-01
 -0.55245957E-01 -0.28346373E-01 -0.59155825E-01
  0.28256148E-02 -0.11602175E-01 -0.70372971E-03
 -0.19552839E-01 -0.20894420E-01  0.51689265E-02
 -0.34719077E-01  0.54935725E-02 -0.31531152E-01
 -0.14554000E-01 -0.40622205E-01  0.11337500E-01
  0.53996847E-01  0.24034911E-01  0.20583223E-01
  0.28220757E-01 -0.44063102E-01  0.43865718E-01
 -0.12352537E-01 -0.47573017E-01  0.16728745E-01
 -0.23371241E-01 -0.28917087E-02  0.72719241E-01
  0.28019924E-01 -0.10037210E-03  0.22364667E-01
  0.20026990E-02  0.58701189E-01 -0.37856598E-01
 -0.96422900E-02 -0.23828584E-01  0.48643887E-02
 -0.98007701E-02  0.44795634E-01 -0.46285531E-02
  0.43503246E-02  0.37739117E-01 -0.31004666E-02
  0.35130700E-01  0.19673571E-01  0.12379446E-01
  0.37251457E-02  0.19911828E-01  0.41668789E-02
 -0.11332154E-01  0.47426693E-02 -0.42682010E-01
  0.22544943E-01 -0.45923467E-02  0.10270351E-02
  0.34410823E-01 -0.10458172E-01  0.14540804E-01
  0.33647437E-01 -0.47949408E-02  0.17158506E-01
  0.61601001E-02 -0.18749590E-01  0.28343101E-01
  0.13504609E-01  0.10533293E-01  0.26995229E-01
 -0.92014212E-02 -0.49192928E-01 -0.46812552E-02
 -0.44379767E-01  0.12561501E-01  0.12824797E-01
  0.29371819E-01 -0.12704977E-01 -0.15190518E-01
  0.17599133E-01 -0.11071114E-01 -0.75957968E-02
 -0.26175295E-01  0.22045398E-01  0.29868836E-02
  0.80600850E-01 -0.92384241E-01 -0.72568828E-02
 -0.46122842E-01  0.19441420E-02  0.45815454E-01
 -0.51114762E-01 -0.83587474E-02  0.13077489E-01
  0.47538017E-01 -0.11404853E-01  0.94271239E-02
 -0.15752429E-01  0.25051276E-01 -0.36376633E-01
 -0.58227767E-02 -0.29235185E-01 -0.36485039E-01
  0.17037842E-01  0.37997137E-01  0.67022915E-01
 -0.41467962E-01 -0.14565116E-01 -0.69356513E-02
 -0.44059856E-01 -0.11505454E-01 -0.16357046E-01
  0.16907544E-01 -0.55751265E-01 -0.18789649E-01
  0.12146557E-01  0.46389711E-02  0.64162992E-01
  0.44932546E-01 -0.90863703E-02  0.20380521E-01
  0.24235978E-01  0.49301730E-01  0.47251261E-01
 -0.32199817E-01  0.93872273E-02 -0.10730633E-01
 -0.12400383E-01 -0.56224751E-01 -0.45207466E-01
 -0.40319848E-01 -0.13675684E-01  0.25283783E-01
 -0.16148870E-01  0.81618714E-02  0.87190427E-02
 -0.27761615E-01 -0.63328511E-02 -0.29568927E-01
  0.36838193E-01 -0.19628051E-01 -0.35113264E-02
  0.91649429E-02 -0.28182833E-01 -0.12330929E-01
 -0.86465040E-03 -0.13458502E-01  0.25729931E-01
  0.10909694E-01  0.11843254E-01  0.19885173E-02
  0.13100645E-01 -0.15854234E-01 -0.17858593E-01
  0.50606447E-01  0.22104808E-02  0.91704463E-02
 -0.13963529E-01 -0.50242957E-01  0.30952840E-01
  0.54763489E-02  0.28824574E-01 -0.50891905E-01
  0.35450103E-01 -0.27867649E-01  0.18190475E-01
  0.43710247E-01  0.36530188E-01  0.24706628E-01
 -0.59375296E-02 -0.22785955E-01  0.13558866E-01
  0.35064648E-02 -0.25743652E-01  0.10812006E-01
  0.20540382E-03 -0.26865899E-01 -0.27585583E-01
 -0.35711049E-01  0.12568268E-01  0.61887610E-02
 -0.63737660E-02 -0.86274725E-02  0.54228307E-01
  0.13468830E-02  0.86837929E-02 -0.30680655E-01
  0.24040746E-01 -0.25006009E-01  0.23376605E-01
 -0.60021108E-02  0.30910657E-01  0.51772348E-02
  0.49694504E-01  0.29150901E-01 -0.55154689E-01
  0.17276057E-01 -0.10137728E-02  0.21755120E-01
  0.19431386E-01  0.37765956E-01  0.25811136E-01
 -0.51757475E-01  0.34427847E-01 -0.66812804E-01
 -0.57216077E-01 -0.14871856E-01 -0.57951935E-01
  0.12634863E-01 -0.76732079E-03  0.10292733E-01
 -0.46424568E-01 -0.17850895E-01 -0.62646005E-02
 -0.27033140E-01 -0.32756059E-01  0.63383258E-01
 -0.38689596E-02  0.23253144E-01  0.20039641E-01
 -0.74340210E-02 -0.69982288E-01  0.52646134E-01
  0.63023216E-02  0.29241255E-01 -0.34896301E-01
  0.76242336E-01 -0.31005148E-01  0.35695569E-01
  0.30583411E-02  0.21454425E-01  0.17763049E-02
 -0.19221766E-01  0.13167870E-01 -0.24477311E-01
 -0.78655323E-02 -0.37387972E-01 -0.62400411E-02
 -0.18223589E-01 -0.27596539E-01  0.93092984E-02
 -0.31942332E-01  0.59227945E-02 -0.53271619E-02
 -0.40375625E-01  0.24813187E-01  0.36585485E-01
  0.18750647E-01  0.15575714E-02 -0.20002516E-01
 -0.12474567E-01 -0.60276488E-01  0.53407418E-02
 -0.28368032E-01 -0.83126975E-01 -0.20172302E-01
  0.19642562E-01  0.17683835E-01 -0.61987628E-02
  0.13889492E-01  0.74747159E-01  0.31189229E-02
 -0.10739681E-01  0.52865121E-02  0.32746855E-01
 -0.85864116E-02  0.39824745E-01  0.13975385E-01
  0.66799107E-02 -0.28908108E-01  0.90059904E-02
  0.41160543E-02  0.39826602E-01  0.32653999E-01
  0.49356315E-01 -0.58792284E-02  0.36620814E-01
  0.14549949E-01 -0.50460342E-02 -0.80580203E-01
  0.32105725E-02  0.17438951E-01 -0.61742735E-01
 -0.44171178E-01  0.62386748E-01 -0.13773309E-01
  0.11507139E-01  0.17693727E-01  0.13189909E-01
  0.58464226E-01 -0.21764819E-01 -0.47519788E-01
  0.42729510E-01  0.23936711E-01  0.23578682E-01
 -0.10941543E-01  0.28267004E-02 -0.13052361E-01
  0.68095734E-02  0.78011107E-02  0.79531964E-02
  0.24003369E-01 -0.61520525E-01  0.74449147E-01
 -0.26261998E-01  0.34829235E-01  0.28487225E-01
  0.94773068E-02  0.58062637E-01 -0.71864045E-02
  0.17903763E-01  0.47687894E-02 -0.28676110E-01
 -0.36000940E-02 -0.13473923E-01 -0.33003503E-01
 -0.30898572E-01 -0.44562946E-01 -0.26696799E-01
  0.37607378E-01  0.52138823E-02  0.18442244E-01
  0.13240335E-01 -0.36279488E-02  0.38494682E-02
 -0.33425427E-02 -0.56164067E-02  0.57631771E-02
 -0.22803450E-02  0.93372880E-02  0.75849772E-02
  0.13541890E-01  0.25828429E-02  0.25249228E-01
 -0.94117404E-02 -0.96392951E-05  0.57380946E-02
  0.13106606E-01 -0.29108769E-02 -0.14375316E-01
  0.85948818E-02  0.34766465E-02  0.99827186E-02
 -0.76774724E-02  0.37479241E-04 -0.14864306E-02
  0.18241819E-03 -0.24704637E-02  0.63519171E-02
 -0.36094847E-02 -0.17171190E-02  0.17210635E-01
 -0.34607142E-02  0.68693503E-02  0.96153879E-02
 -0.64034934E-02 -0.62707832E-04 -0.17274529E-01
 -0.69421166E-02 -0.18385199E-02 -0.75187190E-02
  0.56165938E-02 -0.36474702E-02 -0.15469516E-01
  0.63898325E-02  0.19505404E-02  0.44642017E-02
  0.42065371E-02 -0.54532779E-02 -0.57095352E-02
  0.49799356E-02  0.85623295E-02  0.12327785E-02
  0.76819722E-03  0.83506472E-03  0.68804989E-02
 -0.38329580E-02  0.69840569E-02  0.72343339E-03
  0.55962965E-02 -0.32041362E-03  0.16686312E-01
 
           1
  0.400000000000000     
  0.10000000E+01  0.00000000E+00  0.00000000E+00  0.00000000E+00
  0.69049298E+00  0.42463060E+00  0.35446417E+00
  0.11378459E+00  0.89555286E+00  0.72812255E+00
  0.46914867E+00  0.61308879E+00  0.21869134E+00
  0.95636217E+00  0.97293156E+00  0.19663348E+00
  0.42517971E+00  0.59278718E+00  0.38833112E+00
  0.50069089E+00  0.44664982E+00  0.15676331E+00
  0.45748883E+00  0.38384004E+00  0.15766784E+00
  0.12359720E-01  0.20963230E-01  0.13864393E+00
  0.98083106E+00  0.99154007E-01  0.25872663E+00
  0.56278704E+00  0.85317840E+00  0.34049028E+00
  0.42173351E+00  0.50487419E+00  0.82081125E+00
  0.46412250E+00  0.50780944E+00  0.34776423E+00
  0.28784449E+00  0.51900850E+00  0.17879795E+00
  0.86533454E+00  0.48549614E+00  0.92978006E+00
  0.65490451E+00  0.11460489E+00  0.83025393E+00
  0.15924484E+00  0.38299955E+00  0.95557388E+00
  0.21212870E+00  0.56848939E+00  0.38493623E+00
  0.24422556E+00  0.39137817E+00  0.27549641E+00
  0.18028144E+00  0.65446536E+00  0.44991895E+00
  0.22498810E+00  0.69323929E+00  0.32241128E+00
  0.98350098E-01  0.34855002E+00  0.10264324E+00
  0.68419556E+00  0.23877597E+00  0.88913224E+00
  0.32963631E+00  0.56305662E+00  0.56229978E-01
  0.66907548E+00  0.13043945E-01  0.28446662E+00
  0.64502826E+00  0.83375165E+00  0.14119861E+00
  0.44008348E+00  0.35771208E+00  0.35260703E-02
  0.11229309E+00  0.27369668E-01  0.46923412E+00
  0.63754619E+00  0.57872698E+00  0.41199661E+00
  0.32192287E+00  0.42369445E+00  0.11254675E+00
  0.82120113E+00  0.10403345E+00  0.53288937E+00
  0.28761421E+00  0.82498031E+00  0.67363645E+00
  0.99380307E+00  0.64456594E+00  0.49747922E+00
  0.56835569E+00  0.77153585E+00  0.10564376E-01
  0.29956950E+00  0.47120906E-01  0.54855621E+00
  0.88636641E+00  0.14780773E+00  0.47420571E+00
  0.60438993E+00  0.27290792E+00  0.11490827E+00
  0.72123831E+00  0.14689853E+00  0.73624485E+00
  0.28947935E+00  0.99587670E+00  0.78358947E+00
  0.70356373E+00  0.49180817E+00  0.29023273E+00
  0.58666670E+00  0.65423136E+00  0.51774429E+00
  0.93167654E+00  0.12444946E+00  0.96450661E+00
  0.46887605E+00  0.81225901E+00  0.20876078E+00
  0.36293992E+00  0.50591614E-01  0.34879455E+00
  0.63957788E+00  0.80325679E+00  0.98895171E+00
  0.75829880E+00  0.99919964E+00  0.42490427E+00
  0.92791293E+00  0.97076580E+00  0.84154720E+00
  0.33256176E-01  0.96633862E+00  0.78064863E+00
  0.91070856E+00  0.60144338E+00  0.92924891E+00
  0.43960461E-01  0.52740217E+00  0.21375166E+00
  0.16136425E+00  0.80522457E+00  0.17051107E-02
  0.25420764E+00  0.81795679E+00  0.86296439E+00
  0.79884805E+00  0.44808326E+00  0.55596474E-01
  0.48859628E+00  0.35624780E+00  0.57248277E+00
  0.54942658E-01  0.72544439E+00  0.62814011E-01
  0.23449349E+00  0.85613192E+00  0.60373144E+00
  0.84996911E+00  0.22166271E-01  0.39126605E+00
  0.13219095E+00  0.75014616E+00  0.93010856E+00
  0.30912279E-01  0.46960806E-01  0.83742049E+00
  0.28764211E+00  0.64969287E+00  0.11757983E+00
  0.24625733E+00  0.31903413E+00  0.75701407E+00
  0.21716211E+00  0.33002930E+00  0.21744312E+00
  0.56813918E+00  0.46715038E+00  0.99677057E+00
  0.55591054E-01  0.35057167E+00  0.76140747E+00
  0.47695108E+00  0.91387593E+00  0.95297533E+00
  0.88982706E+00  0.80979280E+00  0.46723525E-01
  0.11522593E+00  0.35851154E+00  0.26507409E+00
  0.84331691E+00  0.12680945E+00  0.98281789E+00
  0.30876942E+00  0.10550230E+00  0.15657013E+00
  0.45087697E-01  0.80459625E+00  0.33550515E+00
  0.80577076E+00  0.30539196E+00  0.25412714E-01
  0.25611246E+00  0.43487079E+00  0.63982179E+00
  0.70854554E+00  0.77879533E+00  0.50711856E+00
  0.24701183E+00  0.18700176E+00  0.20821161E+00
  0.90420036E+00  0.90305538E+00  0.87322635E+00
  0.30255698E+00  0.95865871E-01  0.31007512E+00
  0.48009174E+00  0.81838923E+00  0.35684136E+00
  0.84742275E+00  0.52530036E-01  0.90235034E+00
  0.66288857E+00  0.40296695E+00  0.78767430E+00
  0.37073917E+00  0.21961948E+00  0.90251888E+00
  0.49227975E+00  0.31604414E+00  0.20161270E+00
  0.14979606E+00  0.89205609E+00  0.27099056E+00
  0.53803734E+00  0.16083467E+00  0.35012620E+00
  0.75267131E+00  0.33839968E+00  0.22623071E+00
  0.57853277E+00  0.86647272E+00  0.48944137E+00
  0.20523512E-01  0.74526192E+00  0.25230257E+00
  0.49151620E+00  0.99677440E+00  0.18802676E+00
  0.44912472E+00  0.14223921E+00  0.53010964E+00
  0.11468603E+00  0.83191357E+00  0.20696734E+00
  0.28346074E+00  0.35164657E+00  0.60601777E+00
  0.82156742E+00  0.36590964E+00  0.94793162E+00
  0.53883111E+00  0.55358389E+00  0.23837258E-01
  0.27623706E+00  0.24263893E+00  0.12239260E+00
  0.40099814E+00  0.81905641E+00  0.54411168E+00
  0.13318824E+00  0.23599074E+00  0.45012768E+00
  0.84717081E+00  0.36138973E+00  0.48044708E+00
  0.13576701E+00  0.46879750E+00  0.83448158E-02
  0.18336007E+00  0.49233632E+00  0.85125036E+00
  0.53417528E+00  0.95387855E+00  0.98303666E+00
  0.39407255E+00  0.14778533E+00  0.73913995E+00
  0.12920277E+00  0.25279548E+00  0.15024338E-01
  0.43261475E+00  0.68141878E+00  0.26224289E+00
  0.66126127E+00  0.28241211E+00  0.84452203E+00
  0.93059442E+00  0.66586280E+00  0.47776588E+00
  0.86453554E+00  0.39317832E+00  0.38408577E+00
  0.11553639E-01  0.70219353E+00  0.50982587E+00
  0.86270871E+00  0.23691337E+00  0.94399863E+00
  0.54274231E+00  0.27194924E-01  0.18220084E+00
  0.22548813E+00  0.27124910E+00  0.47689907E+00
  0.35044746E+00  0.98363309E+00  0.81036999E+00
  0.15549743E+00  0.56688294E+00  0.21660467E+00
  0.77021802E+00  0.18047935E+00  0.55880290E-01
  0.25521642E+00  0.94385718E+00  0.79983738E+00
  0.96360584E+00  0.63862425E+00  0.62669969E+00
  0.78066297E+00  0.30330533E+00  0.29376209E+00
  0.80942675E+00  0.35225906E-01  0.85425980E+00
  0.58975491E+00  0.57083852E+00  0.91027141E+00
  0.71047768E+00  0.31557747E-01  0.16065024E+00
  0.89674834E+00  0.92852011E+00  0.99899663E-01
  0.73554925E-01  0.39994394E-01  0.62669937E+00
  0.55827502E-01  0.98620366E-01  0.52581897E+00
  0.71753103E+00  0.94475810E+00  0.20335467E+00
  0.58112915E+00  0.44062652E-01  0.37879755E+00
  0.61123719E+00  0.10538944E+00  0.77112904E+00
  0.63810628E+00  0.43168527E+00  0.51299868E+00
  0.94258957E+00  0.74516375E+00  0.93525545E+00
  0.92439219E+00  0.34362680E+00  0.46697455E+00
  0.12420488E-01  0.16218884E-02  0.45112865E+00
  0.86614645E+00  0.79611941E+00  0.17158803E+00
  0.69643636E+00  0.86984341E+00  0.12371969E+00
  0.52891807E+00  0.43549231E-02  0.93343758E+00
  0.42540921E+00  0.96452254E+00  0.49037559E+00
  0.32172117E+00  0.30855849E+00  0.46872501E+00
  0.58364288E+00  0.15356028E+00  0.34190375E-03
  0.82895043E+00  0.80103373E+00  0.25180286E-01
  0.68890053E+00  0.99827136E-01  0.38998530E+00
  0.30753338E-01  0.13042733E+00  0.18620538E+00
  0.29084804E+00  0.46989390E+00  0.53570443E+00
  0.98318886E+00  0.91805776E+00  0.87015725E-01
  0.44102886E+00  0.30525762E+00  0.31665500E+00
  0.17004141E+00  0.55753408E+00  0.88701330E+00
  0.19960730E+00  0.25228586E-01  0.35038120E+00
  0.77614052E+00  0.44702942E+00  0.77217861E+00
  0.84053097E+00  0.30265318E+00  0.42340209E+00
  0.63089165E+00  0.26048246E+00  0.19759858E+00
  0.71045713E+00  0.79137198E+00  0.83785849E+00
  0.76326159E+00  0.23509778E+00  0.82654391E+00
  0.38624981E+00  0.72922300E-01  0.99093731E+00
  0.58249319E+00  0.72817348E+00  0.88043088E+00
  0.50530095E+00  0.34590742E+00  0.86050282E+00
  0.28837946E+00  0.36267738E+00  0.32080076E+00
  0.12294443E+00  0.68053201E+00  0.61193571E+00
  0.11203602E-01  0.39180997E+00  0.21451263E+00
  0.30319311E+00  0.27965892E+00  0.76842733E+00
  0.32560547E+00  0.40145027E+00  0.98362062E+00
  0.85776383E-01  0.84037481E+00  0.74689564E+00
  0.22208768E+00  0.61209629E-01  0.88889320E+00
  0.16218189E+00  0.54446840E+00  0.48752412E+00
  0.43701666E+00  0.29531978E+00  0.97676040E+00
  0.22033481E+00  0.75842722E+00  0.35649805E+00
  0.97988809E+00  0.34122023E+00  0.82692927E+00
  0.97532031E+00  0.71118916E+00  0.31527078E+00
  0.63116045E+00  0.91918725E+00  0.88202484E+00
  0.84229653E-01  0.35438491E+00  0.82950453E+00
  0.99427081E+00  0.83524812E+00  0.49284354E+00
  0.97828857E+00  0.57481589E+00  0.76058558E+00
  0.67483866E+00  0.75827861E+00  0.62077932E+00
  0.41922330E+00  0.84562225E+00  0.62968833E+00
  0.32294429E+00  0.12884905E+00  0.79633444E+00
  0.71298391E+00  0.83557264E+00  0.54221945E+00
  0.67220409E+00  0.74185555E+00  0.32887370E+00
  0.52219090E+00  0.22773634E+00  0.40446826E+00
  0.79467572E+00  0.73746284E+00  0.38606885E+00
  0.69284709E-01  0.42651736E+00  0.34601995E+00
  0.36473442E+00  0.27569156E+00  0.87189758E+00
  0.45350145E+00  0.19453307E+00  0.86364544E+00
  0.16744119E+00  0.21991862E+00  0.62482560E-01
  0.37907829E+00  0.20483040E+00  0.59331761E+00
  0.17778943E+00  0.45154308E+00  0.41109647E+00
  0.36677965E+00  0.41793460E+00  0.31760191E+00
  0.29949276E+00  0.69020805E+00  0.43802944E-01
  0.17819520E+00  0.23677916E+00  0.84695671E+00
  0.41039029E+00  0.91680331E+00  0.78968853E-01
  0.88645892E+00  0.19822790E+00  0.54741143E+00
  0.31770022E+00  0.46508784E+00  0.82604943E+00
  0.36740400E+00  0.64552548E+00  0.55277761E+00
  0.44926853E+00  0.77049275E-01  0.70530048E+00
  0.92987971E+00  0.18135542E+00  0.45939024E-01
  0.46923618E-01  0.40099573E+00  0.71747923E+00
  0.11132017E+00  0.34450713E-01  0.78780408E+00
  0.18794686E-01  0.69454832E+00  0.11675960E-01
  0.72622780E-01  0.32814870E+00  0.35218946E+00
  0.52671949E+00  0.84961891E+00  0.82368782E+00
  0.95993311E+00  0.61705079E+00  0.97566249E+00
  0.49758631E+00  0.94904560E+00  0.25706124E+00
  0.39048493E+00  0.82410692E+00  0.24852172E+00
  0.87040558E+00  0.33643536E+00  0.79984241E+00
  0.51893916E+00  0.71241720E+00  0.64903625E+00
  0.45196341E+00  0.48947584E+00  0.45898121E+00
  0.53510230E+00  0.35874986E+00  0.42673004E+00
  0.28328316E+00  0.84807905E+00  0.92525773E+00
  0.47763878E-01  0.24192527E+00  0.73659324E-01
  0.47111181E+00  0.75881967E-01  0.45055112E+00
  0.53195382E+00  0.33648179E+00  0.62513120E+00
  0.43591131E+00  0.96123948E+00  0.91741538E+00
  0.17110147E+00  0.71826791E+00  0.78089461E+00
  0.43674137E+00  0.32464551E+00  0.59684867E+00
  0.27462930E+00  0.80042097E+00  0.46340217E+00
  0.81498090E+00  0.58792021E+00  0.16218832E+00
  0.86593342E+00  0.66278115E+00  0.93587555E+00
  0.54554043E+00  0.15050115E+00  0.21989671E+00
  0.25487769E+00  0.90038397E+00  0.53934404E+00
  0.97373968E-01  0.99847308E+00  0.98972420E+00
  0.15227805E+00  0.27800296E+00  0.55442760E+00
  0.69656951E+00  0.45717466E-01  0.40174860E+00
  0.34594826E+00  0.99308577E+00  0.59365201E+00
  0.91484063E+00  0.87234385E+00  0.54694845E-02
  0.75957422E-01  0.96545315E+00  0.42596253E+00
  0.75497801E+00  0.41239604E+00  0.70220086E+00
  0.66057190E+00  0.79163367E+00  0.42124007E+00
  0.85906292E+00  0.55657863E+00  0.30782039E-01
  0.80925413E-01  0.56998212E+00  0.29633631E+00
  0.40665014E+00  0.43951178E+00  0.74835443E+00
  0.24912014E+00  0.87104149E+00  0.15040178E+00
  0.20367479E+00  0.99944027E-01  0.68538615E+00
  0.75131012E+00  0.93461625E+00  0.45606474E+00
  0.88908074E+00  0.85780674E+00  0.77647182E+00
  0.94634957E+00  0.54018285E+00  0.29794610E+00
  0.54376803E+00  0.93446402E+00  0.62114147E+00
  0.89882117E+00  0.46599948E+00  0.75077226E+00
  0.66665519E+00  0.34001206E+00  0.68513825E+00
  0.49031669E+00  0.53231026E+00  0.75318128E+00
  0.49521604E-01  0.22336921E+00  0.50495541E+00
  0.00000000E+00  0.00000000E+00  0.00000000E+00
  0.00000000E+00  0.00000000E+00  0.00000000E+00
  0.00000000E+00  0.00000000E+00  0.00000000E+00
  0.00000000E+00  0.00000000E+00  0.00000000E+00
  0.00000000E+00  0.00000000E+00  0.00000000E+00
  0.00000000E+00  0.00000000E+00  0.00000000E+00
  0.00000000E+00  0.00000000E+00  0.00000000E+00
  0.00000000E+00  0.00000000E+00  0.00000000E+00
  0.00000000E+00  0.00000000E+00  0.00000000E+00
  0.00000000E+00  0.00000000E+00  0.00000000E+00
  0.00000000E+00  0.00000000E+00  0.00000000E+00
  0.00000000E+00  0.00000000E+00  0.00000000E+00
  0.00000000E+00  0.00000000E+00  0.00000000E+00
  0.00000000E+00  0.00000000E+00  0.00000000E+00
  0.00000000E+00  0.00000000E+00  0.00000000E+00
  0.00000000E+00  0.00000000E+00  0.00000000E+00
  0.00000000E+00  0.00000000E+00  0.00000000E+00
  0.00000000E+00  0.00000000E+00  0.00000000E+00
  0.00000000E+00  0.00000000E+00  0.00000000E+00
  0.00000000E+00  0.00000000E+00  0.00000000E+00
  0.00000000E+00  0.00000000E+00  0.00000000E+00
  0.00000000E+00  0.00000000E+00  0.00000000E+00
  0.00000000E+00  0.00000000E+00  0.00000000E+00
  0.00000000E+00  0.00000000E+00  0.00000000E+00
  0.00000000E+00  0.00000000E+00  0.00000000E+00
  0.00000000E+00  0.00000000E+00  0.00000000E+00
  0.00000000E+00  0.00000000E+00  0.00000000E+00
  0.00000000E+00  0.00000000E+00  0.00000000E+00
  0.00000000E+00  0.00000000E+00  0.00000000E+00
  0.00000000E+00  0.00000000E+00  0.00000000E+00
  0.00000000E+00  0.00000000E+00  0.00000000E+00
  0.00000000E+00  0.00000000E+00  0.00000000E+00
  0.00000000E+00  0.00000000E+00  0.00000000E+00
  0.00000000E+00  0.00000000E+00  0.00000000E+00
  0.00000000E+00  0.00000000E+00  0.00000000E+00
  0.00000000E+00  0.00000000E+00  0.00000000E+00
  0.00000000E+00  0.00000000E+00  0.00000000E+00
  0.00000000E+00  0.00000000E+00  0.00000000E+00
  0.00000000E+00  0.00000000E+00  0.00000000E+00
  0.00000000E+00  0.00000000E+00  0.00000000E+00
  0.00000000E+00  0.00000000E+00  0.00000000E+00
  0.00000000E+00  0.00000000E+00  0.00000000E+00
  0.00000000E+00  0.00000000E+00  0.00000000E+00
  0.00000000E+00  0.00000000E+00  0.00000000E+00
  0.00000000E+00  0.00000000E+00  0.00000000E+00
  0.00000000E+00  0.00000000E+00  0.00000000E+00
  0.00000000E+00  0.00000000E+00  0.00000000E+00
  0.00000000E+00  0.00000000E+00  0.00000000E+00
  0.00000000E+00  0.00000000E+00  0.00000000E+00
  0.00000000E+00  0.00000000E+00  0.00000000E+00
  0.00000000E+00  0.00000000E+00  0.00000000E+00
  0.00000000E+00  0.00000000E+00  0.00000000E+00
  0.00000000E+00  0.00000000E+00  0.00000000E+00
  0.00000000E+00  0.00000000E+00  0.00000000E+00
  0.00000000E+00  0.00000000E+00  0.00000000E+00
  0.00000000E+00  0.00000000E+00  0.00000000E+00
  0.00000000E+00  0.00000000E+00  0.00000000E+00
  0.00000000E+00  0.00000000E+00  0.00000000E+00
  0.00000000E+00  0.00000000E+00  0.00000000E+00
  0.00000000E+00  0.00000000E+00  0.00000000E+00
  0.00000000E+00  0.00000000E+00  0.00000000E+00
  0.00000000E+00  0.00000000E+00  0.00000000E+00
  0.00000000E+00  0.00000000E+00  0.00000000E+00
  0.00000000E+00  0.00000000E+00  0.00000000E+00
  0.00000000E+00  0.00000000E+00  0.00000000E+00
  0.00000000E+00  0.00000000E+00  0.00000000E+00
  0.00000000E+00  0.00000000E+00  0.00000000E+00
  0.00000000E+00  0.00000000E+00  0.00000000E+00
  0.00000000E+00  0.00000000E+00  0.00000000E+00
  0.00000000E+00  0.00000000E+00  0.00000000E+00
  0.00000000E+00  0.00000000E+00  0.00000000E+00
  0.00000000E+00  0.00000000E+00  0.00000000E+00
  0.00000000E+00  0.00000000E+00  0.00000000E+00
  0.00000000E+00  0.00000000E+00  0.00000000E+00
  0.00000000E+00  0.00000000E+00  0.00000000E+00
  0.00000000E+00  0.00000000E+00  0.00000000E+00
  0.00000000E+00  0.00000000E+00  0.00000000E+00
  0.00000000E+00  0.00000000E+00  0.00000000E+00
  0.00000000E+00  0.00000000E+00  0.00000000E+00
  0.00000000E+00  0.00000000E+00  0.00000000E+00
  0.00000000E+00  0.00000000E+00  0.00000000E+00
  0.00000000E+00  0.00000000E+00  0.00000000E+00
  0.00000000E+00  0.00000000E+00  0.00000000E+00
  0.00000000E+00  0.00000000E+00  0.00000000E+00
  0.00000000E+00  0.00000000E+00  0.00000000E+00
  0.00000000E+00  0.00000000E+00  0.00000000E+00
  0.00000000E+00  0.00000000E+00  0.00000000E+00
  0.00000000E+00  0.00000000E+00  0.00000000E+00
  0.00000000E+00  0.00000000E+00  0.00000000E+00
  0.00000000E+00  0.00000000E+00  0.00000000E+00
  0.00000000E+00  0.00000000E+00  0.00000000E+00
  0.00000000E+00  0.00000000E+00  0.00000000E+00
  0.00000000E+00  0.00000000E+00  0.00000000E+00
  0.00000000E+00  0.00000000E+00  0.00000000E+00
  0.00000000E+00  0.00000000E+00  0.00000000E+00
  0.00000000E+00  0.00000000E+00  0.00000000E+00
  0.00000000E+00  0.00000000E+00  0.00000000E+00
  0.00000000E+00  0.00000000E+00  0.00000000E+00
  0.00000000E+00  0.00000000E+00  0.00000000E+00
  0.00000000E+00  0.00000000E+00  0.00000000E+00
  0.00000000E+00  0.00000000E+00  0.00000000E+00
  0.00000000E+00  0.00000000E+00  0.00000000E+00
  0.00000000E+00  0.00000000E+00  0.00000000E+00
  0.00000000E+00  0.00000000E+00  0.00000000E+00
  0.00000000E+00  0.00000000E+00  0.00000000E+00
  0.00000000E+00  0.00000000E+00  0.00000000E+00
  0.00000000E+00  0.00000000E+00  0.00000000E+00
  0.00000000E+00  0.00000000E+00  0.00000000E+00
  0.00000000E+00  0.00000000E+00  0.00000000E+00
  0.00000000E+00  0.00000000E+00  0.00000000E+00
  0.00000000E+00  0.00000000E+00  0.00000000E+00
  0.00000000E+00  0.00000000E+00  0.00000000E+00
  0.00000000E+00  0.00000000E+00  0.00000000E+00
  0.00000000E+00  0.00000000E+00  0.00000000E+00
  0.00000000E+00  0.00000000E+00  0.00000000E+00
  0.00000000E+00  0.00000000E+00  0.00000000E+00
  0.00000000E+00  0.00000000E+00  0.00000000E+00
  0.00000000E+00  0.00000000E+00  0.00000000E+00
  0.00000000E+00  0.00000000E+00  0.00000000E+00
  0.00000000E+00  0.00000000E+00  0.00000000E+00
  0.00000000E+00  0.00000000E+00  0.00000000E+00
  0.00000000E+00  0.00000000E+00  0.00000000E+00
  0.00000000E+00  0.00000000E+00  0.00000000E+00
  0.00000000E+00  0.00000000E+00  0.00000000E+00
  0.00000000E+00  0.00000000E+00  0.00000000E+00
  0.00000000E+00  0.00000000E+00  0.00000000E+00
  0.00000000E+00  0.00000000E+00  0.00000000E+00
  0.00000000E+00  0.00000000E+00  0.00000000E+00
  0.00000000E+00  0.00000000E+00  0.00000000E+00
  0.00000000E+00  0.00000000E+00  0.00000000E+00
  0.00000000E+00  0.00000000E+00  0.00000000E+00
  0.00000000E+00  0.00000000E+00  0.00000000E+00
  0.00000000E+00  0.00000000E+00  0.00000000E+00
  0.00000000E+00  0.00000000E+00  0.00000000E+00
  0.00000000E+00  0.00000000E+00  0.00000000E+00
  0.00000000E+00  0.00000000E+00  0.00000000E+00
  0.00000000E+00  0.00000000E+00  0.00000000E+00
  0.00000000E+00  0.00000000E+00  0.00000000E+00
  0.00000000E+00  0.00000000E+00  0.00000000E+00
  0.00000000E+00  0.00000000E+00  0.00000000E+00
  0.00000000E+00  0.00000000E+00  0.00000000E+00
  0.00000000E+00  0.00000000E+00  0.00000000E+00
  0.00000000E+00  0.00000000E+00  0.00000000E+00
  0.00000000E+00  0.00000000E+00  0.00000000E+00
  0.00000000E+00  0.00000000E+00  0.00000000E+00
  0.00000000E+00  0.00000000E+00  0.00000000E+00
  0.00000000E+00  0.00000000E+00  0.00000000E+00
  0.00000000E+00  0.00000000E+00  0.00000000E+00
  0.00000000E+00  0.00000000E+00  0.00000000E+00
  0.00000000E+00  0.00000000E+00  0.00000000E+00
  0.00000000E+00  0.00000000E+00  0.00000000E+00
  0.00000000E+00  0.00000000E+00  0.00000000E+00
  0.00000000E+00  0.00000000E+00  0.00000000E+00
  0.00000000E+00  0.00000000E+00  0.00000000E+00
  0.00000000E+00  0.00000000E+00  0.00000000E+00
  0.00000000E+00  0.00000000E+00  0.00000000E+00
  0.00000000E+00  0.00000000E+00  0.00000000E+00
  0.00000000E+00  0.00000000E+00  0.00000000E+00
  0.00000000E+00  0.00000000E+00  0.00000000E+00
  0.00000000E+00  0.00000000E+00  0.00000000E+00
  0.00000000E+00  0.00000000E+00  0.00000000E+00
  0.00000000E+00  0.00000000E+00  0.00000000E+00
  0.00000000E+00  0.00000000E+00  0.00000000E+00
  0.00000000E+00  0.00000000E+00  0.00000000E+00
  0.00000000E+00  0.00000000E+00  0.00000000E+00
  0.00000000E+00  0.00000000E+00  0.00000000E+00
  0.00000000E+00  0.00000000E+00  0.00000000E+00
  0.00000000E+00  0.00000000E+00  0.00000000E+00
  0.00000000E+00  0.00000000E+00  0.00000000E+00
  0.00000000E+00  0.00000000E+00  0.00000000E+00
  0.00000000E+00  0.00000000E+00  0.00000000E+00
  0.00000000E+00  0.00000000E+00  0.00000000E+00
  0.00000000E+00  0.00000000E+00  0.00000000E+00
  0.00000000E+00  0.00000000E+00  0.00000000E+00
  0.00000000E+00  0.00000000E+00  0.00000000E+00
  0.00000000E+00  0.00000000E+00  0.00000000E+00
  0.00000000E+00  0.00000000E+00  0.00000000E+00
  0.00000000E+00  0.00000000E+00  0.00000000E+00
  0.00000000E+00  0.00000000E+00  0.00000000E+00
  0.00000000E+00  0.00000000E+00  0.00000000E+00
  0.00000000E+00  0.00000000E+00  0.00000000E+00
  0.00000000E+00  0.00000000E+00  0.00000000E+00
  0.00000000E+00  0.00000000E+00  0.00000000E+00
  0.00000000E+00  0.00000000E+00  0.00000000E+00
  0.00000000E+00  0.00000000E+00  0.00000000E+00
  0.00000000E+00  0.00000000E+00  0.00000000E+00
  0.00000000E+00  0.00000000E+00  0.00000000E+00
  0.00000000E+00  0.00000000E+00  0.00000000E+00
  0.00000000E+00  0.00000000E+00  0.00000000E+00
  0.00000000E+00  0.00000000E+00  0.00000000E+00
  0.00000000E+00  0.00000000E+00  0.00000000E+00
  0.00000000E+00  0.00000000E+00  0.00000000E+00
  0.00000000E+00  0.00000000E+00  0.00000000E+00
  0.00000000E+00  0.00000000E+00  0.00000000E+00
  0.00000000E+00  0.00000000E+00  0.00000000E+00
  0.00000000E+00  0.00000000E+00  0.00000000E+00
  0.00000000E+00  0.00000000E+00  0.00000000E+00
  0.00000000E+00  0.00000000E+00  0.00000000E+00
  0.00000000E+00  0.00000000E+00  0.00000000E+00
  0.00000000E+00  0.00000000E+00  0.00000000E+00
  0.00000000E+00  0.00000000E+00  0.00000000E+00
  0.00000000E+00  0.00000000E+00  0.00000000E+00
  0.00000000E+00  0.00000000E+00  0.00000000E+00
  0.00000000E+00  0.00000000E+00  0.00000000E+00
  0.00000000E+00  0.00000000E+00  0.00000000E+00
  0.00000000E+00  0.00000000E+00  0.00000000E+00
  0.00000000E+00  0.00000000E+00  0.00000000E+00
  0.00000000E+00  0.00000000E+00  0.00000000E+00
  0.00000000E+00  0.00000000E+00  0.00000000E+00
  0.00000000E+00  0.00000000E+00  0.00000000E+00
  0.00000000E+00  0.00000000E+00  0.00000000E+00
  0.00000000E+00  0.00000000E+00  0.00000000E+00
  0.00000000E+00  0.00000000E+00  0.00000000E+00
  0.00000000E+00  0.00000000E+00  0.00000000E+00
  0.00000000E+00  0.00000000E+00  0.00000000E+00
  0.00000000E+00  0.00000000E+00  0.00000000E+00
  0.00000000E+00  0.00000000E+00  0.00000000E+00
  0.00000000E+00  0.00000000E+00  0.00000000E+00
  0.00000000E+00  0.00000000E+00  0.00000000E+00
  0.00000000E+00  0.00000000E+00  0.00000000E+00
  0.00000000E+00  0.00000000E+00  0.00000000E+00
  0.00000000E+00  0.00000000E+00  0.00000000E+00
  0.00000000E+00  0.00000000E+00  0.00000000E+00
  0.00000000E+00  0.00000000E+00  0.00000000E+00
  0.00000000E+00  0.00000000E+00  0.00000000E+00
  0.00000000E+00  0.00000000E+00  0.00000000E+00
  0.00000000E+00  0.00000000E+00  0.00000000E+00
  0.00000000E+00  0.00000000E+00  0.00000000E+00
  0.00000000E+00  0.00000000E+00  0.00000000E+00
  0.00000000E+00  0.00000000E+00  0.00000000E+00
  0.00000000E+00  0.00000000E+00  0.00000000E+00
  0.00000000E+00  0.00000000E+00  0.00000000E+00
  0.00000000E+00  0.00000000E+00  0.00000000E+00
  0.00000000E+00  0.00000000E+00  0.00000000E+00
  0.00000000E+00  0.00000000E+00  0.00000000E+00
  0.00000000E+00  0.00000000E+00  0.00000000E+00
  0.00000000E+00  0.00000000E+00  0.00000000E+00
  0.00000000E+00  0.00000000E+00  0.00000000E+00
  0.00000000E+00  0.00000000E+00  0.00000000E+00
  0.00000000E+00  0.00000000E+00  0.00000000E+00
  0.00000000E+00  0.00000000E+00  0.00000000E+00
  0.00000000E+00  0.00000000E+00  0.00000000E+00
  0.00000000E+00  0.00000000E+00  0.00000000E+00
  0.00000000E+00  0.00000000E+00  0.00000000E+00
  0.00000000E+00  0.00000000E+00  0.00000000E+00
  0.00000000E+00  0.00000000E+00  0.00000000E+00
  0.00000000E+00  0.00000000E+00  0.00000000E+00
  0.00000000E+00  0.00000000E+00  0.00000000E+00
  0.00000000E+00  0.00000000E+00  0.00000000E+00
  0.00000000E+00  0.00000000E+00  0.00000000E+00
  0.00000000E+00  0.00000000E+00  0.00000000E+00
  0.00000000E+00  0.00000000E+00  0.00000000E+00
  0.00000000E+00  0.00000000E+00  0.00000000E+00
  0.00000000E+00  0.00000000E+00  0.00000000E+00
  0.00000000E+00  0.00000000E+00  0.00000000E+00
  0.00000000E+00  0.00000000E+00  0.00000000E+00
  0.00000000E+00  0.00000000E+00  0.00000000E+00
  0.00000000E+00  0.00000000E+00  0.00000000E+00
  0.00000000E+00  0.00000000E+00  0.00000000E+00
  0.00000000E+00  0.00000000E+00  0.00000000E+00
  0.00000000E+00  0.00000000E+00  0.00000000E+00
  0.00000000E+00  0.00000000E+00  0.00000000E+00
  0.00000000E+00  0.00000000E+00  0.00000000E+00
  0.00000000E+00  0.00000000E+00  0.00000000E+00
  0.00000000E+00  0.00000000E+00  0.00000000E+00
  0.00000000E+00  0.00000000E+00  0.00000000E+00
  0.00000000E+00  0.00000000E+00  0.00000000E+00
  0.00000000E+00  0.00000000E+00  0.00000000E+00
  0.00000000E+00  0.00000000E+00  0.00000000E+00
  0.00000000E+00  0.00000000E+00  0.00000000E+00
  0.00000000E+00  0.00000000E+00  0.00000000E+00
  0.00000000E+00  0.00000000E+00  0.00000000E+00
  0.00000000E+00  0.00000000E+00  0.00000000E+00
  0.00000000E+00  0.00000000E+00  0.00000000E+00
  0.00000000E+00  0.00000000E+00  0.00000000E+00
  0.00000000E+00  0.00000000E+00  0.00000000E+00
  0.00000000E+00  0.00000000E+00  0.00000000E+00
  0.00000000E+00  0.00000000E+00  0.00000000E+00
  0.00000000E+00  0.00000000E+00  0.00000000E+00
  0.00000000E+00  0.00000000E+00  0.00000000E+00
  0.00000000E+00  0.00000000E+00  0.00000000E+00
  0.00000000E+00  0.00000000E+00  0.00000000E+00
  0.00000000E+00  0.00000000E+00  0.00000000E+00
  0.00000000E+00  0.00000000E+00  0.00000000E+00
  0.00000000E+00  0.00000000E+00  0.00000000E+00
  0.00000000E+00  0.00000000E+00  0.00000000E+00
  0.00000000E+00  0.00000000E+00  0.00000000E+00
  0.00000000E+00  0.00000000E+00  0.00000000E+00
  0.00000000E+00  0.00000000E+00  0.00000000E+00
  0.00000000E+00  0.00000000E+00  0.00000000E+00
  0.00000000E+00  0.00000000E+00  0.00000000E+00
  0.00000000E+00  0.00000000E+00  0.00000000E+00
  0.00000000E+00  0.00000000E+00  0.00000000E+00
  0.00000000E+00  0.00000000E+00  0.00000000E+00
  0.00000000E+00  0.00000000E+00  0.00000000E+00
  0.00000000E+00  0.00000000E+00  0.00000000E+00
  0.00000000E+00  0.00000000E+00  0.00000000E+00
  0.00000000E+00  0.00000000E+00  0.00000000E+00
  0.00000000E+00  0.00000000E+00  0.00000000E+00
  0.00000000E+00  0.00000000E+00  0.00000000E+00
  0.00000000E+00  0.00000000E+00  0.00000000E+00
  0.00000000E+00  0.00000000E+00  0.00000000E+00
  0.00000000E+00  0.00000000E+00  0.00000000E+00
  0.00000000E+00  0.00000000E+00  0.00000000E+00
  0.00000000E+00  0.00000000E+00  0.00000000E+00
  0.00000000E+00  0.00000000E+00  0.00000000E+00
  0.00000000E+00  0.00000000E+00  0.00000000E+00
  0.00000000E+00  0.00000000E+00  0.00000000E+00
  0.00000000E+00  0.00000000E+00  0.00000000E+00
  0.00000000E+00  0.00000000E+00  0.00000000E+00
  0.00000000E+00  0.00000000E+00  0.00000000E+00
  0.00000000E+00  0.00000000E+00  0.00000000E+00
  0.00000000E+00  0.00000000E+00  0.00000000E+00
  0.00000000E+00  0.00000000E+00  0.00000000E+00
  0.00000000E+00  0.00000000E+00  0.00000000E+00
  0.00000000E+00  0.00000000E+00  0.00000000E+00
  0.00000000E+00  0.00000000E+00  0.00000000E+00
  0.00000000E+00  0.00000000E+00  0.00000000E+00
  0.00000000E+00  0.00000000E+00  0.00000000E+00
  0.00000000E+00  0.00000000E+00  0.00000000E+00
  0.00000000E+00  0.00000000E+00  0.00000000E+00
  0.00000000E+00  0.00000000E+00  0.00000000E+00
  0.00000000E+00  0.00000000E+00  0.00000000E+00
  0.00000000E+00  0.00000000E+00  0.00000000E+00
  0.00000000E+00  0.00000000E+00  0.00000000E+00
  0.00000000E+00  0.00000000E+00  0.00000000E+00
  0.00000000E+00  0.00000000E+00  0.00000000E+00
  0.00000000E+00  0.00000000E+00  0.00000000E+00
  0.00000000E+00  0.00000000E+00  0.00000000E+00
  0.00000000E+00  0.00000000E+00  0.00000000E+00
  0.00000000E+00  0.00000000E+00  0.00000000E+00
  0.00000000E+00  0.00000000E+00  0.00000000E+00
  0.00000000E+00  0.00000000E+00  0.00000000E+00
  0.00000000E+00  0.00000000E+00  0.00000000E+00
  0.00000000E+00  0.00000000E+00  0.00000000E+00
  0.00000000E+00  0.00000000E+00  0.00000000E+00
  0.00000000E+00  0.00000000E+00  0.00000000E+00
  0.00000000E+00  0.00000000E+00  0.00000000E+00
  0.00000000E+00  0.00000000E+00  0.00000000E+00
  0.00000000E+00  0.00000000E+00  0.00000000E+00
  0.00000000E+00  0.00000000E+00  0.00000000E+00
  0.00000000E+00  0.00000000E+00  0.00000000E+00
  0.00000000E+00  0.00000000E+00  0.00000000E+00
  0.00000000E+00  0.00000000E+00  0.00000000E+00
  0.00000000E+00  0.00000000E+00  0.00000000E+00
  0.00000000E+00  0.00000000E+00  0.00000000E+00
  0.00000000E+00  0.00000000E+00  0.00000000E+00
  0.00000000E+00  0.00000000E+00  0.00000000E+00
  0.00000000E+00  0.00000000E+00  0.00000000E+00
  0.00000000E+00  0.00000000E+00  0.00000000E+00
  0.00000000E+00  0.00000000E+00  0.00000000E+00
  0.00000000E+00  0.00000000E+00  0.00000000E+00
  0.00000000E+00  0.00000000E+00  0.00000000E+00
  0.00000000E+00  0.00000000E+00  0.00000000E+00
  0.00000000E+00  0.00000000E+00  0.00000000E+00
  0.00000000E+00  0.00000000E+00  0.00000000E+00
  0.00000000E+00  0.00000000E+00  0.00000000E+00
  0.00000000E+00  0.00000000E+00  0.00000000E+00
  0.00000000E+00  0.00000000E+00  0.00000000E+00
  0.00000000E+00  0.00000000E+00  0.00000000E+00
  0.00000000E+00  0.00000000E+00  0.00000000E+00
  0.00000000E+00  0.00000000E+00  0.00000000E+00
  0.00000000E+00  0.00000000E+00  0.00000000E+00
  0.00000000E+00  0.00000000E+00  0.00000000E+00
  0.00000000E+00  0.00000000E+00  0.00000000E+00
  0.00000000E+00  0.00000000E+00  0.00000000E+00
  0.00000000E+00  0.00000000E+00  0.00000000E+00
  0.00000000E+00  0.00000000E+00  0.00000000E+00
  0.00000000E+00  0.00000000E+00  0.00000000E+00
  0.00000000E+00  0.00000000E+00  0.00000000E+00
  0.00000000E+00  0.00000000E+00  0.00000000E+00
  0.00000000E+00  0.00000000E+00  0.00000000E+00
  0.00000000E+00  0.00000000E+00  0.00000000E+00
  0.00000000E+00  0.00000000E+00  0.00000000E+00
  0.00000000E+00  0.00000000E+00  0.00000000E+00
  0.00000000E+00  0.00000000E+00  0.00000000E+00
  0.00000000E+00  0.00000000E+00  0.00000000E+00
  0.00000000E+00  0.00000000E+00  0.00000000E+00
  0.00000000E+00  0.00000000E+00  0.00000000E+00
  0.00000000E+00  0.00000000E+00  0.00000000E+00
  0.00000000E+00  0.00000000E+00  0.00000000E+00
  0.00000000E+00  0.00000000E+00  0.00000000E+00
  0.00000000E+00  0.00000000E+00  0.00000000E+00
  0.00000000E+00  0.00000000E+00  0.00000000E+00
  0.00000000E+00  0.00000000E+00  0.00000000E+00
  0.00000000E+00  0.00000000E+00  0.00000000E+00
  0.00000000E+00  0.00000000E+00  0.00000000E+00
  0.00000000E+00  0.00000000E+00  0.00000000E+00
  0.00000000E+00  0.00000000E+00  0.00000000E+00
  0.00000000E+00  0.00000000E+00  0.00000000E+00
  0.00000000E+00  0.00000000E+00  0.00000000E+00
  0.00000000E+00  0.00000000E+00  0.00000000E+00
  0.00000000E+00  0.00000000E+00  0.00000000E+00
  0.00000000E+00  0.00000000E+00  0.00000000E+00
  0.00000000E+00  0.00000000E+00  0.00000000E+00
  0.00000000E+00  0.00000000E+00  0.00000000E+00
  0.00000000E+00  0.00000000E+00  0.00000000E+00
  0.00000000E+00  0.00000000E+00  0.00000000E+00
  0.00000000E+00  0.00000000E+00  0.00000000E+00
  0.00000000E+00  0.00000000E+00  0.00000000E+00
  0.00000000E+00  0.00000000E+00  0.00000000E+00
  0.00000000E+00  0.00000000E+00  0.00000000E+00
  0.00000000E+00  0.00000000E+00  0.00000000E+00
  0.00000000E+00  0.00000000E+00  0.00000000E+00
  0.00000000E+00  0.00000000E+00  0.00000000E+00
  0.00000000E+00  0.00000000E+00  0.00000000E+00
  0.00000000E+00  0.00000000E+00  0.00000000E+00
  0.00000000E+00  0.00000000E+00  0.00000000E+00
  0.00000000E+00  0.00000000E+00  0.00000000E+00
  0.00000000E+00  0.00000000E+00  0.00000000E+00
  0.00000000E+00  0.00000000E+00  0.00000000E+00
  0.00000000E+00  0.00000000E+00  0.00000000E+00
  0.00000000E+00  0.00000000E+00  0.00000000E+00
  0.00000000E+00  0.00000000E+00  0.00000000E+00
  0.00000000E+00  0.00000000E+00  0.00000000E+00
  0.00000000E+00  0.00000000E+00  0.00000000E+00
  0.00000000E+00  0.00000000E+00  0.00000000E+00
  0.00000000E+00  0.00000000E+00  0.00000000E+00
  0.00000000E+00  0.00000000E+00  0.00000000E+00
  0.00000000E+00  0.00000000E+00  0.00000000E+00
  0.00000000E+00  0.00000000E+00  0.00000000E+00
  0.00000000E+00  0.00000000E+00  0.00000000E+00
  0.00000000E+00  0.00000000E+00  0.00000000E+00
  0.00000000E+00  0.00000000E+00  0.00000000E+00
  0.00000000E+00  0.00000000E+00  0.00000000E+00
  0.00000000E+00  0.00000000E+00  0.00000000E+00
  0.00000000E+00  0.00000000E+00  0.00000000E+00
  0.00000000E+00  0.00000000E+00  0.00000000E+00
  0.00000000E+00  0.00000000E+00  0.00000000E+00
  0.00000000E+00  0.00000000E+00  0.00000000E+00
  0.00000000E+00  0.00000000E+00  0.00000000E+00
  0.00000000E+00  0.00000000E+00  0.00000000E+00
  0.00000000E+00  0.00000000E+00  0.00000000E+00
  0.00000000E+00  0.00000000E+00  0.00000000E+00
  0.00000000E+00  0.00000000E+00  0.00000000E+00
  0.00000000E+00  0.00000000E+00  0.00000000E+00
  0.00000000E+00  0.00000000E+00  0.00000000E+00
  0.00000000E+00  0.00000000E+00  0.00000000E+00
  0.00000000E+00  0.00000000E+00  0.00000000E+00
  0.00000000E+00  0.00000000E+00  0.00000000E+00
  0.00000000E+00  0.00000000E+00  0.00000000E+00
  0.00000000E+00  0.00000000E+00  0.00000000E+00
  0.00000000E+00  0.00000000E+00  0.00000000E+00
  0.00000000E+00  0.00000000E+00  0.00000000E+00
  0.00000000E+00  0.00000000E+00  0.00000000E+00
  0.00000000E+00  0.00000000E+00  0.00000000E+00
  0.00000000E+00  0.00000000E+00  0.00000000E+00
  0.00000000E+00  0.00000000E+00  0.00000000E+00
  0.00000000E+00  0.00000000E+00  0.00000000E+00
  0.00000000E+00  0.00000000E+00  0.00000000E+00
  0.00000000E+00  0.00000000E+00  0.00000000E+00
  0.00000000E+00  0.00000000E+00  0.00000000E+00
  0.00000000E+00  0.00000000E+00  0.00000000E+00
  0.00000000E+00  0.00000000E+00  0.00000000E+00
  0.00000000E+00  0.00000000E+00  0.00000000E+00
  0.00000000E+00  0.00000000E+00  0.00000000E+00
  0.00000000E+00  0.00000000E+00  0.00000000E+00
  0.00000000E+00  0.00000000E+00  0.00000000E+00
  0.00000000E+00  0.00000000E+00  0.00000000E+00
  0.00000000E+00  0.00000000E+00  0.00000000E+00
  0.00000000E+00  0.00000000E+00  0.00000000E+00
  0.00000000E+00  0.00000000E+00  0.00000000E+00
  0.00000000E+00  0.00000000E+00  0.00000000E+00
  0.00000000E+00  0.00000000E+00  0.00000000E+00
