# Amorphous model                       
    1.000000000000000     
    11.6257490651260547    0.5723351543937513   -3.8370453309732526
    -0.0000000002403920   14.0280744531938097   -3.4692956633474217
    -0.0000000001530057    0.0000000001941643   14.4482278354286819
  C               H             
    72   146
Direct
    -0.0942008791463108    0.7662322354087265    0.6579927202958055
    -0.3555823550216149    0.5070296736990658    0.8834336676643858
    -0.1414194122091964    0.9463415587833326    1.0841210147772187
     0.8720807939934069    0.9401555170066994    0.7871460043994030
    -0.1605675505249391    0.9003883016897971    0.4315729382065395
     0.4594391867239346    0.9340576554045159    0.8137173864359011
     0.2452037787505627    1.2369929979180450    0.5413704514748428
    -0.3902006028731306    0.6100916985459408    0.9207270743065141
     0.0938004437016138    0.7276223490560292    0.6219374082602113
     0.5532576373964836    1.2231750794835812    1.2134510716695006
    -0.1816248500072579    0.9283677628208126    0.6726699474636543
    -0.1670063744154264    1.0202049665605148    1.1694563903478419
    -0.0694095899700545    1.0953012756802583    1.2091765705114883
    -0.0218450300272489    0.6902277053934562    0.6175722874602496
     0.3907233824386213    0.9433042148646362    1.0052658872328808
     0.2261835158925714    0.8187635982253387    1.1714445239790003
    -0.1969424403101269    0.8332090928607887    0.4888329419180457
     0.5505887221698308    1.3518854758334728    1.3670574079687472
     0.7938227666985971    0.8614371068346112    1.3100177189434496
    -0.1250224370794387    0.8533056295308844    0.6098852786330915
    -0.1886663863200500    0.7550562072876580    1.2767751036949164
    -0.4062055405959508    0.7515500503610071    1.1237783193352473
     0.0282673398300000    0.8110874719028678    1.0564193790545808
     0.6060166534624425    0.6548214384727031    1.5019922106797532
     0.5167331932820798    0.6421522245921624    1.2071303960534885
     0.4847473743024793    1.1990748078084388    0.8162295861246904
     0.5197346303974417    0.6763636602716364    1.4016326906082590
     0.6065701407482443    0.7125809025230768    1.2235988513847234
     0.5912630419017220    0.2402865533576538    1.6387012773629746
     0.4668946804325425    0.4356013156729466    0.7301904215330497
     0.5367646687022573    0.4366581416436124    0.8368307030419094
     0.5505839376046248    0.6606668838761770    1.5930347810149450
     0.1969309596710858    0.6990582217435867    0.9989615723894472
    -0.4756501475590806    0.6232325047254865    0.9750502745444737
     0.5426036624094949    0.9636829381921419    0.9196275775165198
     0.1643220719560728    0.7963008939336630    1.0613940109640194
     0.4165210339673115    1.1161616101321825    0.8072965436980271
     0.2907271819089532    1.0617409765507200    0.4847227045301842
    -0.0241341150557518    0.9027719120637047    1.1173144198479421
     0.4440523536568576    1.0142570999619382    0.7526849182734443
    -0.0654673173178375    0.7192827445418496    1.3042149712478153
     0.2044222864553978    1.1335030872016250    0.5185910544963884
     0.3894357520582200    0.8980976672631246    1.1725641671994409
     0.1263270221345949    0.5675615756695355    1.0445726123892443
     0.5323162857297424    0.6100643136467900    1.3058271816707434
     0.5209794002463771    0.3210190147182762    1.2514363382738045
     0.0418350058160022    0.5551236680305316    0.2950079254030329
     0.0268545717965011    0.4361126984300658    0.7480933572214929
     0.5242188846522300    0.7952701367387640    0.9611183953069118
     0.6119378254478036    1.0965623790672343    1.5012782865293022
     0.5160395707143542    0.7240683295686640    1.0268494212736594
     0.6456628200572374    0.9986290678452017    1.4527343303216353
    -0.0219720987235367    0.3331365307532077    0.6883045055783971
    -0.1417350297911479    0.3410069455166372    0.6087508481961029
     0.3023874823311138   -0.3097502993039541    1.7377908244966309
     0.2377169443873586    0.5275625663857795    0.4114029078336607
     0.2847478319053894    0.9220949236699399    1.2171170652327870
     0.1789108388488793   -0.2558020364822990    0.7249995385086818
     0.4588664509685952    1.1462465463464373    1.1670738269484182
     0.7782926145400849    0.9968847926389208    1.4574507355447877
     0.6271881856004928    1.1342334293715084    1.6097248434451226
    -0.2688043483329261    0.6814976823026458    1.2673626174692241
     0.3231548318401577    0.9542354466354795    1.3262258622290859
     0.2814975657394365    1.0551530972857730    1.3686432432110351
    -0.0532053414693481    0.6180667289963362    0.2347782003577918
     0.1210316669990004    0.4421107639828127    0.8481948152659560
     0.4940605335704899    1.0390803440231486    1.1806827129676114
     0.1049239184777231    0.6096452479200589    0.9522494880767787
     0.3958531974653484    0.9719179591240293    1.1215816356378963
     0.1658553895429282    0.5414226797605459    0.8752211991332285
     0.1614106362659871    0.5765417155663973    0.3244028642417340
     0.5157702234309477    0.9061677384905698    0.9900261740635626
     0.7736203203772520    1.0486156431708886    0.4142505028797560
     0.8069399834955487    1.0427001768709507    0.5328235722424068
     0.3279152304921905    1.1376554214059635    0.7981424027476747
     0.3756035839132289    1.0930691496161269    0.5317509731568461
     0.5895605854884705    1.0829629035865089    1.6452337810379698
     0.4131662144262800    0.3744135008089173    0.6979541627408524
     0.2246508116639489    1.2802069482334426    0.6085424087936828
     0.6259707139129772    0.9635421526930847    1.5017297869488919
     0.4308318621263577    0.6743415475996292    1.1777422872715544
     0.5188449576413176    1.0407100744236117    1.2645521653940182
     0.5310530638422174    0.5660448403437339    1.1719746344273836
     0.6341173767971551    0.9507467040228444    0.9134297481168994
     0.2137952219548484    0.5271382900789453    1.0522200946000551
     0.6246992540965408    0.6396037003040719    1.6551878485434848
     0.3121902014138023    1.0274898193355884    1.1194859826923496
     0.5587137003384329    1.0031618601142918    1.1473376465472498
     0.5198910739804954    0.7348282899638616    1.6273393225771733
     0.6316727487268149    0.5826730125659468    1.4753585551641490
     0.4678565132348633    0.5460032708702234    1.2695146069630363
     0.6373057136371267    0.2761861919527050    1.7198821843837804
     0.5845083369450950    0.7775645281210510    1.2819540502706508
     0.3231503199873589    1.1089561079862282    1.3590624451663882
     0.7094817755910601    0.8282883812939364    0.4665366434484889
     0.9729349095403488    0.9457309093181926    0.8140921642538990
     0.3770713420068552    0.9887507927204566    0.6911475814315564
     0.6948806033640088    0.8763089261117998    0.2786947150090253
     0.3357028335976081    1.2317032488878885    0.5506606884446741
     0.5910576622234620    0.9174427600208120    1.0660504926442416
     0.4249301815311364    1.1276657505873933    1.0813452901540364
     0.4157852877373449    0.9516376072159707    1.3554308162319832
     0.5150563400912448    0.7541504228120973    1.4144775411347859
     0.2918336225362240    0.7600993004238717    1.1858944751409626
     0.1558050879416654    0.8176458416973509    1.2036695562166060
     0.5094293308256226    1.0968071539240052    1.4709545828401058
     0.3552124288354848    1.0086561964621696    0.9841432852964137
     0.6149597021177944    0.7916459158117731    0.9740895542871248
     0.4676834585888742    0.7657690944381945    0.8876293950053081
     0.4741259567311928    0.8971678840699461    1.2291190550518771
     0.3739794871361645    0.8341045949526075    1.1199250917025536
     0.6170512132973239    1.1528763556622632    1.4607606794866883
     0.3744881198731761    0.9282154123325359    0.8187457758702924
     0.1949703175934322    1.2640009987895977    0.4808707196082090
     0.1972111973286800    1.1123006013599845    0.5866302988396535
     0.4715531517942355    0.4466700019873887    0.8723629526181472
     0.4214878962158189    0.7438165783693147    1.0289113765079538
     0.4637077377357202    0.8680611701831732    0.7587281021757598
     0.5818341500720737    0.9746675822843346    1.3811552239748266
     0.4354346040745295    1.1143982361428746    0.8855309269312606
     0.3770538460903111    1.1730024019918026    1.1900725156352339
     0.8584175019829238    0.8855105537261470    0.8164077652277227
     0.8273717516389129    0.9030359303516591    1.2697058225816400
     0.5488424836124796    0.5775640434806496    1.0293867861887147
     0.5539393026521864    1.0408959557386661    0.9467973119533492
     0.3388178476609090    0.8786478780196453    0.9602855937679571
     0.7180617591158666    1.1176030923214133    1.6474474939747281
     0.8516204711131777    1.0008806192512520    0.8380773163315506
     0.5120397593138822    1.2404298965679481    0.8937452031903889
     0.1795264999222952    0.6496501637369038    0.3599121131106770
    -0.0142404484148451    0.8939878764628894    1.1936970721937461
     0.4431350871761238    0.6710233897492671    1.4252875971907919
     0.0770875267109906    0.4384365351836987    0.6932720889747803
     0.1644920517570211    0.5778960583554579    0.8132303866506390
     0.0581881760430827    0.5203752576829660    1.0243639905516322
     0.3489050703723798   -0.3256584278890460    1.8071281549385909
    -0.3222462838904652    0.6587010985085389    0.9751824337809772
     0.1229613791028107    0.6218227019988340    1.1041510795502643
    -0.0077547469087190    0.2744939619360340    0.7282374885847873
     0.0084547801731496    0.6269598322723601    0.9110935077581330
    -0.0300725246085956    0.4958088353458454    0.7471075770512760
     0.3732995170958429   -0.2817237721654440    1.7177465095854825
     0.1922021447903502    0.3943224025044763    0.8308615172457149
     0.2823207856518095   -0.3786637162177025    1.6870812999009417
     0.1147305992663015    1.1399278560933899    0.4698210964214392
    -0.0653862305550847    0.7837013991775518    0.7431375694650808
     0.0109560319334530    1.0703979392767555    1.2636515602886675
    -0.0722735574627730    1.1191075571308822    1.1309949691030980
    -0.0182977883207147    0.6268413944613327    0.6465829347784944
    -0.1759500763506211    0.9917888628154903    1.2330561498054831
     0.2603835475002896    0.5492716151224711    0.9294480572548520
    -0.1691575291883091    0.7281618825623511    0.6564250506737825
    -0.2500101233869110    0.6187721773612003    1.2016332852911122
     0.1990831482523265    0.8494587414413630    1.0387502613477462
     0.2453714256026308    0.4534618330977678    0.3876042473578033
    -0.1466448544829394    0.3478200749493220    0.5319561173252561
     0.2040922618717260    0.5655042499102840    0.2660683205382299
     0.1413618813686724   -0.2856842298628433    0.7731940308497760
     0.1813306660637792   -0.1799192029115736    0.7593823577786685
    -0.5908562613097833    0.5010118602132145    0.7167677628560407
     0.3191581774218976    0.5507708675145276    0.4415586008956553
    -0.2987589903048946    0.4727017294675716    0.9402143889160572
    -0.1995956563622380    0.3948498015237525    0.6378772633030926
     0.5530117955900046    0.3688032572517229    1.2188498452782144
     0.0186056364271065    0.5443454892497155    0.3538316337112818
    -0.1249575371064269    0.5799494496383655    0.2360069616334432
     0.6306387003302085    0.3940690688270933    1.4085739865943403
     0.0412879067144032    0.2889407639567497    0.6486672385810917
    -0.1742047470389473    0.2782325522353920    0.6037815744694692
    -0.0497595210317834    0.6228667419093686    0.1639523186292839
     0.0677466100876301    0.4328060362112975    0.8934068191621443
    -0.2614655849768904    0.6548517405875809    1.3386164194654324
     0.2085875051849294    0.5314347840714647    0.4769617375423502
     0.4914679172303720    0.6044261382646814    1.5768022270574900
     0.0946597756828283    0.7811395968836368    0.5799515824924081
    -0.0757806041380111    0.6610982535588461    0.5466466074133500
    -0.0074243416179406    0.8120532742011046    0.9735812129127441
    -0.2032966060441057    0.8907349863413297    1.0510720936389526
    -0.4227442564534012    0.8309997349866346    1.1431413128206467
     0.2286083057612510    0.7066724656948463    0.9376929616346681
     0.2160367777648639    0.9612086020142021    1.1686753209941605
     0.2884676319821756    0.9131209305566177    1.3688483669203402
     0.2691627955827144    0.6536419323313396    1.0438332268997821
    -0.3144131742237394    0.7543115939364972    1.1128218909775440
     0.1178104750779838    0.6636375104043455    1.5714308718980523
     0.5379105929369268    0.4461382330640670    0.6984738647984571
     0.4284191940926120    0.3150929715004667    1.2251046771165301
     0.5750084196157007    0.3650226239911428    0.8514195080662263
     0.4510183678972055    1.2381319399855348    0.7540321487410199
     0.5275784318291455    1.0230500927932669    0.7432164295566801
     0.6859351373370266    0.6865853926567563    1.5129043711980095
     0.6165634597708214    0.5577356073320481    1.3181112646141773
     0.6041877518475290    0.2196349766147731    1.1642375337828899
     0.5014382671510239    0.2473514976451304    1.6396339308461205
     0.5605017176108398    1.1545968218041092    0.7977094085004045
     0.5472180099020671    1.2937317724599220    1.4070762764071691
    -0.5612737162971628    0.5965199621376159    0.9404822673061174
     0.0007032241401927    0.7483921383811936    1.0742251197500658
    -0.1699885058928845    0.9988598938502582    0.6601396747635819
    -0.0488484920018631    0.7103294801205674    0.3838451275025224
    -0.2490578280551596    1.0585961197078619    1.1635606889472752
    -0.1045760650885414    1.1543679144620633    1.2579193477807697
    -0.2976558019699317    0.5008146500278866    0.8344003781048789
    -0.1638549649310599    0.7626181737213497    0.4664846206594655
    -0.2727596120067348    0.9303005204206584    0.6393836857470071
     0.2820222638175612    0.9992576242651363    0.4999272094039859
     0.1931099573314800    1.0627929221260894    1.3302559609089530
     0.0347595472847250    0.4773460700041638    0.2486241655185596
    -0.4136278644712527    0.6448446411340052    0.8564200092746548
     0.4943309136385097    1.4100491895758482    1.4015409348858290
    -0.1427643107200249    0.9780729278249159    1.0253875323956616
     0.0154626085086336    0.9669665529658752    1.1154784145733536
     0.6193164945907161    1.1932820176347134    1.2751264934104662
    -0.1958374188686649    0.7647565956579470    1.1957262887178399
    -0.0686181440155305    0.9084872682585642    1.4673863209270257
    -0.0035946218423991    0.7708249880165995    1.3144839305773861
    -0.0388585453772523    0.8657440967112577    0.6104728052800243
     0.6185323756003476    1.2801758066265181    1.5958352091046282
Lattice velocities and vectors
            1
 -0.51660678E-03  0.15739007E-02 -0.11012951E-02
  0.13296759E-03  0.83139675E-04 -0.42584177E-03
  0.79941687E-03  0.55393411E-04  0.23888055E-03
  0.11625622E+02  0.57307831E+00 -0.38372277E+01
 -0.24035997E-09  0.14028113E+02 -0.34694445E+01
 -0.15298808E-09  0.19416966E-09  0.14448323E+02
 
  0.57551807E-02  0.60833580E-02 -0.27824824E-02
 -0.38384876E-02 -0.70197333E-03 -0.65726680E-03
 -0.18468567E-02  0.19331132E-02  0.19485787E-02
 -0.30681914E-02 -0.35951755E-02 -0.10740568E-01
  0.94311271E-02  0.32739372E-02 -0.13953854E-01
 -0.45932606E-02  0.35299209E-02  0.32715535E-02
  0.14478460E-01 -0.60297824E-02 -0.73194034E-02
 -0.60633855E-02 -0.65087281E-03 -0.98014635E-02
 -0.57788232E-02  0.38224308E-02  0.12714341E-01
 -0.73812177E-03 -0.56607938E-02 -0.88523609E-02
  0.35295965E-02  0.20799218E-02  0.47681396E-02
  0.74603147E-03 -0.11670627E-01  0.10243548E-01
 -0.38359240E-02 -0.14079954E-02  0.91575391E-02
 -0.74061449E-02 -0.14295760E-01 -0.43748790E-02
 -0.11457545E-02 -0.79176460E-02  0.29043449E-02
 -0.79383005E-02  0.47282030E-02  0.70090804E-02
  0.77289167E-02  0.59021500E-02  0.79875279E-02
  0.47150480E-02  0.89504896E-02 -0.51281787E-03
 -0.67976924E-02  0.51389283E-02 -0.85139724E-02
 -0.61404686E-02 -0.24436982E-02  0.16479496E-01
  0.89037550E-03  0.28989973E-02 -0.58575072E-02
  0.12607274E-01 -0.69117285E-02 -0.16236466E-01
 -0.18058554E-02  0.10336165E-01 -0.76203077E-02
  0.11838253E-01  0.31173991E-02 -0.38152109E-02
  0.11806253E-01  0.73693679E-02  0.48693738E-02
  0.89824353E-02 -0.86742109E-02 -0.11921013E-01
  0.29356217E-02  0.23533346E-02 -0.28480112E-02
 -0.50119887E-02 -0.16086747E-02  0.43405185E-02
  0.81867714E-02  0.74216578E-02  0.65747765E-02
 -0.65828933E-02 -0.85571600E-02  0.14673073E-02
  0.68188499E-03  0.19702999E-02 -0.51241295E-02
 -0.11701863E-02  0.16844319E-02  0.38838521E-02
  0.23311406E-02  0.59635490E-02 -0.16650267E-02
 -0.12137376E-02  0.73462963E-02 -0.40290186E-02
 -0.14639382E-01 -0.72099940E-02  0.14924216E-01
 -0.21037580E-02  0.33714688E-02  0.49005168E-03
  0.85746789E-02  0.27956682E-02 -0.11689251E-01
  0.38831490E-02 -0.13285367E-02  0.59247392E-02
  0.28909024E-02 -0.11677137E-01 -0.25505674E-02
  0.70080609E-02 -0.70151316E-03  0.68561932E-02
  0.34898296E-02  0.64557745E-02  0.56328792E-02
 -0.21591148E-01 -0.67957092E-02 -0.33184937E-02
  0.64837265E-02  0.74484344E-02 -0.15645238E-02
 -0.81579131E-02  0.52053012E-02  0.62073696E-02
  0.44187632E-02  0.24083377E-02  0.60887185E-02
 -0.28262130E-02 -0.32630102E-02 -0.17442407E-02
  0.15545204E-01 -0.34998393E-02  0.15228185E-01
  0.41156313E-02 -0.22625527E-02  0.49574315E-02
 -0.37044764E-02  0.83218925E-02 -0.34674564E-02
  0.25893509E-02  0.23833990E-02 -0.54095389E-03
 -0.53677016E-02  0.85048492E-02  0.44077559E-02
 -0.48250961E-03 -0.58714196E-03 -0.15617501E-01
  0.56261939E-03  0.54327863E-02  0.19012121E-02
  0.28700241E-02  0.13958128E-02 -0.16433604E-01
 -0.26365436E-01  0.82216651E-02  0.66377711E-02
  0.62472092E-02  0.39063313E-02 -0.25090644E-02
 -0.72815808E-02 -0.88107375E-03 -0.13344697E-02
  0.18958227E-02 -0.53692353E-02 -0.35056481E-02
  0.20183530E-02  0.14430853E-01  0.19042580E-02
 -0.11231152E-01 -0.94697283E-03 -0.76049847E-03
  0.67682860E-03 -0.15817622E-01  0.11812361E-01
 -0.21776872E-01 -0.65501694E-02  0.62349483E-02
  0.11715697E-01 -0.81457105E-02 -0.16293513E-02
 -0.69409528E-02 -0.10808224E-02  0.54513751E-03
  0.45674386E-02 -0.29406738E-02  0.23447225E-03
 -0.74705676E-02  0.44271948E-02 -0.10649960E-03
  0.39340839E-02  0.42998984E-02 -0.84047330E-02
 -0.17201298E-02  0.63330143E-02  0.41295390E-02
 -0.12545032E-01  0.67527966E-02  0.24268457E-03
  0.75569278E-02  0.40683002E-02 -0.66737955E-03
 -0.19786326E-02  0.10240899E-01  0.80822967E-02
  0.13684169E-01  0.55062420E-02 -0.54206659E-03
  0.23873262E-01 -0.73727744E-02  0.15389396E-01
 -0.91141457E-02 -0.16183586E-01  0.52419294E-01
 -0.35365667E-01  0.25756489E-01  0.45446513E-02
 -0.14804669E-01  0.29712972E-01 -0.24775803E-01
 -0.89684635E-02 -0.63330756E-02 -0.23334353E-01
  0.10356205E-01 -0.94824158E-02  0.31615600E-01
  0.23017207E-01  0.50572927E-02  0.19015838E-01
 -0.12950972E-02 -0.21640013E-01 -0.64559450E-02
  0.29694883E-01  0.17526731E-01  0.25908753E-01
 -0.45726389E-01 -0.48023973E-01  0.47989620E-02
  0.10827565E-01 -0.20901181E-01 -0.27772963E-01
 -0.48162462E-02  0.72323996E-02 -0.22931318E-01
  0.35825615E-01  0.68510757E-02 -0.10129114E-01
 -0.67671933E-02 -0.31590387E-01 -0.58518873E-02
  0.21936742E-01 -0.11738286E-01  0.34031862E-02
 -0.47266815E-01  0.11451249E-01  0.29857751E-01
  0.32836151E-01  0.30040817E-01  0.16878086E-01
 -0.19858891E-01 -0.34538256E-01  0.73740249E-02
  0.21892940E-01 -0.48786087E-01  0.13825557E-02
 -0.14595751E-01  0.28427433E-01  0.32167370E-01
 -0.26729148E-01 -0.21497485E-01  0.43166109E-01
 -0.17556200E-01  0.34848569E-01  0.10824283E-01
  0.16122119E-01 -0.12337452E-02  0.87357959E-02
  0.22330752E-01 -0.30427584E-01  0.17171507E-01
  0.16620571E-01  0.91333892E-02 -0.51463623E-01
  0.33385660E-01 -0.20988518E-01  0.21780152E-01
  0.34738768E-01  0.16444963E-01 -0.63893930E-01
  0.36954183E-02  0.11150984E-01  0.64752571E-02
 -0.58229943E-02  0.32645546E-01 -0.53239149E-02
  0.40875616E-01  0.15829197E-01  0.17250882E-01
 -0.39338569E-01  0.46307244E-02 -0.67231184E-02
  0.10059340E-01  0.17457727E-01 -0.12455560E-01
  0.54886637E-01 -0.26960185E-02  0.38832495E-01
  0.13087855E-01 -0.42217570E-01 -0.65058701E-03
 -0.16341998E-01  0.30171797E-01 -0.35583266E-01
  0.14721740E-01 -0.56018977E-02  0.11275260E-01
  0.43482156E-01  0.23330347E-02 -0.16846970E-01
 -0.13613075E-01 -0.45412002E-01  0.14911734E-01
 -0.26102981E-01 -0.28606922E-01 -0.27073430E-02
  0.84660306E-03  0.57056810E-02 -0.14937370E-02
 -0.21532396E-01 -0.28268781E-02 -0.20437478E-01
  0.15808261E-01 -0.88760232E-02 -0.38897773E-02
  0.16970421E-01  0.12924677E-01  0.29450259E-02
 -0.20032861E-02  0.42625785E-01 -0.16884041E-01
  0.91718829E-02 -0.38936388E-02 -0.13912999E-01
  0.29867593E-01  0.37665885E-01 -0.28565872E-02
 -0.49338963E-02 -0.53565623E-01  0.18346844E-02
  0.27428445E-01 -0.49354954E-01  0.11317363E-01
 -0.83258149E-02 -0.45869890E-01  0.98613301E-02
 -0.90207388E-02  0.32574423E-03 -0.20906281E-02
 -0.57647320E-02 -0.36111252E-01  0.11139058E-01
 -0.24489606E-01  0.61099625E-01  0.27096066E-02
 -0.36147108E-02 -0.29719115E-01 -0.14932512E-02
  0.62751323E-02  0.36089857E-01 -0.21626827E-01
  0.28080505E-01 -0.13176094E-01 -0.42785888E-01
 -0.47879478E-01 -0.19984619E-01 -0.61930213E-02
 -0.22003720E-01 -0.23635731E-01  0.28369323E-01
  0.27761306E-01  0.13869935E-01 -0.56036374E-02
  0.21092711E-01 -0.33670876E-01 -0.10865586E-01
  0.29152030E-01  0.86779312E-02 -0.19449578E-01
 -0.23727680E-01  0.20813880E-02 -0.29081217E-01
 -0.34424280E-02 -0.18811463E-02 -0.44231543E-01
 -0.17943324E-02 -0.31411834E-01 -0.19508099E-01
  0.40809040E-01 -0.30057751E-02  0.31364730E-01
 -0.28415031E-01 -0.15183844E-01  0.87486594E-03
  0.19475634E-01  0.22099748E-01 -0.12076120E-01
  0.61239237E-04 -0.28172204E-02  0.41186955E-01
  0.35629266E-02 -0.25363126E-02  0.61054299E-02
 -0.25554361E-01  0.15513610E-01  0.55865933E-01
 -0.23286084E-02 -0.75362097E-02 -0.24020022E-01
 -0.15274769E-01 -0.13818719E-01 -0.15524064E-01
  0.42266259E-01 -0.30192477E-01 -0.16977311E-01
 -0.46101352E-01  0.42154462E-01  0.18423788E-01
  0.32086223E-01  0.29539314E-01 -0.41000765E-01
  0.36588718E-02 -0.77502338E-02 -0.21389577E-01
 -0.17053236E-01 -0.39215433E-01  0.37120273E-02
 -0.48575236E-01 -0.16577926E-01 -0.19168292E-01
 -0.83508235E-02 -0.12677411E-01 -0.18867404E-01
  0.61023056E-02 -0.23777466E-01 -0.50872319E-02
 -0.10664146E-01  0.16586237E-01 -0.41031410E-02
 -0.16545736E-01  0.57663392E-01 -0.49276076E-02
 -0.36790446E-01  0.27328238E-01 -0.35916444E-01
  0.45614219E-01  0.27686207E-01 -0.29772049E-01
  0.18047318E-01  0.22466899E-02 -0.34981834E-01
  0.25026117E-01  0.20809976E-01 -0.30424892E-02
  0.38814365E-01 -0.32718631E-01 -0.65839056E-01
 -0.29122806E-01 -0.96036143E-02 -0.87167903E-02
  0.27007757E-01 -0.32285215E-01  0.31017615E-02
  0.19354755E-01  0.46808534E-02  0.47593295E-01
 -0.21282938E-01 -0.28489304E-01  0.81408706E-02
 -0.59576495E-01 -0.20952106E-02 -0.10895075E-01
 -0.36423273E-01  0.72268869E-02  0.19549389E-01
  0.40397436E-01 -0.79848050E-01  0.49486943E-02
 -0.18340975E-01  0.37565880E-01  0.35577998E-02
  0.10486751E-01 -0.46208714E-01 -0.42907009E-01
  0.12622995E-01 -0.30806982E-01  0.28139180E-01
  0.11795015E-01 -0.20472044E-01  0.34249919E-01
  0.97967139E-03  0.12065802E-01  0.24720908E-02
 -0.10424555E-01  0.13498962E-01  0.37842255E-01
  0.11255296E-01  0.30747896E-01  0.30900358E-01
  0.27508833E-02  0.39964052E-01 -0.14310026E-01
 -0.14792008E-01  0.85151440E-02 -0.40678870E-01
  0.24684106E-01 -0.39878792E-01 -0.13152157E-01
  0.29940833E-01 -0.16672532E-01 -0.68752090E-01
 -0.22662841E-01 -0.53650113E-03  0.66387469E-02
  0.17283087E-01 -0.17042581E-01  0.34857091E-01
  0.45352822E-02  0.23547426E-02  0.53514163E-01
  0.38337587E-01  0.51161834E-01  0.34989702E-02
  0.44686071E-01  0.20461666E-01  0.20907444E-01
 -0.29647985E-01  0.30145942E-02  0.22740469E-01
  0.20184414E-01  0.48580604E-02 -0.78605221E-03
  0.26700818E-01 -0.11120184E-01  0.43521522E-01
  0.27118517E-01 -0.16165122E-01 -0.14068490E-01
 -0.14709713E-01 -0.19031354E-01  0.16873643E-01
  0.36796572E-01 -0.11584480E-01  0.31590003E-03
 -0.39107570E-01  0.39782922E-01  0.54919264E-01
 -0.88001915E-02  0.28563958E-01 -0.22824190E-01
 -0.32659140E-01 -0.13138810E-01  0.20186064E-01
 -0.39651802E-01 -0.13018080E-01  0.23576519E-01
 -0.47007210E-02  0.41989333E-01 -0.27004483E-01
  0.37956433E-01 -0.50682871E-02 -0.31486891E-02
 -0.56287971E-02 -0.30489624E-02 -0.12090493E-01
 -0.12045348E-01 -0.14214568E-01  0.39282283E-01
  0.14923334E-01  0.83915723E-02  0.34204531E-01
 -0.54965483E-01 -0.16775429E-01 -0.31233173E-02
  0.24751299E-01 -0.58407770E-01  0.22714696E-01
  0.21136942E-01  0.36674075E-01 -0.58203080E-02
  0.28628748E-01 -0.40513860E-01 -0.24574214E-01
 -0.56952501E-02 -0.57590429E-02 -0.80896517E-02
  0.93819327E-02 -0.41317579E-01 -0.19505654E-01
  0.92864454E-02 -0.63374662E-03 -0.10610909E-01
  0.52688197E-02 -0.59127191E-02  0.24233207E-02
 -0.13986483E-01 -0.29746974E-02  0.95167727E-02
 -0.19234829E-01 -0.11555354E-01 -0.10766375E-01
 -0.20476775E-01  0.28385866E-02  0.29430439E-01
 -0.14525746E-01 -0.19103702E-01  0.55058393E-01
  0.27745570E-02  0.10505141E-01 -0.24290208E-02
 -0.47252249E-02 -0.15705639E-01 -0.18764103E-01
  0.17794579E-01 -0.11477293E-01  0.19176444E-01
  0.36638869E-01 -0.22533508E-01 -0.89051020E-02
 -0.12449169E-01  0.65134601E-02 -0.20098598E-01
 -0.24221433E-01  0.31999130E-01 -0.67419584E-03
  0.44351489E-01 -0.19014657E-01 -0.17098892E-01
  0.24413590E-02  0.66965560E-01  0.23764878E-01
  0.39416223E-01 -0.84467073E-02  0.30965797E-01
  0.71490054E-01  0.15218069E-01  0.19724875E-02
 
            1
   0.4000000000000000     
  0.10000000E+01  0.00000000E+00  0.00000000E+00  0.00000000E+00
  0.90599714E+00  0.76639761E+00  0.65800799E+00
  0.64428558E+00  0.50701505E+00  0.88337688E+00
  0.85851704E+00  0.94639928E+00  0.84171944E-01
  0.87197523E+00  0.94005732E+00  0.78679704E+00
  0.83975694E+00  0.90046840E+00  0.43129204E+00
  0.45928115E+00  0.93416476E+00  0.81379171E+00
  0.24570194E+00  0.23680071E+00  0.54125394E+00
  0.60959078E+00  0.61008166E+00  0.92039791E+00
  0.93601613E-01  0.72773947E+00  0.62226472E+00
  0.55323224E+00  0.22301470E+00  0.21316074E+00
  0.81849659E+00  0.92842211E+00  0.67284726E+00
  0.83301929E+00  0.19871140E-01  0.16966664E+00
  0.93045843E+00  0.95266520E-01  0.20938670E+00
  0.97790015E+00  0.68983048E+00  0.61728811E+00
  0.39068396E+00  0.94308006E+00  0.52819982E-02
  0.22591038E+00  0.81890958E+00  0.17160108E+00
  0.80332349E+00  0.83336652E+00  0.48916250E+00
  0.55075095E+00  0.35213406E+00  0.36714599E+00
  0.79358888E+00  0.86159319E+00  0.30975738E+00
  0.87476629E+00  0.85324458E+00  0.61027074E+00
  0.81136425E+00  0.75513762E+00  0.27664062E+00
  0.59422823E+00  0.75133525E+00  0.12339244E+00
  0.28205206E-01  0.81138474E+00  0.56263292E-01
  0.60642397E+00  0.65489369E+00  0.50201211E+00
  0.51713941E+00  0.64234576E+00  0.20741956E+00
  0.48505643E+00  0.19881484E+00  0.81591921E+00
  0.51983564E+00  0.67642664E+00  0.40159579E+00
  0.60639769E+00  0.71254208E+00  0.22366390E+00
  0.59154472E+00  0.24048667E+00  0.63900616E+00
  0.46666818E+00  0.43536657E+00  0.73011452E+00
  0.53678813E+00  0.43671336E+00  0.83670833E+00
  0.55054368E+00  0.66071656E+00  0.59314354E+00
  0.19701117E+00  0.69922499E+00  0.99897682E+00
  0.52430809E+00  0.62344368E+00  0.97497835E+00
  0.54209997E+00  0.96349793E+00  0.91986255E+00
  0.16424969E+00  0.79639999E+00  0.61412149E-01
  0.41681606E+00  0.11622927E+00  0.80706753E+00
  0.29086079E+00  0.61697636E-01  0.48491181E+00
  0.97596535E+00  0.90243488E+00  0.11718929E+00
  0.44429348E+00  0.14227246E-01  0.75293160E+00
  0.93465276E+00  0.71946192E+00  0.30444583E+00
  0.20367940E+00  0.13333966E+00  0.51826264E+00
  0.38965884E+00  0.89830094E+00  0.17262891E+00
  0.12604633E+00  0.56772147E+00  0.44708311E-01
  0.53246832E+00  0.61012677E+00  0.30605112E+00
  0.52088216E+00  0.32092995E+00  0.25134084E+00
  0.42369866E-01  0.55500202E+00  0.29554236E+00
  0.26996177E-01  0.43604240E+00  0.74825133E+00
  0.52409143E+00  0.79551264E+00  0.96104678E+00
  0.61202692E+00  0.96626700E-01  0.50130242E+00
  0.51585489E+00  0.72431838E+00  0.26982445E-01
  0.64564622E+00  0.99861300E+00  0.45229370E+00
  0.97804726E+00  0.33329065E+00  0.68839929E+00
  0.85836372E+00  0.34104271E+00  0.60833070E+00
  0.30148033E+00  0.69052119E+00  0.73779886E+00
  0.23793189E+00  0.52766517E+00  0.41141517E+00
  0.28449730E+00  0.92208004E+00  0.21701001E+00
  0.17897607E+00  0.74404220E+00  0.72488241E+00
  0.45893590E+00  0.14665519E+00  0.16724312E+00
  0.77790619E+00  0.99687358E+00  0.45732436E+00
  0.62721147E+00  0.13378145E+00  0.60994952E+00
  0.73044638E+00  0.68134152E+00  0.26729874E+00
  0.32355793E+00  0.95398671E+00  0.32622808E+00
  0.28125875E+00  0.55132035E-01  0.36858985E+00
  0.94695181E+00  0.61797646E+00  0.23480475E+00
  0.12077463E+00  0.44224750E+00  0.84815644E+00
  0.49419589E+00  0.39197422E-01  0.18051409E+00
  0.10486473E+00  0.60982825E+00  0.95239204E+00
  0.39542156E+00  0.97212814E+00  0.12152419E+00
  0.16611540E+00  0.54152806E+00  0.87529708E+00
  0.16134256E+00  0.57683651E+00  0.32467933E+00
  0.51624105E+00  0.90630551E+00  0.99016929E+00
  0.77444172E+00  0.48371859E-01  0.41483617E+00
  0.80662640E+00  0.42251526E-01  0.53408378E+00
  0.32669841E+00  0.13843956E+00  0.79813335E+00
  0.37509420E+00  0.93937200E-01  0.53113822E+00
  0.58925201E+00  0.82794927E-01  0.64446548E+00
  0.41352254E+00  0.37412856E+00  0.69885565E+00
  0.22544276E+00  0.28031880E+00  0.60930605E+00
  0.62592615E+00  0.96292693E+00  0.50139149E+00
  0.43185357E+00  0.67479957E+00  0.17884090E+00
  0.51727166E+00  0.39404983E-01  0.26395379E+00
  0.53142561E+00  0.56543364E+00  0.17115792E+00
  0.63395167E+00  0.95095970E+00  0.91280203E+00
  0.21502787E+00  0.52728329E+00  0.52301858E-01
  0.62446642E+00  0.63871244E+00  0.65474999E+00
  0.31294497E+00  0.27124278E-01  0.11969288E+00
  0.55708740E+00  0.35548207E-02  0.14782670E+00
  0.52102086E+00  0.73563872E+00  0.62830125E+00
  0.63098947E+00  0.58171610E+00  0.47515145E+00
  0.46860978E+00  0.54458140E+00  0.26941151E+00
  0.63680352E+00  0.27701729E+00  0.72083893E+00
  0.58358867E+00  0.77698912E+00  0.28276668E+00
  0.32254627E+00  0.10997446E+00  0.35944622E+00
  0.71003649E+00  0.82823054E+00  0.46691193E+00
  0.97370324E+00  0.94483190E+00  0.81455573E+00
  0.37764320E+00  0.98898786E+00  0.68993162E+00
  0.69602930E+00  0.87566353E+00  0.27944779E+00
  0.33689808E+00  0.23212333E+00  0.54931011E+00
  0.59118481E+00  0.91775553E+00  0.66338632E-01
  0.42472983E+00  0.12860480E+00  0.81370180E-01
  0.41719169E+00  0.95203151E+00  0.35637651E+00
  0.51370283E+00  0.75433776E+00  0.41397693E+00
  0.29217973E+00  0.76058295E+00  0.18575770E+00
  0.15769356E+00  0.81749182E+00  0.20520919E+00
  0.50987964E+00  0.95584959E-01  0.47076268E+00
  0.35465015E+00  0.95394903E-02  0.98322094E+00
  0.61546623E+00  0.79146549E+00  0.97449291E+00
  0.46917954E+00  0.76577450E+00  0.88756162E+00
  0.47365757E+00  0.89589213E+00  0.22910115E+00
  0.37308137E+00  0.83332558E+00  0.11942455E+00
  0.61708034E+00  0.15303786E+00  0.46076584E+00
  0.37374726E+00  0.92816507E+00  0.81797112E+00
  0.19551423E+00  0.26372569E+00  0.48084137E+00
  0.19779509E+00  0.11264528E+00  0.58694967E+00
  0.47148423E+00  0.44788826E+00  0.87216975E+00
  0.42180347E+00  0.74369266E+00  0.28580253E-01
  0.46473538E+00  0.86909320E+00  0.75916976E+00
  0.58166439E+00  0.97314714E+00  0.38079583E+00
  0.43637833E+00  0.11295237E+00  0.88574769E+00
  0.37676738E+00  0.17170616E+00  0.18995818E+00
  0.85810713E+00  0.88553252E+00  0.81627273E+00
  0.82717341E+00  0.90201435E+00  0.26971622E+00
  0.54799988E+00  0.57934067E+00  0.29664637E-01
  0.55381493E+00  0.40053621E-01  0.94652067E+00
  0.33903375E+00  0.87966813E+00  0.95998919E+00
  0.71902792E+00  0.11718792E+00  0.64641987E+00
  0.84997309E+00  0.37807332E-03  0.83734767E+00
  0.51128268E+00  0.23978687E+00  0.89417513E+00
  0.18048168E+00  0.65000663E+00  0.36009625E+00
  0.98648528E+00  0.89299813E+00  0.19335134E+00
  0.44413811E+00  0.67122986E+00  0.42506510E+00
  0.76271134E-01  0.43852924E+00  0.69227242E+00
  0.16437361E+00  0.57784726E+00  0.81196267E+00
  0.58126439E-01  0.51948210E+00  0.23593042E-01
  0.35030918E+00  0.67419850E+00  0.80833504E+00
  0.67677605E+00  0.65830808E+00  0.97485263E+00
  0.12363147E+00  0.62242548E+00  0.10413946E+00
  0.99224736E+00  0.27441355E+00  0.72935899E+00
  0.85773689E-02  0.62688250E+00  0.91127652E+00
  0.96904823E+00  0.49628711E+00  0.74853555E+00
  0.37321940E+00  0.71806461E+00  0.71700943E+00
  0.19167659E+00  0.39394984E+00  0.83020270E+00
  0.28377503E+00  0.62041596E+00  0.68677651E+00
  0.11314440E+00  0.14119466E+00  0.47021408E+00
  0.93571775E+00  0.78449859E+00  0.74248709E+00
  0.11081922E-01  0.70171805E-01  0.26303853E+00
  0.92713970E+00  0.11801333E+00  0.13067915E+00
  0.98003090E+00  0.62643697E+00  0.64551128E+00
  0.82376260E+00  0.99143911E+00  0.23237352E+00
  0.26059351E+00  0.54858504E+00  0.92919811E+00
  0.83047555E+00  0.72864981E+00  0.65633117E+00
  0.74942059E+00  0.62043966E+00  0.20174608E+00
  0.19781731E+00  0.85028970E+00  0.37619269E-01
  0.24694086E+00  0.45418717E+00  0.38737100E+00
  0.85397610E+00  0.34785877E+00  0.53116186E+00
  0.20495333E+00  0.56606245E+00  0.26634681E+00
  0.14269736E+00  0.71332827E+00  0.77148884E+00
  0.18032864E+00  0.81984789E+00  0.75881899E+00
  0.41007299E+00  0.50005331E+00  0.71687025E+00
  0.31982411E+00  0.55087713E+00  0.44307859E+00
  0.70050873E+00  0.47191930E+00  0.94005740E+00
  0.79835451E+00  0.39487380E+00  0.63703700E+00
  0.55175859E+00  0.36906052E+00  0.21912001E+00
  0.19995581E-01  0.54201191E+00  0.35377743E+00
  0.87441141E+00  0.58104639E+00  0.23620127E+00
  0.63099952E+00  0.39273673E+00  0.40716201E+00
  0.41722223E-01  0.28804459E+00  0.64934642E+00
  0.82620108E+00  0.27763223E+00  0.60469341E+00
  0.95027419E+00  0.62320941E+00  0.16411199E+00
  0.67387935E-01  0.43320560E+00  0.89445517E+00
  0.73892167E+00  0.65571267E+00  0.33978147E+00
  0.20868215E+00  0.53257046E+00  0.47686341E+00
  0.49095897E+00  0.60468973E+00  0.57560417E+00
  0.95509076E-01  0.77996779E+00  0.57953164E+00
  0.92524956E+00  0.66058077E+00  0.54489255E+00
  0.99179590E+00  0.81206983E+00  0.97356189E+00
  0.79729805E+00  0.89022474E+00  0.52072513E-01
  0.57741179E+00  0.83106050E+00  0.14467888E+00
  0.22992738E+00  0.70807742E+00  0.93847752E+00
  0.21757428E+00  0.96172924E+00  0.16978749E+00
  0.28744754E+00  0.91324856E+00  0.36923766E+00
  0.26985728E+00  0.65375208E+00  0.44022358E-01
  0.68650551E+00  0.75395698E+00  0.11418561E+00
  0.11874354E+00  0.66313846E+00  0.57116936E+00
  0.53740448E+00  0.44561625E+00  0.69868125E+00
  0.42968524E+00  0.31471093E+00  0.22535793E+00
  0.57366285E+00  0.36621197E+00  0.85286818E+00
  0.45071558E+00  0.23895879E+00  0.75351840E+00
  0.52645474E+00  0.22721356E-01  0.74339791E+00
  0.68457085E+00  0.68626993E+00  0.51311900E+00
  0.61640172E+00  0.55893951E+00  0.31760978E+00
  0.60549371E+00  0.21943711E+00  0.16444969E+00
  0.50124460E+00  0.24727247E+00  0.63922880E+00
  0.56008728E+00  0.15420844E+00  0.79859360E+00
  0.54773147E+00  0.29395008E+00  0.40821201E+00
  0.43683510E+00  0.59611888E+00  0.93979722E+00
  0.15548362E-02  0.74669190E+00  0.74671872E-01
  0.83073875E+00  0.99987591E+00  0.66041566E+00
  0.95213653E+00  0.70913402E+00  0.38313934E+00
  0.75074622E+00  0.58439911E-01  0.16324718E+00
  0.89574674E+00  0.15317659E+00  0.25717900E+00
  0.70266371E+00  0.50078353E+00  0.83418400E+00
  0.83632632E+00  0.76244217E+00  0.46655759E+00
  0.72675916E+00  0.93023536E+00  0.63950370E+00
  0.28136046E+00  0.99895517E+00  0.49938075E+00
  0.19240542E+00  0.62902644E-01  0.33090997E+00
  0.34259763E-01  0.47682176E+00  0.24988981E+00
  0.58646760E+00  0.64514029E+00  0.85644911E+00
  0.49416833E+00  0.40960800E+00  0.40087233E+00
  0.85784794E+00  0.97772065E+00  0.25996442E-01
  0.16723233E-01  0.96627253E+00  0.11540002E+00
  0.61888816E+00  0.19348524E+00  0.27450511E+00
  0.80332920E+00  0.76570307E+00  0.19571357E+00
  0.93290785E+00  0.90788274E+00  0.46717305E+00
  0.99648938E+00  0.77273102E+00  0.31562186E+00
  0.96249764E+00  0.86544784E+00  0.61161913E+00
  0.62099212E+00  0.28050925E+00  0.59662315E+00
  0.00000000E+00  0.00000000E+00  0.00000000E+00
  0.00000000E+00  0.00000000E+00  0.00000000E+00
  0.00000000E+00  0.00000000E+00  0.00000000E+00
  0.00000000E+00  0.00000000E+00  0.00000000E+00
  0.00000000E+00  0.00000000E+00  0.00000000E+00
  0.00000000E+00  0.00000000E+00  0.00000000E+00
  0.00000000E+00  0.00000000E+00  0.00000000E+00
  0.00000000E+00  0.00000000E+00  0.00000000E+00
  0.00000000E+00  0.00000000E+00  0.00000000E+00
  0.00000000E+00  0.00000000E+00  0.00000000E+00
  0.00000000E+00  0.00000000E+00  0.00000000E+00
  0.00000000E+00  0.00000000E+00  0.00000000E+00
  0.00000000E+00  0.00000000E+00  0.00000000E+00
  0.00000000E+00  0.00000000E+00  0.00000000E+00
  0.00000000E+00  0.00000000E+00  0.00000000E+00
  0.00000000E+00  0.00000000E+00  0.00000000E+00
  0.00000000E+00  0.00000000E+00  0.00000000E+00
  0.00000000E+00  0.00000000E+00  0.00000000E+00
  0.00000000E+00  0.00000000E+00  0.00000000E+00
  0.00000000E+00  0.00000000E+00  0.00000000E+00
  0.00000000E+00  0.00000000E+00  0.00000000E+00
  0.00000000E+00  0.00000000E+00  0.00000000E+00
  0.00000000E+00  0.00000000E+00  0.00000000E+00
  0.00000000E+00  0.00000000E+00  0.00000000E+00
  0.00000000E+00  0.00000000E+00  0.00000000E+00
  0.00000000E+00  0.00000000E+00  0.00000000E+00
  0.00000000E+00  0.00000000E+00  0.00000000E+00
  0.00000000E+00  0.00000000E+00  0.00000000E+00
  0.00000000E+00  0.00000000E+00  0.00000000E+00
  0.00000000E+00  0.00000000E+00  0.00000000E+00
  0.00000000E+00  0.00000000E+00  0.00000000E+00
  0.00000000E+00  0.00000000E+00  0.00000000E+00
  0.00000000E+00  0.00000000E+00  0.00000000E+00
  0.00000000E+00  0.00000000E+00  0.00000000E+00
  0.00000000E+00  0.00000000E+00  0.00000000E+00
  0.00000000E+00  0.00000000E+00  0.00000000E+00
  0.00000000E+00  0.00000000E+00  0.00000000E+00
  0.00000000E+00  0.00000000E+00  0.00000000E+00
  0.00000000E+00  0.00000000E+00  0.00000000E+00
  0.00000000E+00  0.00000000E+00  0.00000000E+00
  0.00000000E+00  0.00000000E+00  0.00000000E+00
  0.00000000E+00  0.00000000E+00  0.00000000E+00
  0.00000000E+00  0.00000000E+00  0.00000000E+00
  0.00000000E+00  0.00000000E+00  0.00000000E+00
  0.00000000E+00  0.00000000E+00  0.00000000E+00
  0.00000000E+00  0.00000000E+00  0.00000000E+00
  0.00000000E+00  0.00000000E+00  0.00000000E+00
  0.00000000E+00  0.00000000E+00  0.00000000E+00
  0.00000000E+00  0.00000000E+00  0.00000000E+00
  0.00000000E+00  0.00000000E+00  0.00000000E+00
  0.00000000E+00  0.00000000E+00  0.00000000E+00
  0.00000000E+00  0.00000000E+00  0.00000000E+00
  0.00000000E+00  0.00000000E+00  0.00000000E+00
  0.00000000E+00  0.00000000E+00  0.00000000E+00
  0.00000000E+00  0.00000000E+00  0.00000000E+00
  0.00000000E+00  0.00000000E+00  0.00000000E+00
  0.00000000E+00  0.00000000E+00  0.00000000E+00
  0.00000000E+00  0.00000000E+00  0.00000000E+00
  0.00000000E+00  0.00000000E+00  0.00000000E+00
  0.00000000E+00  0.00000000E+00  0.00000000E+00
  0.00000000E+00  0.00000000E+00  0.00000000E+00
  0.00000000E+00  0.00000000E+00  0.00000000E+00
  0.00000000E+00  0.00000000E+00  0.00000000E+00
  0.00000000E+00  0.00000000E+00  0.00000000E+00
  0.00000000E+00  0.00000000E+00  0.00000000E+00
  0.00000000E+00  0.00000000E+00  0.00000000E+00
  0.00000000E+00  0.00000000E+00  0.00000000E+00
  0.00000000E+00  0.00000000E+00  0.00000000E+00
  0.00000000E+00  0.00000000E+00  0.00000000E+00
  0.00000000E+00  0.00000000E+00  0.00000000E+00
  0.00000000E+00  0.00000000E+00  0.00000000E+00
  0.00000000E+00  0.00000000E+00  0.00000000E+00
  0.00000000E+00  0.00000000E+00  0.00000000E+00
  0.00000000E+00  0.00000000E+00  0.00000000E+00
  0.00000000E+00  0.00000000E+00  0.00000000E+00
  0.00000000E+00  0.00000000E+00  0.00000000E+00
  0.00000000E+00  0.00000000E+00  0.00000000E+00
  0.00000000E+00  0.00000000E+00  0.00000000E+00
  0.00000000E+00  0.00000000E+00  0.00000000E+00
  0.00000000E+00  0.00000000E+00  0.00000000E+00
  0.00000000E+00  0.00000000E+00  0.00000000E+00
  0.00000000E+00  0.00000000E+00  0.00000000E+00
  0.00000000E+00  0.00000000E+00  0.00000000E+00
  0.00000000E+00  0.00000000E+00  0.00000000E+00
  0.00000000E+00  0.00000000E+00  0.00000000E+00
  0.00000000E+00  0.00000000E+00  0.00000000E+00
  0.00000000E+00  0.00000000E+00  0.00000000E+00
  0.00000000E+00  0.00000000E+00  0.00000000E+00
  0.00000000E+00  0.00000000E+00  0.00000000E+00
  0.00000000E+00  0.00000000E+00  0.00000000E+00
  0.00000000E+00  0.00000000E+00  0.00000000E+00
  0.00000000E+00  0.00000000E+00  0.00000000E+00
  0.00000000E+00  0.00000000E+00  0.00000000E+00
  0.00000000E+00  0.00000000E+00  0.00000000E+00
  0.00000000E+00  0.00000000E+00  0.00000000E+00
  0.00000000E+00  0.00000000E+00  0.00000000E+00
  0.00000000E+00  0.00000000E+00  0.00000000E+00
  0.00000000E+00  0.00000000E+00  0.00000000E+00
  0.00000000E+00  0.00000000E+00  0.00000000E+00
  0.00000000E+00  0.00000000E+00  0.00000000E+00
  0.00000000E+00  0.00000000E+00  0.00000000E+00
  0.00000000E+00  0.00000000E+00  0.00000000E+00
  0.00000000E+00  0.00000000E+00  0.00000000E+00
  0.00000000E+00  0.00000000E+00  0.00000000E+00
  0.00000000E+00  0.00000000E+00  0.00000000E+00
  0.00000000E+00  0.00000000E+00  0.00000000E+00
  0.00000000E+00  0.00000000E+00  0.00000000E+00
  0.00000000E+00  0.00000000E+00  0.00000000E+00
  0.00000000E+00  0.00000000E+00  0.00000000E+00
  0.00000000E+00  0.00000000E+00  0.00000000E+00
  0.00000000E+00  0.00000000E+00  0.00000000E+00
  0.00000000E+00  0.00000000E+00  0.00000000E+00
  0.00000000E+00  0.00000000E+00  0.00000000E+00
  0.00000000E+00  0.00000000E+00  0.00000000E+00
  0.00000000E+00  0.00000000E+00  0.00000000E+00
  0.00000000E+00  0.00000000E+00  0.00000000E+00
  0.00000000E+00  0.00000000E+00  0.00000000E+00
  0.00000000E+00  0.00000000E+00  0.00000000E+00
  0.00000000E+00  0.00000000E+00  0.00000000E+00
  0.00000000E+00  0.00000000E+00  0.00000000E+00
  0.00000000E+00  0.00000000E+00  0.00000000E+00
  0.00000000E+00  0.00000000E+00  0.00000000E+00
  0.00000000E+00  0.00000000E+00  0.00000000E+00
  0.00000000E+00  0.00000000E+00  0.00000000E+00
  0.00000000E+00  0.00000000E+00  0.00000000E+00
  0.00000000E+00  0.00000000E+00  0.00000000E+00
  0.00000000E+00  0.00000000E+00  0.00000000E+00
  0.00000000E+00  0.00000000E+00  0.00000000E+00
  0.00000000E+00  0.00000000E+00  0.00000000E+00
  0.00000000E+00  0.00000000E+00  0.00000000E+00
  0.00000000E+00  0.00000000E+00  0.00000000E+00
  0.00000000E+00  0.00000000E+00  0.00000000E+00
  0.00000000E+00  0.00000000E+00  0.00000000E+00
  0.00000000E+00  0.00000000E+00  0.00000000E+00
  0.00000000E+00  0.00000000E+00  0.00000000E+00
  0.00000000E+00  0.00000000E+00  0.00000000E+00
  0.00000000E+00  0.00000000E+00  0.00000000E+00
  0.00000000E+00  0.00000000E+00  0.00000000E+00
  0.00000000E+00  0.00000000E+00  0.00000000E+00
  0.00000000E+00  0.00000000E+00  0.00000000E+00
  0.00000000E+00  0.00000000E+00  0.00000000E+00
  0.00000000E+00  0.00000000E+00  0.00000000E+00
  0.00000000E+00  0.00000000E+00  0.00000000E+00
  0.00000000E+00  0.00000000E+00  0.00000000E+00
  0.00000000E+00  0.00000000E+00  0.00000000E+00
  0.00000000E+00  0.00000000E+00  0.00000000E+00
  0.00000000E+00  0.00000000E+00  0.00000000E+00
  0.00000000E+00  0.00000000E+00  0.00000000E+00
  0.00000000E+00  0.00000000E+00  0.00000000E+00
  0.00000000E+00  0.00000000E+00  0.00000000E+00
  0.00000000E+00  0.00000000E+00  0.00000000E+00
  0.00000000E+00  0.00000000E+00  0.00000000E+00
  0.00000000E+00  0.00000000E+00  0.00000000E+00
  0.00000000E+00  0.00000000E+00  0.00000000E+00
  0.00000000E+00  0.00000000E+00  0.00000000E+00
  0.00000000E+00  0.00000000E+00  0.00000000E+00
  0.00000000E+00  0.00000000E+00  0.00000000E+00
  0.00000000E+00  0.00000000E+00  0.00000000E+00
  0.00000000E+00  0.00000000E+00  0.00000000E+00
  0.00000000E+00  0.00000000E+00  0.00000000E+00
  0.00000000E+00  0.00000000E+00  0.00000000E+00
  0.00000000E+00  0.00000000E+00  0.00000000E+00
  0.00000000E+00  0.00000000E+00  0.00000000E+00
  0.00000000E+00  0.00000000E+00  0.00000000E+00
  0.00000000E+00  0.00000000E+00  0.00000000E+00
  0.00000000E+00  0.00000000E+00  0.00000000E+00
  0.00000000E+00  0.00000000E+00  0.00000000E+00
  0.00000000E+00  0.00000000E+00  0.00000000E+00
  0.00000000E+00  0.00000000E+00  0.00000000E+00
  0.00000000E+00  0.00000000E+00  0.00000000E+00
  0.00000000E+00  0.00000000E+00  0.00000000E+00
  0.00000000E+00  0.00000000E+00  0.00000000E+00
  0.00000000E+00  0.00000000E+00  0.00000000E+00
  0.00000000E+00  0.00000000E+00  0.00000000E+00
  0.00000000E+00  0.00000000E+00  0.00000000E+00
  0.00000000E+00  0.00000000E+00  0.00000000E+00
  0.00000000E+00  0.00000000E+00  0.00000000E+00
  0.00000000E+00  0.00000000E+00  0.00000000E+00
  0.00000000E+00  0.00000000E+00  0.00000000E+00
  0.00000000E+00  0.00000000E+00  0.00000000E+00
  0.00000000E+00  0.00000000E+00  0.00000000E+00
  0.00000000E+00  0.00000000E+00  0.00000000E+00
  0.00000000E+00  0.00000000E+00  0.00000000E+00
  0.00000000E+00  0.00000000E+00  0.00000000E+00
  0.00000000E+00  0.00000000E+00  0.00000000E+00
  0.00000000E+00  0.00000000E+00  0.00000000E+00
  0.00000000E+00  0.00000000E+00  0.00000000E+00
  0.00000000E+00  0.00000000E+00  0.00000000E+00
  0.00000000E+00  0.00000000E+00  0.00000000E+00
  0.00000000E+00  0.00000000E+00  0.00000000E+00
  0.00000000E+00  0.00000000E+00  0.00000000E+00
  0.00000000E+00  0.00000000E+00  0.00000000E+00
  0.00000000E+00  0.00000000E+00  0.00000000E+00
  0.00000000E+00  0.00000000E+00  0.00000000E+00
  0.00000000E+00  0.00000000E+00  0.00000000E+00
  0.00000000E+00  0.00000000E+00  0.00000000E+00
  0.00000000E+00  0.00000000E+00  0.00000000E+00
  0.00000000E+00  0.00000000E+00  0.00000000E+00
  0.00000000E+00  0.00000000E+00  0.00000000E+00
  0.00000000E+00  0.00000000E+00  0.00000000E+00
  0.00000000E+00  0.00000000E+00  0.00000000E+00
  0.00000000E+00  0.00000000E+00  0.00000000E+00
  0.00000000E+00  0.00000000E+00  0.00000000E+00
  0.00000000E+00  0.00000000E+00  0.00000000E+00
  0.00000000E+00  0.00000000E+00  0.00000000E+00
  0.00000000E+00  0.00000000E+00  0.00000000E+00
  0.00000000E+00  0.00000000E+00  0.00000000E+00
  0.00000000E+00  0.00000000E+00  0.00000000E+00
  0.00000000E+00  0.00000000E+00  0.00000000E+00
  0.00000000E+00  0.00000000E+00  0.00000000E+00
  0.00000000E+00  0.00000000E+00  0.00000000E+00
  0.00000000E+00  0.00000000E+00  0.00000000E+00
  0.00000000E+00  0.00000000E+00  0.00000000E+00
  0.00000000E+00  0.00000000E+00  0.00000000E+00
  0.00000000E+00  0.00000000E+00  0.00000000E+00
  0.00000000E+00  0.00000000E+00  0.00000000E+00
  0.00000000E+00  0.00000000E+00  0.00000000E+00
  0.00000000E+00  0.00000000E+00  0.00000000E+00
  0.00000000E+00  0.00000000E+00  0.00000000E+00
  0.00000000E+00  0.00000000E+00  0.00000000E+00
  0.00000000E+00  0.00000000E+00  0.00000000E+00
  0.00000000E+00  0.00000000E+00  0.00000000E+00
  0.00000000E+00  0.00000000E+00  0.00000000E+00
  0.00000000E+00  0.00000000E+00  0.00000000E+00
  0.00000000E+00  0.00000000E+00  0.00000000E+00
  0.00000000E+00  0.00000000E+00  0.00000000E+00
  0.00000000E+00  0.00000000E+00  0.00000000E+00
  0.00000000E+00  0.00000000E+00  0.00000000E+00
  0.00000000E+00  0.00000000E+00  0.00000000E+00
  0.00000000E+00  0.00000000E+00  0.00000000E+00
  0.00000000E+00  0.00000000E+00  0.00000000E+00
  0.00000000E+00  0.00000000E+00  0.00000000E+00
  0.00000000E+00  0.00000000E+00  0.00000000E+00
  0.00000000E+00  0.00000000E+00  0.00000000E+00
  0.00000000E+00  0.00000000E+00  0.00000000E+00
  0.00000000E+00  0.00000000E+00  0.00000000E+00
  0.00000000E+00  0.00000000E+00  0.00000000E+00
  0.00000000E+00  0.00000000E+00  0.00000000E+00
  0.00000000E+00  0.00000000E+00  0.00000000E+00
  0.00000000E+00  0.00000000E+00  0.00000000E+00
  0.00000000E+00  0.00000000E+00  0.00000000E+00
  0.00000000E+00  0.00000000E+00  0.00000000E+00
  0.00000000E+00  0.00000000E+00  0.00000000E+00
  0.00000000E+00  0.00000000E+00  0.00000000E+00
  0.00000000E+00  0.00000000E+00  0.00000000E+00
  0.00000000E+00  0.00000000E+00  0.00000000E+00
  0.00000000E+00  0.00000000E+00  0.00000000E+00
  0.00000000E+00  0.00000000E+00  0.00000000E+00
  0.00000000E+00  0.00000000E+00  0.00000000E+00
  0.00000000E+00  0.00000000E+00  0.00000000E+00
  0.00000000E+00  0.00000000E+00  0.00000000E+00
  0.00000000E+00  0.00000000E+00  0.00000000E+00
  0.00000000E+00  0.00000000E+00  0.00000000E+00
  0.00000000E+00  0.00000000E+00  0.00000000E+00
  0.00000000E+00  0.00000000E+00  0.00000000E+00
  0.00000000E+00  0.00000000E+00  0.00000000E+00
  0.00000000E+00  0.00000000E+00  0.00000000E+00
  0.00000000E+00  0.00000000E+00  0.00000000E+00
  0.00000000E+00  0.00000000E+00  0.00000000E+00
  0.00000000E+00  0.00000000E+00  0.00000000E+00
  0.00000000E+00  0.00000000E+00  0.00000000E+00
  0.00000000E+00  0.00000000E+00  0.00000000E+00
  0.00000000E+00  0.00000000E+00  0.00000000E+00
  0.00000000E+00  0.00000000E+00  0.00000000E+00
  0.00000000E+00  0.00000000E+00  0.00000000E+00
  0.00000000E+00  0.00000000E+00  0.00000000E+00
  0.00000000E+00  0.00000000E+00  0.00000000E+00
  0.00000000E+00  0.00000000E+00  0.00000000E+00
  0.00000000E+00  0.00000000E+00  0.00000000E+00
  0.00000000E+00  0.00000000E+00  0.00000000E+00
  0.00000000E+00  0.00000000E+00  0.00000000E+00
  0.00000000E+00  0.00000000E+00  0.00000000E+00
  0.00000000E+00  0.00000000E+00  0.00000000E+00
  0.00000000E+00  0.00000000E+00  0.00000000E+00
  0.00000000E+00  0.00000000E+00  0.00000000E+00
  0.00000000E+00  0.00000000E+00  0.00000000E+00
  0.00000000E+00  0.00000000E+00  0.00000000E+00
  0.00000000E+00  0.00000000E+00  0.00000000E+00
  0.00000000E+00  0.00000000E+00  0.00000000E+00
  0.00000000E+00  0.00000000E+00  0.00000000E+00
  0.00000000E+00  0.00000000E+00  0.00000000E+00
  0.00000000E+00  0.00000000E+00  0.00000000E+00
  0.00000000E+00  0.00000000E+00  0.00000000E+00
  0.00000000E+00  0.00000000E+00  0.00000000E+00
  0.00000000E+00  0.00000000E+00  0.00000000E+00
  0.00000000E+00  0.00000000E+00  0.00000000E+00
  0.00000000E+00  0.00000000E+00  0.00000000E+00
  0.00000000E+00  0.00000000E+00  0.00000000E+00
  0.00000000E+00  0.00000000E+00  0.00000000E+00
  0.00000000E+00  0.00000000E+00  0.00000000E+00
  0.00000000E+00  0.00000000E+00  0.00000000E+00
  0.00000000E+00  0.00000000E+00  0.00000000E+00
  0.00000000E+00  0.00000000E+00  0.00000000E+00
  0.00000000E+00  0.00000000E+00  0.00000000E+00
  0.00000000E+00  0.00000000E+00  0.00000000E+00
  0.00000000E+00  0.00000000E+00  0.00000000E+00
  0.00000000E+00  0.00000000E+00  0.00000000E+00
  0.00000000E+00  0.00000000E+00  0.00000000E+00
  0.00000000E+00  0.00000000E+00  0.00000000E+00
  0.00000000E+00  0.00000000E+00  0.00000000E+00
  0.00000000E+00  0.00000000E+00  0.00000000E+00
  0.00000000E+00  0.00000000E+00  0.00000000E+00
  0.00000000E+00  0.00000000E+00  0.00000000E+00
  0.00000000E+00  0.00000000E+00  0.00000000E+00
  0.00000000E+00  0.00000000E+00  0.00000000E+00
  0.00000000E+00  0.00000000E+00  0.00000000E+00
  0.00000000E+00  0.00000000E+00  0.00000000E+00
  0.00000000E+00  0.00000000E+00  0.00000000E+00
  0.00000000E+00  0.00000000E+00  0.00000000E+00
  0.00000000E+00  0.00000000E+00  0.00000000E+00
  0.00000000E+00  0.00000000E+00  0.00000000E+00
  0.00000000E+00  0.00000000E+00  0.00000000E+00
  0.00000000E+00  0.00000000E+00  0.00000000E+00
  0.00000000E+00  0.00000000E+00  0.00000000E+00
  0.00000000E+00  0.00000000E+00  0.00000000E+00
  0.00000000E+00  0.00000000E+00  0.00000000E+00
  0.00000000E+00  0.00000000E+00  0.00000000E+00
  0.00000000E+00  0.00000000E+00  0.00000000E+00
  0.00000000E+00  0.00000000E+00  0.00000000E+00
  0.00000000E+00  0.00000000E+00  0.00000000E+00
  0.00000000E+00  0.00000000E+00  0.00000000E+00
  0.00000000E+00  0.00000000E+00  0.00000000E+00
  0.00000000E+00  0.00000000E+00  0.00000000E+00
  0.00000000E+00  0.00000000E+00  0.00000000E+00
  0.00000000E+00  0.00000000E+00  0.00000000E+00
  0.00000000E+00  0.00000000E+00  0.00000000E+00
  0.00000000E+00  0.00000000E+00  0.00000000E+00
  0.00000000E+00  0.00000000E+00  0.00000000E+00
  0.00000000E+00  0.00000000E+00  0.00000000E+00
  0.00000000E+00  0.00000000E+00  0.00000000E+00
  0.00000000E+00  0.00000000E+00  0.00000000E+00
  0.00000000E+00  0.00000000E+00  0.00000000E+00
  0.00000000E+00  0.00000000E+00  0.00000000E+00
  0.00000000E+00  0.00000000E+00  0.00000000E+00
  0.00000000E+00  0.00000000E+00  0.00000000E+00
  0.00000000E+00  0.00000000E+00  0.00000000E+00
  0.00000000E+00  0.00000000E+00  0.00000000E+00
  0.00000000E+00  0.00000000E+00  0.00000000E+00
  0.00000000E+00  0.00000000E+00  0.00000000E+00
  0.00000000E+00  0.00000000E+00  0.00000000E+00
  0.00000000E+00  0.00000000E+00  0.00000000E+00
  0.00000000E+00  0.00000000E+00  0.00000000E+00
  0.00000000E+00  0.00000000E+00  0.00000000E+00
  0.00000000E+00  0.00000000E+00  0.00000000E+00
  0.00000000E+00  0.00000000E+00  0.00000000E+00
  0.00000000E+00  0.00000000E+00  0.00000000E+00
  0.00000000E+00  0.00000000E+00  0.00000000E+00
  0.00000000E+00  0.00000000E+00  0.00000000E+00
  0.00000000E+00  0.00000000E+00  0.00000000E+00
  0.00000000E+00  0.00000000E+00  0.00000000E+00
  0.00000000E+00  0.00000000E+00  0.00000000E+00
  0.00000000E+00  0.00000000E+00  0.00000000E+00
  0.00000000E+00  0.00000000E+00  0.00000000E+00
  0.00000000E+00  0.00000000E+00  0.00000000E+00
  0.00000000E+00  0.00000000E+00  0.00000000E+00
  0.00000000E+00  0.00000000E+00  0.00000000E+00
  0.00000000E+00  0.00000000E+00  0.00000000E+00
  0.00000000E+00  0.00000000E+00  0.00000000E+00
  0.00000000E+00  0.00000000E+00  0.00000000E+00
  0.00000000E+00  0.00000000E+00  0.00000000E+00
  0.00000000E+00  0.00000000E+00  0.00000000E+00
  0.00000000E+00  0.00000000E+00  0.00000000E+00
  0.00000000E+00  0.00000000E+00  0.00000000E+00
  0.00000000E+00  0.00000000E+00  0.00000000E+00
  0.00000000E+00  0.00000000E+00  0.00000000E+00
  0.00000000E+00  0.00000000E+00  0.00000000E+00
  0.00000000E+00  0.00000000E+00  0.00000000E+00
  0.00000000E+00  0.00000000E+00  0.00000000E+00
  0.00000000E+00  0.00000000E+00  0.00000000E+00
  0.00000000E+00  0.00000000E+00  0.00000000E+00
  0.00000000E+00  0.00000000E+00  0.00000000E+00
  0.00000000E+00  0.00000000E+00  0.00000000E+00
  0.00000000E+00  0.00000000E+00  0.00000000E+00
  0.00000000E+00  0.00000000E+00  0.00000000E+00
  0.00000000E+00  0.00000000E+00  0.00000000E+00
  0.00000000E+00  0.00000000E+00  0.00000000E+00
  0.00000000E+00  0.00000000E+00  0.00000000E+00
  0.00000000E+00  0.00000000E+00  0.00000000E+00
  0.00000000E+00  0.00000000E+00  0.00000000E+00
  0.00000000E+00  0.00000000E+00  0.00000000E+00
  0.00000000E+00  0.00000000E+00  0.00000000E+00
  0.00000000E+00  0.00000000E+00  0.00000000E+00
  0.00000000E+00  0.00000000E+00  0.00000000E+00
  0.00000000E+00  0.00000000E+00  0.00000000E+00
  0.00000000E+00  0.00000000E+00  0.00000000E+00
  0.00000000E+00  0.00000000E+00  0.00000000E+00
  0.00000000E+00  0.00000000E+00  0.00000000E+00
  0.00000000E+00  0.00000000E+00  0.00000000E+00
  0.00000000E+00  0.00000000E+00  0.00000000E+00
  0.00000000E+00  0.00000000E+00  0.00000000E+00
  0.00000000E+00  0.00000000E+00  0.00000000E+00
  0.00000000E+00  0.00000000E+00  0.00000000E+00
  0.00000000E+00  0.00000000E+00  0.00000000E+00
  0.00000000E+00  0.00000000E+00  0.00000000E+00
  0.00000000E+00  0.00000000E+00  0.00000000E+00
  0.00000000E+00  0.00000000E+00  0.00000000E+00
  0.00000000E+00  0.00000000E+00  0.00000000E+00
  0.00000000E+00  0.00000000E+00  0.00000000E+00
  0.00000000E+00  0.00000000E+00  0.00000000E+00
  0.00000000E+00  0.00000000E+00  0.00000000E+00
  0.00000000E+00  0.00000000E+00  0.00000000E+00
  0.00000000E+00  0.00000000E+00  0.00000000E+00
  0.00000000E+00  0.00000000E+00  0.00000000E+00
  0.00000000E+00  0.00000000E+00  0.00000000E+00
  0.00000000E+00  0.00000000E+00  0.00000000E+00
  0.00000000E+00  0.00000000E+00  0.00000000E+00
  0.00000000E+00  0.00000000E+00  0.00000000E+00
  0.00000000E+00  0.00000000E+00  0.00000000E+00
  0.00000000E+00  0.00000000E+00  0.00000000E+00
  0.00000000E+00  0.00000000E+00  0.00000000E+00
  0.00000000E+00  0.00000000E+00  0.00000000E+00
  0.00000000E+00  0.00000000E+00  0.00000000E+00
  0.00000000E+00  0.00000000E+00  0.00000000E+00
  0.00000000E+00  0.00000000E+00  0.00000000E+00
  0.00000000E+00  0.00000000E+00  0.00000000E+00
  0.00000000E+00  0.00000000E+00  0.00000000E+00
  0.00000000E+00  0.00000000E+00  0.00000000E+00
  0.00000000E+00  0.00000000E+00  0.00000000E+00
  0.00000000E+00  0.00000000E+00  0.00000000E+00
  0.00000000E+00  0.00000000E+00  0.00000000E+00
  0.00000000E+00  0.00000000E+00  0.00000000E+00
  0.00000000E+00  0.00000000E+00  0.00000000E+00
  0.00000000E+00  0.00000000E+00  0.00000000E+00
  0.00000000E+00  0.00000000E+00  0.00000000E+00
  0.00000000E+00  0.00000000E+00  0.00000000E+00
  0.00000000E+00  0.00000000E+00  0.00000000E+00
  0.00000000E+00  0.00000000E+00  0.00000000E+00
  0.00000000E+00  0.00000000E+00  0.00000000E+00
  0.00000000E+00  0.00000000E+00  0.00000000E+00
  0.00000000E+00  0.00000000E+00  0.00000000E+00
  0.00000000E+00  0.00000000E+00  0.00000000E+00
  0.00000000E+00  0.00000000E+00  0.00000000E+00
  0.00000000E+00  0.00000000E+00  0.00000000E+00
  0.00000000E+00  0.00000000E+00  0.00000000E+00
  0.00000000E+00  0.00000000E+00  0.00000000E+00
  0.00000000E+00  0.00000000E+00  0.00000000E+00
