# Amorphous model
1.000000
14.1784857634560133  0.0000000000000000  0.0000000000000000
 0.0000000000000000 14.1784857634560133  0.0000000000000000
 0.0000000000000000  0.0000000000000000 14.1784857634560133
C H
72 146
Cartesian
 2.5890630507702035 11.5035811111815605  1.8815862918779747
 0.9117590540292433  7.2032738763435553  5.2542388886254070
 4.6726661575715873 10.0563014486976137  6.5895818268931041
13.8890159139808489 11.2749272798314024  4.5983813843012697
 0.1517155311349185 10.0734028001535592  0.2483345851096619
10.0069714767701043  8.9884779687532124  5.8052227604775108
 8.9608809179015552 11.8808854615803767  1.4554205171677914
 1.0876363977126946  7.4345750733565019  6.7787697366852431
 2.4140309108320785 13.8784281488896539  0.8591681656333670
 7.0150860886821107 13.8913357031350237  7.8404869502838146
 1.1209940726661785 11.2602537649494181  3.9619566042448522
 5.1074788740200141 10.2566190235346220  5.1145091421139650
 4.8171803032464329  9.0351017560266165  4.2122325999383001
 3.0932769536201583 12.9733326930163493  1.9223665605317581
10.5441328873717239 10.9284803665067152  8.2859387953180494
 7.3278634253250665  7.9836964045545926  9.8464006272022537
 0.4684357213265837 10.0118871865307177  1.7846970952470596
 5.8818803706317642 13.8862764188859273  5.5106768196124118
14.0337529138874686  8.6366084812923951 13.8714975118417279
 1.1235689625296601 11.2986293325484972  2.3990484914883901
 0.9976326465973315  8.0630995879609486 12.9667595517690231
 0.2326071580592952  7.8219932266850876  9.8025544832287643
 5.0568392720351785  8.8264403985434825  8.8161420586881789
 9.4295576018240403  4.4929590399579329  9.5626616265370394
13.0609979442753001  5.7178536586023974 10.5220321709994273
 7.9433378803139369  7.0083442808805216  3.0984196836201559
10.9432557683410927  4.4222399056977117  9.8738345941921395
13.6997195078807543  7.0726584096377323 10.9859577479256103
10.7002236229019339  0.3783228636329508 12.2765757426370605
13.5491676850222369  6.3248599886955379  3.3928442578123494
13.6961275654831951  6.6236808982514148  4.8970741479579853
 8.8563397827205534  3.1105169063293676  9.1802175031110522
 4.9523639670950566  7.2186284812771859 10.8236609082695061
 0.2203899197607697  8.5982514236703906  7.3470783456773923
10.6869526113217326  8.5673764870663867  7.1358470231350921
 5.8022203636000516  7.6798380157086861  9.5806530121512452
 8.6378139886654175  8.2034566907979354  3.7833568124926735
 7.6603633264111828  9.8953819690866389  0.4227405835793725
 5.5349777384554475  9.0160213850487381  7.3517909134630770
 9.2945548363014296  7.7980477771809227  5.1231604189463980
 2.3020750775292314  7.7594025317224151 13.7750237498052535
 7.6116042484858184 11.1320148592431600  1.3572176691352134
 9.1063929731226239  9.8378504699575053 10.1807819917798419
 6.3045663147899909  5.7819755086143871 12.5428488488636916
11.5269945520131962  5.7952603280646304 10.2867695161348962
 6.7429572142024270  0.4910253219296674  6.5274259089154896
 3.4913210687619767  6.3751941337933964  1.4121325604677075
 4.6980384834071618  3.3599211034326419  8.3432080906551178
12.4534903687622638  9.2752823847942061  8.9524252533057975
11.8116457613811470 12.2508826484605926 12.2299588132187260
13.5137031794795739  8.1788147164368787  8.5677288746407463
13.0436377847813887 11.3826525002609991 12.5879587469508856
 3.5361849297289432  2.9809534685098811  7.3891368772349288
 3.0396208536549807  4.1628806357229635  6.5289998006741374
 2.3905219318328061  1.9934592665482409 13.8884866300383258
 4.7127073192105637  4.9131805396594821  3.1302341461466643
 7.7190375828293405  9.2735091055666494 10.6684955307462275
 3.0657974836519166  1.1014826091023409  0.7763282133190188
 7.9153549407483013 12.6463636112530864  7.6356458280119561
13.1519644869530410 11.0492560477095978 14.1047841189541927
11.8841232585067260 13.6989542632667565 12.7744424199863289
 0.5273265049845506  6.8064759565581650 12.1606437297469512
 7.7740055376685930  8.9864513571715250 12.2022284088984598
 7.8094112335017591 10.2550449612182675 13.0996227324804160
 2.2020973376982802  6.5597342819818749  0.5788840810123830
 4.3135336691318162  4.4053268646876003  9.4215644809040597
 8.3110202015541219 11.9876404197236397  8.9857976591375923
 5.2169646352389289  5.7921779990421385 11.4389284052300120
 9.0940014973466532 10.6367798694163014  8.8333930766475390
 5.4917034207990092  4.6675284413843521 10.3969406165298182
 3.4231433948139625  5.1171986875839206  2.3110183686865753
11.4598029528281664  9.7363236542184879  7.8264228901661816
13.2862102845378587 11.9897731862891348  0.4697790510722921
12.2079941599816415 10.6170522680814869  0.2832624423069685
 7.9017504879605482  8.9971115372366803  3.9613666202220710
 8.4855577882448543  9.2385274794107950  0.7274881588481765
11.8810965143940273 13.6894965145457270 13.8713376749870214
13.6800555546144551  7.2403667759179093  2.8043143171844775
 9.7641857585082228 11.2000924641686375  1.7642465906827685
12.9828583124165000 10.4577769912668863 12.0023549599755519
13.5617731536802744  5.3568371634136902  9.6143552031899979
 7.3863961059465950 11.8359321513238775  9.5506696263036943
13.2356812187624939  4.9418425921216027 11.2780571989508047
 9.9494243338933366  8.1369395935987328  7.8226877378906003
 7.3009705072121420  5.9944780380177285 12.1409008523416126
 9.4006155577117596  2.6830685423873355  8.3286373135946228
 8.5592082636244946 10.0373299017243269  8.0937512234135021
 8.9104173542795806 12.6930341649206326  9.5765330754384586
 8.9305230659156756  2.4119323128565551 10.0233564785660221
 8.8915654178155528  4.8779771286688831 10.4381119343087079
11.0331159240686532  6.1359104192515677 11.2062397095318005
10.6935164936415141  0.4390644184747341 11.1805890952055620
12.8947332014180205  7.7061619610721728 11.3708132632725238
 8.7476933599713398 10.7987885667505878 12.9505875050405450
13.7073647902928499  9.7835929456299979  2.3006540546192245
13.3585443840273506 10.3307992672515603  4.4274137348420517
 8.5282693815304107  7.3969937948188154  5.7995607249139631
13.8200659642915475  7.9448264435083509  0.5154084312596812
 9.2381763351217110 12.3314576116212393  0.4948247257224327
12.0911775411084150 10.1825591345722408  7.0499736301172540
 8.8112420482508682 12.9535295400216732  7.0843095068485802
 8.6342109497383035  8.3431187239539355 12.4316559464754093
11.4755387245036573  4.0505241446527549  8.9885529106111903
 7.8000209470573587  8.0468011638916934  8.8597641291948008
 7.8033984752177794  7.1084860882721408 10.3011446595297720
10.9017783176040659 11.7627667127455062 12.5995811695133924
11.0877169141888814 11.5419327506145990  9.0145833433599378
11.8789046126570668  8.9178155336941991  9.8089227394489917
12.9971819526699726 10.1586003420117095  9.3117416405306663
 9.5515632039829192 10.4874411291424501 10.9413330375575200
 9.7776239439802453  8.9788212642407252 10.0952798627295621
11.7249159394098079 12.2907351384910015 11.1374444492337368
10.7675117611599518  9.3916028800139166  5.1236751769828270
 8.8957328898486345 12.6868767075139672  2.1973562209008630
 7.3207928936624640 10.8024745205277348  2.3626982859250134
12.9098777707613195  7.3296740994525891  5.1868943460095220
12.9851306525395351  7.2700010399967887  8.2660625141200228
 9.2812818553224901  9.7919993034080619  5.9774258031910303
13.9577096137614554 11.8929500966787778 12.2580727778936875
 9.3986121795066353  8.6155856633512258  3.1076879362328373
 7.3901609230123277 11.9094183894593151  7.0151524415230320
13.2837622542685914 12.0942326357282290  4.1912883147201736
13.0985520489729907  8.6571744710132918 13.3036435323921758
13.7676563670867580  8.9748351097555989  6.5384418917445402
11.3790580921855593  7.7547022962978218  6.8959052731857984
10.4460061923817342 11.5704108369044718  7.4041820989987706
12.8254401142813812 14.1660559647479118 12.4572173764329648
13.9653152047063536 11.4181194312832694  5.6831571753994456
 7.4434757710144055  7.3260239635679447  2.1752760082038183
 3.2546458250588568  4.2317586019019497  1.6863876893729763
 6.5811081347022959  9.3376188916720864  7.3340955562192853
11.1154232495224470  3.6969591989337829 10.6800552637864996
 5.0529484438661605  2.4476909619924054  8.8401161220854227
 6.4005916899531687  4.9037111307592607  9.8315067529058915
 6.3480069870114679  4.7990324650756939 13.0298577552164083
 2.4360581909245891  1.5216613211303702 12.8986903919571994
 0.8509443613233358  6.4965362756321312  7.2953479512202541
 6.0762043924651401  6.5167512324659285 13.3237550619436895
 2.6985651817969654  2.5718824185747149  7.9686320946241018
 4.2888432716912295  5.5140685737858668 11.9561961752296781
 5.5394191973343023  3.7423825670363762  7.7507592079434744
 2.8941153243667372  2.9661192163192691 13.8225779951808079
 3.4443463627266251  4.0482677665584141  9.9889318893609200
 1.3361318812829666  2.1692649874676242 14.1372549563867196
 6.8295700480406509 11.8248290846869857  1.0195116778347870
 3.2663576773450611 10.8791580701766009  2.4765195568392464
 5.1099075162964240  9.2484436347342793  3.1764042016246954
 5.3782020973194520  8.1530572962696972  4.5409986540435394
 2.9512075429912237 13.4006123340690309  2.9226492019669372
 6.1775929440677064 10.4959513883916564  5.0743108314398473
 5.7047438648703643  3.7318905774044460 10.9311055974486955
 2.7023421929490947 11.1439833813379998  0.8541500960659665
 1.4043643911045525  6.2882024136848038 11.7509045348569892
 5.7967642064338563  6.8415403534241435  8.8762632680321758
 4.6575857234988511  3.9798352417831975  3.7042812938752299
 3.8727890449761020  4.6400608524682312  5.9995153667264720
 2.5685941770969691  5.1937051094020887  2.9945906167180230
 4.1315458604261401  0.9976030716362025  0.5339194217054164
 3.0062236396588045  1.5967147641552035  1.7543972421584293
 0.1134450999199430  5.5871481936466019  3.0647132433063113
 5.5890056501406828  4.8564183278685213  2.4721953676350736
 1.6870117795513391  6.5051347685548340  4.9141700290364501
 2.5510968144580008  4.9180229112414349  7.1532770888659520
 6.2320461376540912  1.4291262990057980  6.7720740688391263
 4.3518172480336599  6.2910237833865548  0.7376885701396265
 1.3598904492058050  6.7023080001709818  1.2634350145799207
 5.6443068164645691  0.3385287920203481  4.6447859630157211
 3.8742334353803827  2.1789072004548888  6.7204922611640416
 2.3112917567266482  3.8183370931059653  5.7843160600157901
 2.0086627088676021  5.6370918701459196  0.0175513824643261
 4.0137354629656254  5.3400480133757871  8.9338131732426547
 0.0677624035473041  6.1105524500093651 12.8742587938775195
 4.8596301298663160  5.7410293161830275  3.8346142331378026
 7.8002770225995945  3.1923008928201444  8.8974702735257836
 1.3481909578617728 13.9943286174537640  1.0909576612491954
 4.1759474310678204 12.9667445761459099  1.7394779385656598
 3.9866745014044618  8.5858287893179153  8.7735635534554177
 4.7419010321226995 11.0207860042932779  7.1090918370041081
 0.6791504190140092  8.7549837938905704 10.1644234403397959
 4.9789736633236039  7.9854561432180056 11.6045280179287680
 6.9449274417817968 10.0282230087598130 10.5226106804014599
 6.8846390634763512  8.4271374104413219 12.4900206488694003
 3.9009981011296624  7.2026901117552242 10.5087923837527093
 1.0775243150777989  7.2013449249649426  9.4795682778203485
 2.4774042164083099 13.3941907808085681 14.0547549755283683
12.5511930645286185  5.9222828062658177  3.1780781856864877
 7.6955540316913016  0.7709949538859586  6.0602653411472573
13.5232637503317541  5.7005733131783565  5.4652275135845567
 7.1893375765855687  6.5676135755039695  3.7611909502790386
10.0202995393968877  6.9940173377668877  4.9440483171706475
 9.2548018165121313  5.1987798669211553  8.7400278019329001
11.2927565685775271  6.5334364761892143  9.5118415435514514
 7.5021346444295887  0.3916714361244242  8.5524629899754316
10.7716327658996960  1.3990009903105332 12.6728425932729429
 8.6719433475078560  6.2289357083294199  2.8425976579675041
 4.9365255105953985 13.5627912316648356  5.9643134291355260
 0.8708496266319408  9.4357100250122130  7.6317258050573287
 5.1247643394363074  9.7739501418356340  9.3624583793657514
 1.6689583211434300 10.3780158835721785  4.3148535044951295
 2.6145154297429194  8.6554595196947481  0.1464326477018414
 4.5763329971111570 11.1255964838922132  4.7060805714345442
 3.7480666656921677  8.7875461590014083  4.2194681894173236
 1.0772702897553721  8.1418060889487016  4.7117482688488899
 1.1350120429730097  9.1648910847746983  1.9893697304167102
 1.6674630045408403 12.1304020435535769  4.3454837282923240
 6.7347387170504280  9.3218507589302817  0.5619462317991548
 6.9946187881151829 10.9300732404209668 12.8079745073638591
 3.6559803227954362  7.2652446183179400  2.0329574220339293
 2.1444690179903123  7.6423389147338838  6.9898620158071054
 6.4134003849096182 13.0008528208296923  5.1422807488828592
 3.6160622972744569  9.7592092746160866  6.6192989112771912
 5.4884851867353763  8.0495853567110771  6.8355962234268510
 6.0624864218457066 13.5905633127729502  8.2958117052936871
 1.2661347068031787  8.8446669265576006 12.2479486535585309
 1.0287514853107425 10.4645566737301294 13.9009219261858661
 3.1101442007998426  7.5530505605903855 13.0635889407669197
 0.5219346299968119 12.1632542252463871  2.1036121351023063
 9.7441643904946815 14.1284370685681786 12.6037661367812781
