POSCAR
 1.000000
   34.8772471953781604    1.7170054631812537  -11.5111359929197583
   -0.0000000007211760   42.0842233595814292  -10.4078869900422646
   -0.0000000004590171    0.0000000005824929   43.3446835062860458
   C    H 
  1944  3942
Direct
    0.9685997069512298    0.2554107451362423    0.2193309067652685     C001
    0.9685997069512298    0.2554107451362423    0.5526642400986018     C002
    0.9685997069512298    0.2554107451362423    0.8859975734319352     C003
    0.9685997069512298    0.5887440784695755    0.2193309067652685     C004
    0.9685997069512298    0.5887440784695755    0.5526642400986018     C005
    0.9685997069512298    0.5887440784695755    0.8859975734319352     C006
    0.9685997069512298    0.9220774118029088    0.2193309067652685     C007
    0.9685997069512298    0.9220774118029088    0.5526642400986018     C008
    0.9685997069512298    0.9220774118029088    0.8859975734319352     C009
    0.3019330402845631    0.2554107451362423    0.2193309067652685     C010
    0.3019330402845631    0.2554107451362423    0.5526642400986018     C011
    0.3019330402845631    0.2554107451362423    0.8859975734319352     C012
    0.3019330402845631    0.5887440784695755    0.2193309067652685     C013
    0.3019330402845631    0.5887440784695755    0.5526642400986018     C014
    0.3019330402845631    0.5887440784695755    0.8859975734319352     C015
    0.3019330402845631    0.9220774118029088    0.2193309067652685     C016
    0.3019330402845631    0.9220774118029088    0.5526642400986018     C017
    0.3019330402845631    0.9220774118029088    0.8859975734319352     C018
    0.6352663736178965    0.2554107451362423    0.2193309067652685     C019
    0.6352663736178965    0.2554107451362423    0.5526642400986018     C020
    0.6352663736178965    0.2554107451362423    0.8859975734319352     C021
    0.6352663736178965    0.5887440784695755    0.2193309067652685     C022
    0.6352663736178965    0.5887440784695755    0.5526642400986018     C023
    0.6352663736178965    0.5887440784695755    0.8859975734319352     C024
    0.6352663736178965    0.9220774118029088    0.2193309067652685     C025
    0.6352663736178965    0.9220774118029088    0.5526642400986018     C026
    0.6352663736178965    0.9220774118029088    0.8859975734319352     C027
    0.8814725483261285    0.1690098912330219    0.2944778892214619     C028
    0.8814725483261285    0.1690098912330219    0.6278112225547953     C029
    0.8814725483261285    0.1690098912330219    0.9611445558881286     C030
    0.8814725483261285    0.5023432245663553    0.2944778892214619     C031
    0.8814725483261285    0.5023432245663553    0.6278112225547953     C032
    0.8814725483261285    0.5023432245663553    0.9611445558881286     C033
    0.8814725483261285    0.8356765578996886    0.2944778892214619     C034
    0.8814725483261285    0.8356765578996886    0.6278112225547953     C035
    0.8814725483261285    0.8356765578996886    0.9611445558881286     C036
    0.2148058816594618    0.1690098912330219    0.2944778892214619     C037
    0.2148058816594618    0.1690098912330219    0.6278112225547953     C038
    0.2148058816594618    0.1690098912330219    0.9611445558881286     C039
    0.2148058816594618    0.5023432245663553    0.2944778892214619     C040
    0.2148058816594618    0.5023432245663553    0.6278112225547953     C041
    0.2148058816594618    0.5023432245663553    0.9611445558881286     C042
    0.2148058816594618    0.8356765578996886    0.2944778892214619     C043
    0.2148058816594618    0.8356765578996886    0.6278112225547953     C044
    0.2148058816594618    0.8356765578996886    0.9611445558881286     C045
    0.5481392149927951    0.1690098912330219    0.2944778892214619     C046
    0.5481392149927951    0.1690098912330219    0.6278112225547953     C047
    0.5481392149927951    0.1690098912330219    0.9611445558881286     C048
    0.5481392149927951    0.5023432245663553    0.2944778892214619     C049
    0.5481392149927951    0.5023432245663553    0.6278112225547953     C050
    0.5481392149927951    0.5023432245663553    0.9611445558881286     C051
    0.5481392149927951    0.8356765578996886    0.2944778892214619     C052
    0.5481392149927951    0.8356765578996886    0.6278112225547953     C053
    0.5481392149927951    0.8356765578996886    0.9611445558881286     C054
    0.9528601959302678    0.3154471862611110    0.3613736715924063     C055
    0.9528601959302678    0.3154471862611110    0.6947070049257396     C056
    0.9528601959302678    0.3154471862611110    0.0280403382590729     C057
    0.9528601959302678    0.6487805195944443    0.3613736715924063     C058
    0.9528601959302678    0.6487805195944443    0.6947070049257396     C059
    0.9528601959302678    0.6487805195944443    0.0280403382590729     C060
    0.9528601959302678    0.9821138529277775    0.3613736715924063     C061
    0.9528601959302678    0.9821138529277775    0.6947070049257396     C062
    0.9528601959302678    0.9821138529277775    0.0280403382590729     C063
    0.2861935292636012    0.3154471862611110    0.3613736715924063     C064
    0.2861935292636012    0.3154471862611110    0.6947070049257396     C065
    0.2861935292636012    0.3154471862611110    0.0280403382590729     C066
    0.2861935292636012    0.6487805195944443    0.3613736715924063     C067
    0.2861935292636012    0.6487805195944443    0.6947070049257396     C068
    0.2861935292636012    0.6487805195944443    0.0280403382590729     C069
    0.2861935292636012    0.9821138529277775    0.3613736715924063     C070
    0.2861935292636012    0.9821138529277775    0.6947070049257396     C071
    0.2861935292636012    0.9821138529277775    0.0280403382590729     C072
    0.6195268625969346    0.3154471862611110    0.3613736715924063     C073
    0.6195268625969346    0.3154471862611110    0.6947070049257396     C074
    0.6195268625969346    0.3154471862611110    0.0280403382590729     C075
    0.6195268625969346    0.6487805195944443    0.3613736715924063     C076
    0.6195268625969346    0.6487805195944443    0.6947070049257396     C077
    0.6195268625969346    0.6487805195944443    0.0280403382590729     C078
    0.6195268625969346    0.9821138529277775    0.3613736715924063     C079
    0.6195268625969346    0.9821138529277775    0.6947070049257396     C080
    0.6195268625969346    0.9821138529277775    0.0280403382590729     C081
    0.2906935979978024    0.3133851723355665    0.2623820014664677     C082
    0.2906935979978024    0.3133851723355665    0.5957153347998010     C083
    0.2906935979978024    0.3133851723355665    0.9290486681331344     C084
    0.2906935979978024    0.6467185056688999    0.2623820014664677     C085
    0.2906935979978024    0.6467185056688999    0.5957153347998010     C086
    0.2906935979978024    0.6467185056688999    0.9290486681331344     C087
    0.2906935979978024    0.9800518390022331    0.2623820014664677     C088
    0.2906935979978024    0.9800518390022331    0.5957153347998010     C089
    0.2906935979978024    0.9800518390022331    0.9290486681331344     C090
    0.6240269313311357    0.3133851723355665    0.2623820014664677     C091
    0.6240269313311357    0.3133851723355665    0.5957153347998010     C092
    0.6240269313311357    0.3133851723355665    0.9290486681331344     C093
    0.6240269313311357    0.6467185056688999    0.2623820014664677     C094
    0.6240269313311357    0.6467185056688999    0.5957153347998010     C095
    0.6240269313311357    0.6467185056688999    0.9290486681331344     C096
    0.6240269313311357    0.9800518390022331    0.2623820014664677     C097
    0.6240269313311357    0.9800518390022331    0.5957153347998010     C098
    0.6240269313311357    0.9800518390022331    0.9290486681331344     C099
    0.9573602646644690    0.3133851723355665    0.2623820014664677     C100
    0.9573602646644690    0.3133851723355665    0.5957153347998010     C101
    0.9573602646644690    0.3133851723355665    0.9290486681331344     C102
    0.9573602646644690    0.6467185056688999    0.2623820014664677     C103
    0.9573602646644690    0.6467185056688999    0.5957153347998010     C104
    0.9573602646644690    0.6467185056688999    0.9290486681331344     C105
    0.9573602646644690    0.9800518390022331    0.2623820014664677     C106
    0.9573602646644690    0.9800518390022331    0.5957153347998010     C107
    0.9573602646644690    0.9800518390022331    0.9290486681331344     C108
    0.9464774831583538    0.3001294338965991    0.1438576460688465     C109
    0.9464774831583538    0.3001294338965991    0.4771909794021799     C110
    0.9464774831583538    0.3001294338965991    0.8105243127355132     C111
    0.9464774831583538    0.6334627672299324    0.1438576460688465     C112
    0.9464774831583538    0.6334627672299324    0.4771909794021799     C113
    0.9464774831583538    0.6334627672299324    0.8105243127355132     C114
    0.9464774831583538    0.9667961005632657    0.1438576460688465     C115
    0.9464774831583538    0.9667961005632657    0.4771909794021799     C116
    0.9464774831583538    0.9667961005632657    0.8105243127355132     C117
    0.2798108164916870    0.3001294338965991    0.1438576460688465     C118
    0.2798108164916870    0.3001294338965991    0.4771909794021799     C119
    0.2798108164916870    0.3001294338965991    0.8105243127355132     C120
    0.2798108164916870    0.6334627672299324    0.1438576460688465     C121
    0.2798108164916870    0.6334627672299324    0.4771909794021799     C122
    0.2798108164916870    0.6334627672299324    0.8105243127355132     C123
    0.2798108164916870    0.9667961005632657    0.1438576460688465     C124
    0.2798108164916870    0.9667961005632657    0.4771909794021799     C125
    0.2798108164916870    0.9667961005632657    0.8105243127355132     C126
    0.6131441498250203    0.3001294338965991    0.1438576460688465     C127
    0.6131441498250203    0.3001294338965991    0.4771909794021799     C128
    0.6131441498250203    0.3001294338965991    0.8105243127355132     C129
    0.6131441498250203    0.6334627672299324    0.1438576460688465     C130
    0.6131441498250203    0.6334627672299324    0.4771909794021799     C131
    0.6131441498250203    0.6334627672299324    0.8105243127355132     C132
    0.6131441498250203    0.9667961005632657    0.1438576460688465     C133
    0.6131441498250203    0.9667961005632657    0.4771909794021799     C134
    0.6131441498250203    0.9667961005632657    0.8105243127355132     C135
    0.1531463955746449    0.3113525518015052    0.2712391288119671     C136
    0.1531463955746449    0.3113525518015052    0.6045724621453004     C137
    0.1531463955746449    0.3113525518015052    0.9379057954786337     C138
    0.1531463955746449    0.6446858851348387    0.2712391288119671     C139
    0.1531463955746449    0.6446858851348387    0.6045724621453004     C140
    0.1531463955746449    0.6446858851348387    0.9379057954786337     C141
    0.1531463955746449    0.9780192184681720    0.2712391288119671     C142
    0.1531463955746449    0.9780192184681720    0.6045724621453004     C143
    0.1531463955746449    0.9780192184681720    0.9379057954786337     C144
    0.4864797289079783    0.3113525518015052    0.2712391288119671     C145
    0.4864797289079783    0.3113525518015052    0.6045724621453004     C146
    0.4864797289079783    0.3113525518015052    0.9379057954786337     C147
    0.4864797289079783    0.6446858851348387    0.2712391288119671     C148
    0.4864797289079783    0.6446858851348387    0.6045724621453004     C149
    0.4864797289079783    0.6446858851348387    0.9379057954786337     C150
    0.4864797289079783    0.9780192184681720    0.2712391288119671     C151
    0.4864797289079783    0.9780192184681720    0.6045724621453004     C152
    0.4864797289079783    0.9780192184681720    0.9379057954786337     C153
    0.8198130622413116    0.3113525518015052    0.2712391288119671     C154
    0.8198130622413116    0.3113525518015052    0.6045724621453004     C155
    0.8198130622413116    0.3113525518015052    0.9379057954786337     C156
    0.8198130622413116    0.6446858851348387    0.2712391288119671     C157
    0.8198130622413116    0.6446858851348387    0.6045724621453004     C158
    0.8198130622413116    0.6446858851348387    0.9379057954786337     C159
    0.8198130622413116    0.9780192184681720    0.2712391288119671     C160
    0.8198130622413116    0.9780192184681720    0.6045724621453004     C161
    0.8198130622413116    0.9780192184681720    0.9379057954786337     C162
    0.0817345929168543    0.4123309993060150    0.1804568171582810     C163
    0.0817345929168543    0.4123309993060150    0.5137901504916143     C164
    0.0817345929168543    0.4123309993060150    0.8471234838249476     C165
    0.0817345929168543    0.7456643326393484    0.1804568171582810     C166
    0.0817345929168543    0.7456643326393484    0.5137901504916143     C167
    0.0817345929168543    0.7456643326393484    0.8471234838249476     C168
    0.0817345929168543    0.0789976659726817    0.1804568171582810     C169
    0.0817345929168543    0.0789976659726817    0.5137901504916143     C170
    0.0817345929168543    0.0789976659726817    0.8471234838249476     C171
    0.4150679262501876    0.4123309993060150    0.1804568171582810     C172
    0.4150679262501876    0.4123309993060150    0.5137901504916143     C173
    0.4150679262501876    0.4123309993060150    0.8471234838249476     C174
    0.4150679262501876    0.7456643326393484    0.1804568171582810     C175
    0.4150679262501876    0.7456643326393484    0.5137901504916143     C176
    0.4150679262501876    0.7456643326393484    0.8471234838249476     C177
    0.4150679262501876    0.0789976659726817    0.1804568171582810     C178
    0.4150679262501876    0.0789976659726817    0.5137901504916143     C179
    0.4150679262501876    0.0789976659726817    0.8471234838249476     C180
    0.7484012595835210    0.4123309993060150    0.1804568171582810     C181
    0.7484012595835210    0.4123309993060150    0.5137901504916143     C182
    0.7484012595835210    0.4123309993060150    0.8471234838249476     C183
    0.7484012595835210    0.7456643326393484    0.1804568171582810     C184
    0.7484012595835210    0.7456643326393484    0.5137901504916143     C185
    0.7484012595835210    0.7456643326393484    0.8471234838249476     C186
    0.7484012595835210    0.0789976659726817    0.1804568171582810     C187
    0.7484012595835210    0.0789976659726817    0.5137901504916143     C188
    0.7484012595835210    0.0789976659726817    0.8471234838249476     C189
    0.8699331323756232    0.2033638995153136    0.3069090247688381     C190
    0.8699331323756232    0.2033638995153136    0.6402423581021714     C191
    0.8699331323756232    0.2033638995153136    0.9735756914355047     C192
    0.8699331323756232    0.5366972328486470    0.3069090247688381     C193
    0.8699331323756232    0.5366972328486470    0.6402423581021714     C194
    0.8699331323756232    0.5366972328486470    0.9735756914355047     C195
    0.8699331323756232    0.8700305661819803    0.3069090247688381     C196
    0.8699331323756232    0.8700305661819803    0.6402423581021714     C197
    0.8699331323756232    0.8700305661819803    0.9735756914355047     C198
    0.2032664657089565    0.2033638995153136    0.3069090247688381     C199
    0.2032664657089565    0.2033638995153136    0.6402423581021714     C200
    0.2032664657089565    0.2033638995153136    0.9735756914355047     C201
    0.2032664657089565    0.5366972328486470    0.3069090247688381     C202
    0.2032664657089565    0.5366972328486470    0.6402423581021714     C203
    0.2032664657089565    0.5366972328486470    0.9735756914355047     C204
    0.2032664657089565    0.8700305661819803    0.3069090247688381     C205
    0.2032664657089565    0.8700305661819803    0.6402423581021714     C206
    0.2032664657089565    0.8700305661819803    0.9735756914355047     C207
    0.5365997990422898    0.2033638995153136    0.3069090247688381     C208
    0.5365997990422898    0.2033638995153136    0.6402423581021714     C209
    0.5365997990422898    0.2033638995153136    0.9735756914355047     C210
    0.5365997990422898    0.5366972328486470    0.3069090247688381     C211
    0.5365997990422898    0.5366972328486470    0.6402423581021714     C212
    0.5365997990422898    0.5366972328486470    0.9735756914355047     C213
    0.5365997990422898    0.8700305661819803    0.3069090247688381     C214
    0.5365997990422898    0.8700305661819803    0.6402423581021714     C215
    0.5365997990422898    0.8700305661819803    0.9735756914355047     C216
    0.0312668145672047    0.2425407830186764    0.2073124694200705     C217
    0.0312668145672047    0.2425407830186764    0.5406458027534038     C218
    0.0312668145672047    0.2425407830186764    0.8739791360867371     C219
    0.0312668145672047    0.5758741163520098    0.2073124694200705     C220
    0.0312668145672047    0.5758741163520098    0.5406458027534038     C221
    0.0312668145672047    0.5758741163520098    0.8739791360867371     C222
    0.0312668145672047    0.9092074496853431    0.2073124694200705     C223
    0.0312668145672047    0.9092074496853431    0.5406458027534038     C224
    0.0312668145672047    0.9092074496853431    0.8739791360867371     C225
    0.3646001479005380    0.2425407830186764    0.2073124694200705     C226
    0.3646001479005380    0.2425407830186764    0.5406458027534038     C227
    0.3646001479005380    0.2425407830186764    0.8739791360867371     C228
    0.3646001479005380    0.5758741163520098    0.2073124694200705     C229
    0.3646001479005380    0.5758741163520098    0.5406458027534038     C230
    0.3646001479005380    0.5758741163520098    0.8739791360867371     C231
    0.3646001479005380    0.9092074496853431    0.2073124694200705     C232
    0.3646001479005380    0.9092074496853431    0.5406458027534038     C233
    0.3646001479005380    0.9092074496853431    0.8739791360867371     C234
    0.6979334812338713    0.2425407830186764    0.2073124694200705     C235
    0.6979334812338713    0.2425407830186764    0.5406458027534038     C236
    0.6979334812338713    0.2425407830186764    0.8739791360867371     C237
    0.6979334812338713    0.5758741163520098    0.2073124694200705     C238
    0.6979334812338713    0.5758741163520098    0.5406458027534038     C239
    0.6979334812338713    0.5758741163520098    0.8739791360867371     C240
    0.6979334812338713    0.9092074496853431    0.2073124694200705     C241
    0.6979334812338713    0.9092074496853431    0.5406458027534038     C242
    0.6979334812338713    0.9092074496853431    0.8739791360867371     C243
    0.1844192124654945    0.4077250264945271    0.4044836905565002     C244
    0.1844192124654945    0.4077250264945271    0.7378170238898336     C245
    0.1844192124654945    0.4077250264945271    0.0711503572231669     C246
    0.1844192124654945    0.7410583598278604    0.4044836905565002     C247
    0.1844192124654945    0.7410583598278604    0.7378170238898336     C248
    0.1844192124654945    0.7410583598278604    0.0711503572231669     C249
    0.1844192124654945    0.0743916931611937    0.4044836905565002     C250
    0.1844192124654945    0.0743916931611937    0.7378170238898336     C251
    0.1844192124654945    0.0743916931611937    0.0711503572231669     C252
    0.5177525457988279    0.4077250264945271    0.4044836905565002     C253
    0.5177525457988279    0.4077250264945271    0.7378170238898336     C254
    0.5177525457988279    0.4077250264945271    0.0711503572231669     C255
    0.5177525457988279    0.7410583598278604    0.4044836905565002     C256
    0.5177525457988279    0.7410583598278604    0.7378170238898336     C257
    0.5177525457988279    0.7410583598278604    0.0711503572231669     C258
    0.5177525457988279    0.0743916931611937    0.4044836905565002     C259
    0.5177525457988279    0.0743916931611937    0.7378170238898336     C260
    0.5177525457988279    0.0743916931611937    0.0711503572231669     C261
    0.8510858791321612    0.4077250264945271    0.4044836905565002     C262
    0.8510858791321612    0.4077250264945271    0.7378170238898336     C263
    0.8510858791321612    0.4077250264945271    0.0711503572231669     C264
    0.8510858791321612    0.7410583598278604    0.4044836905565002     C265
    0.8510858791321612    0.7410583598278604    0.7378170238898336     C266
    0.8510858791321612    0.7410583598278604    0.0711503572231669     C267
    0.8510858791321612    0.0743916931611937    0.4044836905565002     C268
    0.8510858791321612    0.0743916931611937    0.7378170238898336     C269
    0.8510858791321612    0.0743916931611937    0.0711503572231669     C270
    0.9394583833309142    0.3094559209402709    0.2242233158212181     C271
    0.9394583833309142    0.3094559209402709    0.5575566491545514     C272
    0.9394583833309142    0.3094559209402709    0.8908899824878848     C273
    0.9394583833309142    0.6427892542736042    0.2242233158212181     C274
    0.9394583833309142    0.6427892542736042    0.5575566491545514     C275
    0.9394583833309142    0.6427892542736042    0.8908899824878848     C276
    0.9394583833309142    0.9761225876069375    0.2242233158212181     C277
    0.9394583833309142    0.9761225876069375    0.5575566491545514     C278
    0.9394583833309142    0.9761225876069375    0.8908899824878848     C279
    0.2727917166642475    0.3094559209402709    0.2242233158212181     C280
    0.2727917166642475    0.3094559209402709    0.5575566491545514     C281
    0.2727917166642475    0.3094559209402709    0.8908899824878848     C282
    0.2727917166642475    0.6427892542736042    0.2242233158212181     C283
    0.2727917166642475    0.6427892542736042    0.5575566491545514     C284
    0.2727917166642475    0.6427892542736042    0.8908899824878848     C285
    0.2727917166642475    0.9761225876069375    0.2242233158212181     C286
    0.2727917166642475    0.9761225876069375    0.5575566491545514     C287
    0.2727917166642475    0.9761225876069375    0.8908899824878848     C288
    0.6061250499975808    0.3094559209402709    0.2242233158212181     C289
    0.6061250499975808    0.3094559209402709    0.5575566491545514     C290
    0.6061250499975808    0.3094559209402709    0.8908899824878848     C291
    0.6061250499975808    0.6427892542736042    0.2242233158212181     C292
    0.6061250499975808    0.6427892542736042    0.5575566491545514     C293
    0.6061250499975808    0.6427892542736042    0.8908899824878848     C294
    0.6061250499975808    0.9761225876069375    0.2242233158212181     C295
    0.6061250499975808    0.9761225876069375    0.5575566491545514     C296
    0.6061250499975808    0.9761225876069375    0.8908899824878848     C297
    0.9443312085281912    0.3400683221868384    0.3898187967826140     C298
    0.9443312085281912    0.3400683221868384    0.7231521301159474     C299
    0.9443312085281912    0.3400683221868384    0.0564854634492806     C300
    0.9443312085281912    0.6734016555201716    0.3898187967826140     C301
    0.9443312085281912    0.6734016555201716    0.7231521301159474     C302
    0.9443312085281912    0.6734016555201716    0.0564854634492806     C303
    0.9443312085281912    0.0067349888535049    0.3898187967826140     C304
    0.9443312085281912    0.0067349888535049    0.7231521301159474     C305
    0.9443312085281912    0.0067349888535049    0.0564854634492806     C306
    0.2776645418615246    0.3400683221868384    0.3898187967826140     C307
    0.2776645418615246    0.3400683221868384    0.7231521301159474     C308
    0.2776645418615246    0.3400683221868384    0.0564854634492806     C309
    0.2776645418615246    0.6734016555201716    0.3898187967826140     C310
    0.2776645418615246    0.6734016555201716    0.7231521301159474     C311
    0.2776645418615246    0.6734016555201716    0.0564854634492806     C312
    0.2776645418615246    0.0067349888535049    0.3898187967826140     C313
    0.2776645418615246    0.0067349888535049    0.7231521301159474     C314
    0.2776645418615246    0.0067349888535049    0.0564854634492806     C315
    0.6109978751948579    0.3400683221868384    0.3898187967826140     C316
    0.6109978751948579    0.3400683221868384    0.7231521301159474     C317
    0.6109978751948579    0.3400683221868384    0.0564854634492806     C318
    0.6109978751948579    0.6734016555201716    0.3898187967826140     C319
    0.6109978751948579    0.6734016555201716    0.7231521301159474     C320
    0.6109978751948579    0.6734016555201716    0.0564854634492806     C321
    0.6109978751948579    0.0067349888535049    0.3898187967826140     C322
    0.6109978751948579    0.0067349888535049    0.7231521301159474     C323
    0.6109978751948579    0.0067349888535049    0.0564854634492806     C324
    0.9768634700099819    0.3651004252267528    0.4030588568371628     C325
    0.9768634700099819    0.3651004252267528    0.7363921901704962     C326
    0.9768634700099819    0.3651004252267528    0.0697255235038294     C327
    0.9768634700099819    0.6984337585600862    0.4030588568371628     C328
    0.9768634700099819    0.6984337585600862    0.7363921901704962     C329
    0.9768634700099819    0.6984337585600862    0.0697255235038294     C330
    0.9768634700099819    0.0317670918934194    0.4030588568371628     C331
    0.9768634700099819    0.0317670918934194    0.7363921901704962     C332
    0.9768634700099819    0.0317670918934194    0.0697255235038294     C333
    0.3101968033433152    0.3651004252267528    0.4030588568371628     C334
    0.3101968033433152    0.3651004252267528    0.7363921901704962     C335
    0.3101968033433152    0.3651004252267528    0.0697255235038294     C336
    0.3101968033433152    0.6984337585600862    0.4030588568371628     C337
    0.3101968033433152    0.6984337585600862    0.7363921901704962     C338
    0.3101968033433152    0.6984337585600862    0.0697255235038294     C339
    0.3101968033433152    0.0317670918934194    0.4030588568371628     C340
    0.3101968033433152    0.0317670918934194    0.7363921901704962     C341
    0.3101968033433152    0.0317670918934194    0.0697255235038294     C342
    0.6435301366766486    0.3651004252267528    0.4030588568371628     C343
    0.6435301366766486    0.3651004252267528    0.7363921901704962     C344
    0.6435301366766486    0.3651004252267528    0.0697255235038294     C345
    0.6435301366766486    0.6984337585600862    0.4030588568371628     C346
    0.6435301366766486    0.6984337585600862    0.7363921901704962     C347
    0.6435301366766486    0.6984337585600862    0.0697255235038294     C348
    0.6435301366766486    0.0317670918934194    0.4030588568371628     C349
    0.6435301366766486    0.0317670918934194    0.7363921901704962     C350
    0.6435301366766486    0.0317670918934194    0.0697255235038294     C351
    0.9927183233242505    0.2300759017978188    0.2058574291534165     C352
    0.9927183233242505    0.2300759017978188    0.5391907624867499     C353
    0.9927183233242505    0.2300759017978188    0.8725240958200833     C354
    0.9927183233242505    0.5634092351311522    0.2058574291534165     C355
    0.9927183233242505    0.5634092351311522    0.5391907624867499     C356
    0.9927183233242505    0.5634092351311522    0.8725240958200833     C357
    0.9927183233242505    0.8967425684644854    0.2058574291534165     C358
    0.9927183233242505    0.8967425684644854    0.5391907624867499     C359
    0.9927183233242505    0.8967425684644854    0.8725240958200833     C360
    0.3260516566575837    0.2300759017978188    0.2058574291534165     C361
    0.3260516566575837    0.2300759017978188    0.5391907624867499     C362
    0.3260516566575837    0.2300759017978188    0.8725240958200833     C363
    0.3260516566575837    0.5634092351311522    0.2058574291534165     C364
    0.3260516566575837    0.5634092351311522    0.5391907624867499     C365
    0.3260516566575837    0.5634092351311522    0.8725240958200833     C366
    0.3260516566575837    0.8967425684644854    0.2058574291534165     C367
    0.3260516566575837    0.8967425684644854    0.5391907624867499     C368
    0.3260516566575837    0.8967425684644854    0.8725240958200833     C369
    0.6593849899909171    0.2300759017978188    0.2058574291534165     C370
    0.6593849899909171    0.2300759017978188    0.5391907624867499     C371
    0.6593849899909171    0.2300759017978188    0.8725240958200833     C372
    0.6593849899909171    0.5634092351311522    0.2058574291534165     C373
    0.6593849899909171    0.5634092351311522    0.5391907624867499     C374
    0.6593849899909171    0.5634092351311522    0.8725240958200833     C375
    0.6593849899909171    0.8967425684644854    0.2058574291534165     C376
    0.6593849899909171    0.8967425684644854    0.5391907624867499     C377
    0.6593849899909171    0.8967425684644854    0.8725240958200833     C378
    0.1302411274795404    0.3144347382882121    0.3350886290776269     C379
    0.1302411274795404    0.3144347382882121    0.6684219624109603     C380
    0.1302411274795404    0.3144347382882121    0.0017552957442936     C381
    0.1302411274795404    0.6477680716215455    0.3350886290776269     C382
    0.1302411274795404    0.6477680716215455    0.6684219624109603     C383
    0.1302411274795404    0.6477680716215455    0.0017552957442936     C384
    0.1302411274795404    0.9811014049548787    0.3350886290776269     C385
    0.1302411274795404    0.9811014049548787    0.6684219624109603     C386
    0.1302411274795404    0.9811014049548787    0.0017552957442936     C387
    0.4635744608128738    0.3144347382882121    0.3350886290776269     C388
    0.4635744608128738    0.3144347382882121    0.6684219624109603     C389
    0.4635744608128738    0.3144347382882121    0.0017552957442936     C390
    0.4635744608128738    0.6477680716215455    0.3350886290776269     C391
    0.4635744608128738    0.6477680716215455    0.6684219624109603     C392
    0.4635744608128738    0.6477680716215455    0.0017552957442936     C393
    0.4635744608128738    0.9811014049548787    0.3350886290776269     C394
    0.4635744608128738    0.9811014049548787    0.6684219624109603     C395
    0.4635744608128738    0.9811014049548787    0.0017552957442936     C396
    0.7969077941462072    0.3144347382882121    0.3350886290776269     C397
    0.7969077941462072    0.3144347382882121    0.6684219624109603     C398
    0.7969077941462072    0.3144347382882121    0.0017552957442936     C399
    0.7969077941462072    0.6477680716215455    0.3350886290776269     C400
    0.7969077941462072    0.6477680716215455    0.6684219624109603     C401
    0.7969077941462072    0.6477680716215455    0.0017552957442936     C402
    0.7969077941462072    0.9811014049548787    0.3350886290776269     C403
    0.7969077941462072    0.9811014049548787    0.6684219624109603     C404
    0.7969077941462072    0.9811014049548787    0.0017552957442936     C405
    0.0753945052975239    0.2729211994084463    0.3904815079930002     C406
    0.0753945052975239    0.2729211994084463    0.7238148413263334     C407
    0.0753945052975239    0.2729211994084463    0.0571481746596668     C408
    0.0753945052975239    0.6062545327417797    0.3904815079930002     C409
    0.0753945052975239    0.6062545327417797    0.7238148413263334     C410
    0.0753945052975239    0.6062545327417797    0.0571481746596668     C411
    0.0753945052975239    0.9395878660751129    0.3904815079930002     C412
    0.0753945052975239    0.9395878660751129    0.7238148413263334     C413
    0.0753945052975239    0.9395878660751129    0.0571481746596668     C414
    0.4087278386308572    0.2729211994084463    0.3904815079930002     C415
    0.4087278386308572    0.2729211994084463    0.7238148413263334     C416
    0.4087278386308572    0.2729211994084463    0.0571481746596668     C417
    0.4087278386308572    0.6062545327417797    0.3904815079930002     C418
    0.4087278386308572    0.6062545327417797    0.7238148413263334     C419
    0.4087278386308572    0.6062545327417797    0.0571481746596668     C420
    0.4087278386308572    0.9395878660751129    0.3904815079930002     C421
    0.4087278386308572    0.9395878660751129    0.7238148413263334     C422
    0.4087278386308572    0.9395878660751129    0.0571481746596668     C423
    0.7420611719641905    0.2729211994084463    0.3904815079930002     C424
    0.7420611719641905    0.2729211994084463    0.7238148413263334     C425
    0.7420611719641905    0.2729211994084463    0.0571481746596668     C426
    0.7420611719641905    0.6062545327417797    0.3904815079930002     C427
    0.7420611719641905    0.6062545327417797    0.7238148413263334     C428
    0.7420611719641905    0.6062545327417797    0.0571481746596668     C429
    0.7420611719641905    0.9395878660751129    0.3904815079930002     C430
    0.7420611719641905    0.9395878660751129    0.7238148413263334     C431
    0.7420611719641905    0.9395878660751129    0.0571481746596668     C432
    0.9343525198966245    0.2777363642869295    0.1629443139726819     C433
    0.9343525198966245    0.2777363642869295    0.4962776473060153     C434
    0.9343525198966245    0.2777363642869295    0.8296109806393486     C435
    0.9343525198966245    0.6110696976202630    0.1629443139726819     C436
    0.9343525198966245    0.6110696976202630    0.4962776473060153     C437
    0.9343525198966245    0.6110696976202630    0.8296109806393486     C438
    0.9343525198966245    0.9444030309535962    0.1629443139726819     C439
    0.9343525198966245    0.9444030309535962    0.4962776473060153     C440
    0.9343525198966245    0.9444030309535962    0.8296109806393486     C441
    0.2676858532299577    0.2777363642869295    0.1629443139726819     C442
    0.2676858532299577    0.2777363642869295    0.4962776473060153     C443
    0.2676858532299577    0.2777363642869295    0.8296109806393486     C444
    0.2676858532299577    0.6110696976202630    0.1629443139726819     C445
    0.2676858532299577    0.6110696976202630    0.4962776473060153     C446
    0.2676858532299577    0.6110696976202630    0.8296109806393486     C447
    0.2676858532299577    0.9444030309535962    0.1629443139726819     C448
    0.2676858532299577    0.9444030309535962    0.4962776473060153     C449
    0.2676858532299577    0.9444030309535962    0.8296109806393486     C450
    0.6010191865632910    0.2777363642869295    0.1629443139726819     C451
    0.6010191865632910    0.2777363642869295    0.4962776473060153     C452
    0.6010191865632910    0.2777363642869295    0.8296109806393486     C453
    0.6010191865632910    0.6110696976202630    0.1629443139726819     C454
    0.6010191865632910    0.6110696976202630    0.4962776473060153     C455
    0.6010191865632910    0.6110696976202630    0.8296109806393486     C456
    0.6010191865632910    0.9444030309535962    0.1629443139726819     C457
    0.6010191865632910    0.9444030309535962    0.4962776473060153     C458
    0.6010191865632910    0.9444030309535962    0.8296109806393486     C459
    0.1835295740566103    0.4506284919444909    0.4556858026562491     C460
    0.1835295740566103    0.4506284919444909    0.7890191359895824     C461
    0.1835295740566103    0.4506284919444909    0.1223524693229157     C462
    0.1835295740566103    0.7839618252778243    0.4556858026562491     C463
    0.1835295740566103    0.7839618252778243    0.7890191359895824     C464
    0.1835295740566103    0.7839618252778243    0.1223524693229157     C465
    0.1835295740566103    0.1172951586111576    0.4556858026562491     C466
    0.1835295740566103    0.1172951586111576    0.7890191359895824     C467
    0.1835295740566103    0.1172951586111576    0.1223524693229157     C468
    0.5168629073899437    0.4506284919444909    0.4556858026562491     C469
    0.5168629073899437    0.4506284919444909    0.7890191359895824     C470
    0.5168629073899437    0.4506284919444909    0.1223524693229157     C471
    0.5168629073899437    0.7839618252778243    0.4556858026562491     C472
    0.5168629073899437    0.7839618252778243    0.7890191359895824     C473
    0.5168629073899437    0.7839618252778243    0.1223524693229157     C474
    0.5168629073899437    0.1172951586111576    0.4556858026562491     C475
    0.5168629073899437    0.1172951586111576    0.7890191359895824     C476
    0.5168629073899437    0.1172951586111576    0.1223524693229157     C477
    0.8501962407232769    0.4506284919444909    0.4556858026562491     C478
    0.8501962407232769    0.4506284919444909    0.7890191359895824     C479
    0.8501962407232769    0.4506284919444909    0.1223524693229157     C480
    0.8501962407232769    0.7839618252778243    0.4556858026562491     C481
    0.8501962407232769    0.7839618252778243    0.7890191359895824     C482
    0.8501962407232769    0.7839618252778243    0.1223524693229157     C483
    0.8501962407232769    0.1172951586111576    0.4556858026562491     C484
    0.8501962407232769    0.1172951586111576    0.7890191359895824     C485
    0.8501962407232769    0.1172951586111576    0.1223524693229157     C486
    0.2646075888995324    0.2871457022782037    0.4366725729811499     C487
    0.2646075888995324    0.2871457022782037    0.7700059063144833     C488
    0.2646075888995324    0.2871457022782037    0.1033392396478165     C489
    0.2646075888995324    0.6204790356115371    0.4366725729811499     C490
    0.2646075888995324    0.6204790356115371    0.7700059063144833     C491
    0.2646075888995324    0.6204790356115371    0.1033392396478165     C492
    0.2646075888995324    0.9538123689448704    0.4366725729811499     C493
    0.2646075888995324    0.9538123689448704    0.7700059063144833     C494
    0.2646075888995324    0.9538123689448704    0.1033392396478165     C495
    0.5979409222328658    0.2871457022782037    0.4366725729811499     C496
    0.5979409222328658    0.2871457022782037    0.7700059063144833     C497
    0.5979409222328658    0.2871457022782037    0.1033392396478165     C498
    0.5979409222328658    0.6204790356115371    0.4366725729811499     C499
    0.5979409222328658    0.6204790356115371    0.7700059063144833     C500
    0.5979409222328658    0.6204790356115371    0.1033392396478165     C501
    0.5979409222328658    0.9538123689448704    0.4366725729811499     C502
    0.5979409222328658    0.9538123689448704    0.7700059063144833     C503
    0.5979409222328658    0.9538123689448704    0.1033392396478165     C504
    0.9312742555661990    0.2871457022782037    0.4366725729811499     C505
    0.9312742555661990    0.2871457022782037    0.7700059063144833     C506
    0.9312742555661990    0.2871457022782037    0.1033392396478165     C507
    0.9312742555661990    0.6204790356115371    0.4366725729811499     C508
    0.9312742555661990    0.6204790356115371    0.7700059063144833     C509
    0.9312742555661990    0.6204790356115371    0.1033392396478165     C510
    0.9312742555661990    0.9538123689448704    0.4366725729811499     C511
    0.9312742555661990    0.9538123689448704    0.7700059063144833     C512
    0.9312742555661990    0.9538123689448704    0.1033392396478165     C513
    0.9583258543068538    0.2844352098436282    0.2032950928776972     C514
    0.9583258543068538    0.2844352098436282    0.5366284262110306     C515
    0.9583258543068538    0.2844352098436282    0.8699617595443638     C516
    0.9583258543068538    0.6177685431769615    0.2032950928776972     C517
    0.9583258543068538    0.6177685431769615    0.5366284262110306     C518
    0.9583258543068538    0.6177685431769615    0.8699617595443638     C519
    0.9583258543068538    0.9511018765102948    0.2032950928776972     C520
    0.9583258543068538    0.9511018765102948    0.5366284262110306     C521
    0.9583258543068538    0.9511018765102948    0.8699617595443638     C522
    0.2916591876401871    0.2844352098436282    0.2032950928776972     C523
    0.2916591876401871    0.2844352098436282    0.5366284262110306     C524
    0.2916591876401871    0.2844352098436282    0.8699617595443638     C525
    0.2916591876401871    0.6177685431769615    0.2032950928776972     C526
    0.2916591876401871    0.6177685431769615    0.5366284262110306     C527
    0.2916591876401871    0.6177685431769615    0.8699617595443638     C528
    0.2916591876401871    0.9511018765102948    0.2032950928776972     C529
    0.2916591876401871    0.9511018765102948    0.5366284262110306     C530
    0.2916591876401871    0.9511018765102948    0.8699617595443638     C531
    0.6249925209735205    0.2844352098436282    0.2032950928776972     C532
    0.6249925209735205    0.2844352098436282    0.5366284262110306     C533
    0.6249925209735205    0.2844352098436282    0.8699617595443638     C534
    0.6249925209735205    0.6177685431769615    0.2032950928776972     C535
    0.6249925209735205    0.6177685431769615    0.5366284262110306     C536
    0.6249925209735205    0.6177685431769615    0.8699617595443638     C537
    0.6249925209735205    0.9511018765102948    0.2032950928776972     C538
    0.6249925209735205    0.9511018765102948    0.5366284262110306     C539
    0.6249925209735205    0.9511018765102948    0.8699617595443638     C540
    0.9371112045599834    0.2516854024292193    0.4255917012316388     C541
    0.9371112045599834    0.2516854024292193    0.7589250345649722     C542
    0.9371112045599834    0.2516854024292193    0.0922583678983055     C543
    0.9371112045599834    0.5850187357625527    0.4255917012316388     C544
    0.9371112045599834    0.5850187357625527    0.7589250345649722     C545
    0.9371112045599834    0.5850187357625527    0.0922583678983055     C546
    0.9371112045599834    0.9183520690958860    0.4255917012316388     C547
    0.9371112045599834    0.9183520690958860    0.7589250345649722     C548
    0.9371112045599834    0.9183520690958860    0.0922583678983055     C549
    0.2704445378933167    0.2516854024292193    0.4255917012316388     C550
    0.2704445378933167    0.2516854024292193    0.7589250345649722     C551
    0.2704445378933167    0.2516854024292193    0.0922583678983055     C552
    0.2704445378933167    0.5850187357625527    0.4255917012316388     C553
    0.2704445378933167    0.5850187357625527    0.7589250345649722     C554
    0.2704445378933167    0.5850187357625527    0.0922583678983055     C555
    0.2704445378933167    0.9183520690958860    0.4255917012316388     C556
    0.2704445378933167    0.9183520690958860    0.7589250345649722     C557
    0.2704445378933167    0.9183520690958860    0.0922583678983055     C558
    0.6037778712266501    0.2516854024292193    0.4255917012316388     C559
    0.6037778712266501    0.2516854024292193    0.7589250345649722     C560
    0.6037778712266501    0.2516854024292193    0.0922583678983055     C561
    0.6037778712266501    0.5850187357625527    0.4255917012316388     C562
    0.6037778712266501    0.5850187357625527    0.7589250345649722     C563
    0.6037778712266501    0.5850187357625527    0.0922583678983055     C564
    0.6037778712266501    0.9183520690958860    0.4255917012316388     C565
    0.6037778712266501    0.9183520690958860    0.7589250345649722     C566
    0.6037778712266501    0.9183520690958860    0.0922583678983055     C567
    0.8645981531346831    0.2505166834536690    0.3745927731117491     C568
    0.8645981531346831    0.2505166834536690    0.7079261064450825     C569
    0.8645981531346831    0.2505166834536690    0.0412594397784158     C570
    0.8645981531346831    0.5838500167870024    0.3745927731117491     C571
    0.8645981531346831    0.5838500167870024    0.7079261064450825     C572
    0.8645981531346831    0.5838500167870024    0.0412594397784158     C573
    0.8645981531346831    0.9171833501203357    0.3745927731117491     C574
    0.8645981531346831    0.9171833501203357    0.7079261064450825     C575
    0.8645981531346831    0.9171833501203357    0.0412594397784158     C576
    0.1979314864680164    0.2505166834536690    0.3745927731117491     C577
    0.1979314864680164    0.2505166834536690    0.7079261064450825     C578
    0.1979314864680164    0.2505166834536690    0.0412594397784158     C579
    0.1979314864680164    0.5838500167870024    0.3745927731117491     C580
    0.1979314864680164    0.5838500167870024    0.7079261064450825     C581
    0.1979314864680164    0.5838500167870024    0.0412594397784158     C582
    0.1979314864680164    0.9171833501203357    0.3745927731117491     C583
    0.1979314864680164    0.9171833501203357    0.7079261064450825     C584
    0.1979314864680164    0.9171833501203357    0.0412594397784158     C585
    0.5312648198013498    0.2505166834536690    0.3745927731117491     C586
    0.5312648198013498    0.2505166834536690    0.7079261064450825     C587
    0.5312648198013498    0.2505166834536690    0.0412594397784158     C588
    0.5312648198013498    0.5838500167870024    0.3745927731117491     C589
    0.5312648198013498    0.5838500167870024    0.7079261064450825     C590
    0.5312648198013498    0.5838500167870024    0.0412594397784158     C591
    0.5312648198013498    0.9171833501203357    0.3745927731117491     C592
    0.5312648198013498    0.9171833501203357    0.7079261064450825     C593
    0.5312648198013498    0.9171833501203357    0.0412594397784158     C594
    0.0094224466100001    0.2703624906342892    0.3521397930181936     C595
    0.0094224466100001    0.2703624906342892    0.6854731263515270     C596
    0.0094224466100001    0.2703624906342892    0.0188064596848603     C597
    0.0094224466100001    0.6036958239676227    0.3521397930181936     C598
    0.0094224466100001    0.6036958239676227    0.6854731263515270     C599
    0.0094224466100001    0.6036958239676227    0.0188064596848603     C600
    0.0094224466100001    0.9370291573009559    0.3521397930181936     C601
    0.0094224466100001    0.9370291573009559    0.6854731263515270     C602
    0.0094224466100001    0.9370291573009559    0.0188064596848603     C603
    0.3427557799433334    0.2703624906342892    0.3521397930181936     C604
    0.3427557799433334    0.2703624906342892    0.6854731263515270     C605
    0.3427557799433334    0.2703624906342892    0.0188064596848603     C606
    0.3427557799433334    0.6036958239676227    0.3521397930181936     C607
    0.3427557799433334    0.6036958239676227    0.6854731263515270     C608
    0.3427557799433334    0.6036958239676227    0.0188064596848603     C609
    0.3427557799433334    0.9370291573009559    0.3521397930181936     C610
    0.3427557799433334    0.9370291573009559    0.6854731263515270     C611
    0.3427557799433334    0.9370291573009559    0.0188064596848603     C612
    0.6760891132766667    0.2703624906342892    0.3521397930181936     C613
    0.6760891132766667    0.2703624906342892    0.6854731263515270     C614
    0.6760891132766667    0.2703624906342892    0.0188064596848603     C615
    0.6760891132766667    0.6036958239676227    0.3521397930181936     C616
    0.6760891132766667    0.6036958239676227    0.6854731263515270     C617
    0.6760891132766667    0.6036958239676227    0.0188064596848603     C618
    0.6760891132766667    0.9370291573009559    0.3521397930181936     C619
    0.6760891132766667    0.9370291573009559    0.6854731263515270     C620
    0.6760891132766667    0.9370291573009559    0.0188064596848603     C621
    0.2020055511541476    0.2182738128242344    0.5006640702265844     C622
    0.2020055511541476    0.2182738128242344    0.8339974035599178     C623
    0.2020055511541476    0.2182738128242344    0.1673307368932511     C624
    0.2020055511541476    0.5516071461575678    0.5006640702265844     C625
    0.2020055511541476    0.5516071461575678    0.8339974035599178     C626
    0.2020055511541476    0.5516071461575678    0.1673307368932511     C627
    0.2020055511541476    0.8849404794909010    0.5006640702265844     C628
    0.2020055511541476    0.8849404794909010    0.8339974035599178     C629
    0.2020055511541476    0.8849404794909010    0.1673307368932511     C630
    0.5353388844874809    0.2182738128242344    0.5006640702265844     C631
    0.5353388844874809    0.2182738128242344    0.8339974035599178     C632
    0.5353388844874809    0.2182738128242344    0.1673307368932511     C633
    0.5353388844874809    0.5516071461575678    0.5006640702265844     C634
    0.5353388844874809    0.5516071461575678    0.8339974035599178     C635
    0.5353388844874809    0.5516071461575678    0.1673307368932511     C636
    0.5353388844874809    0.8849404794909010    0.5006640702265844     C637
    0.5353388844874809    0.8849404794909010    0.8339974035599178     C638
    0.5353388844874809    0.8849404794909010    0.1673307368932511     C639
    0.8686722178208142    0.2182738128242344    0.5006640702265844     C640
    0.8686722178208142    0.2182738128242344    0.8339974035599178     C641
    0.8686722178208142    0.2182738128242344    0.1673307368932511     C642
    0.8686722178208142    0.5516071461575678    0.5006640702265844     C643
    0.8686722178208142    0.5516071461575678    0.8339974035599178     C644
    0.8686722178208142    0.5516071461575678    0.1673307368932511     C645
    0.8686722178208142    0.8849404794909010    0.5006640702265844     C646
    0.8686722178208142    0.8849404794909010    0.8339974035599178     C647
    0.8686722178208142    0.8849404794909010    0.1673307368932511     C648
    0.1722443977606932    0.2140507415307209    0.4023767986844962     C649
    0.1722443977606932    0.2140507415307209    0.7357101320178295     C650
    0.1722443977606932    0.2140507415307209    0.0690434653511628     C651
    0.1722443977606932    0.5473840748640542    0.4023767986844962     C652
    0.1722443977606932    0.5473840748640542    0.7357101320178295     C653
    0.1722443977606932    0.5473840748640542    0.0690434653511628     C654
    0.1722443977606932    0.8807174081973874    0.4023767986844962     C655
    0.1722443977606932    0.8807174081973874    0.7357101320178295     C656
    0.1722443977606932    0.8807174081973874    0.0690434653511628     C657
    0.5055777310940266    0.2140507415307209    0.4023767986844962     C658
    0.5055777310940266    0.2140507415307209    0.7357101320178295     C659
    0.5055777310940266    0.2140507415307209    0.0690434653511628     C660
    0.5055777310940266    0.5473840748640542    0.4023767986844962     C661
    0.5055777310940266    0.5473840748640542    0.7357101320178295     C662
    0.5055777310940266    0.5473840748640542    0.0690434653511628     C663
    0.5055777310940266    0.8807174081973874    0.4023767986844962     C664
    0.5055777310940266    0.8807174081973874    0.7357101320178295     C665
    0.5055777310940266    0.8807174081973874    0.0690434653511628     C666
    0.8389110644273600    0.2140507415307209    0.4023767986844962     C667
    0.8389110644273600    0.2140507415307209    0.7357101320178295     C668
    0.8389110644273600    0.2140507415307209    0.0690434653511628     C669
    0.8389110644273600    0.5473840748640542    0.4023767986844962     C670
    0.8389110644273600    0.5473840748640542    0.7357101320178295     C671
    0.8389110644273600    0.5473840748640542    0.0690434653511628     C672
    0.8389110644273600    0.8807174081973874    0.4023767986844962     C673
    0.8389110644273600    0.8807174081973874    0.7357101320178295     C674
    0.8389110644273600    0.8807174081973874    0.0690434653511628     C675
    0.1615824581008265    0.3996916026028130    0.2720765287082302     C676
    0.1615824581008265    0.3996916026028130    0.6054098620415636     C677
    0.1615824581008265    0.3996916026028130    0.9387431953748968     C678
    0.1615824581008265    0.7330249359361463    0.2720765287082302     C679
    0.1615824581008265    0.7330249359361463    0.6054098620415636     C680
    0.1615824581008265    0.7330249359361463    0.9387431953748968     C681
    0.1615824581008265    0.0663582692694796    0.2720765287082302     C682
    0.1615824581008265    0.0663582692694796    0.6054098620415636     C683
    0.1615824581008265    0.0663582692694796    0.9387431953748968     C684
    0.4949157914341598    0.3996916026028130    0.2720765287082302     C685
    0.4949157914341598    0.3996916026028130    0.6054098620415636     C686
    0.4949157914341598    0.3996916026028130    0.9387431953748968     C687
    0.4949157914341598    0.7330249359361463    0.2720765287082302     C688
    0.4949157914341598    0.7330249359361463    0.6054098620415636     C689
    0.4949157914341598    0.7330249359361463    0.9387431953748968     C690
    0.4949157914341598    0.0663582692694796    0.2720765287082302     C691
    0.4949157914341598    0.0663582692694796    0.6054098620415636     C692
    0.4949157914341598    0.0663582692694796    0.9387431953748968     C693
    0.8282491247674931    0.3996916026028130    0.2720765287082302     C694
    0.8282491247674931    0.3996916026028130    0.6054098620415636     C695
    0.8282491247674931    0.3996916026028130    0.9387431953748968     C696
    0.8282491247674931    0.7330249359361463    0.2720765287082302     C697
    0.8282491247674931    0.7330249359361463    0.6054098620415636     C698
    0.8282491247674931    0.7330249359361463    0.9387431953748968     C699
    0.8282491247674931    0.0663582692694796    0.2720765287082302     C700
    0.8282491247674931    0.0663582692694796    0.6054098620415636     C701
    0.8282491247674931    0.0663582692694796    0.9387431953748968     C702
    0.1732448767991472    0.2254545534238788    0.4672108968694197     C703
    0.1732448767991472    0.2254545534238788    0.8005442302027530     C704
    0.1732448767991472    0.2254545534238788    0.1338775635360863     C705
    0.1732448767991472    0.5587878867572121    0.4672108968694197     C706
    0.1732448767991472    0.5587878867572121    0.8005442302027530     C707
    0.1732448767991472    0.5587878867572121    0.1338775635360863     C708
    0.1732448767991472    0.8921212200905455    0.4672108968694197     C709
    0.1732448767991472    0.8921212200905455    0.8005442302027530     C710
    0.1732448767991472    0.8921212200905455    0.1338775635360863     C711
    0.5065782101324806    0.2254545534238788    0.4672108968694197     C712
    0.5065782101324806    0.2254545534238788    0.8005442302027530     C713
    0.5065782101324806    0.2254545534238788    0.1338775635360863     C714
    0.5065782101324806    0.5587878867572121    0.4672108968694197     C715
    0.5065782101324806    0.5587878867572121    0.8005442302027530     C716
    0.5065782101324806    0.5587878867572121    0.1338775635360863     C717
    0.5065782101324806    0.8921212200905455    0.4672108968694197     C718
    0.5065782101324806    0.8921212200905455    0.8005442302027530     C719
    0.5065782101324806    0.8921212200905455    0.1338775635360863     C720
    0.8399115434658140    0.2254545534238788    0.4672108968694197     C721
    0.8399115434658140    0.2254545534238788    0.8005442302027530     C722
    0.8399115434658140    0.2254545534238788    0.1338775635360863     C723
    0.8399115434658140    0.5587878867572121    0.4672108968694197     C724
    0.8399115434658140    0.5587878867572121    0.8005442302027530     C725
    0.8399115434658140    0.5587878867572121    0.1338775635360863     C726
    0.8399115434658140    0.8921212200905455    0.4672108968694197     C727
    0.8399115434658140    0.8921212200905455    0.8005442302027530     C728
    0.8399115434658140    0.8921212200905455    0.1338775635360863     C729
    0.2021900469160814    0.2375269675076923    0.4078662837949079     C730
    0.2021900469160814    0.2375269675076923    0.7411996171282411     C731
    0.2021900469160814    0.2375269675076923    0.0745329504615744     C732
    0.2021900469160814    0.5708603008410256    0.4078662837949079     C733
    0.2021900469160814    0.5708603008410256    0.7411996171282411     C734
    0.2021900469160814    0.5708603008410256    0.0745329504615744     C735
    0.2021900469160814    0.9041936341743589    0.4078662837949079     C736
    0.2021900469160814    0.9041936341743589    0.7411996171282411     C737
    0.2021900469160814    0.9041936341743589    0.0745329504615744     C738
    0.5355233802494148    0.2375269675076923    0.4078662837949079     C739
    0.5355233802494148    0.2375269675076923    0.7411996171282411     C740
    0.5355233802494148    0.2375269675076923    0.0745329504615744     C741
    0.5355233802494148    0.5708603008410256    0.4078662837949079     C742
    0.5355233802494148    0.5708603008410256    0.7411996171282411     C743
    0.5355233802494148    0.5708603008410256    0.0745329504615744     C744
    0.5355233802494148    0.9041936341743589    0.4078662837949079     C745
    0.5355233802494148    0.9041936341743589    0.7411996171282411     C746
    0.5355233802494148    0.9041936341743589    0.0745329504615744     C747
    0.8688567135827481    0.2375269675076923    0.4078662837949079     C748
    0.8688567135827481    0.2375269675076923    0.7411996171282411     C749
    0.8688567135827481    0.2375269675076923    0.0745329504615744     C750
    0.8688567135827481    0.5708603008410256    0.4078662837949079     C751
    0.8688567135827481    0.5708603008410256    0.7411996171282411     C752
    0.8688567135827481    0.5708603008410256    0.0745329504615744     C753
    0.8688567135827481    0.9041936341743589    0.4078662837949079     C754
    0.8688567135827481    0.9041936341743589    0.7411996171282411     C755
    0.8688567135827481    0.9041936341743589    0.0745329504615744     C756
    0.1970876806339072    0.0800955177858846    0.5462337591209916     C757
    0.1970876806339072    0.0800955177858846    0.8795670924543249     C758
    0.1970876806339072    0.0800955177858846    0.2129004257876582     C759
    0.1970876806339072    0.4134288511192179    0.5462337591209916     C760
    0.1970876806339072    0.4134288511192179    0.8795670924543249     C761
    0.1970876806339072    0.4134288511192179    0.2129004257876582     C762
    0.1970876806339072    0.7467621844525513    0.5462337591209916     C763
    0.1970876806339072    0.7467621844525513    0.8795670924543249     C764
    0.1970876806339072    0.7467621844525513    0.2129004257876582     C765
    0.5304210139672407    0.0800955177858846    0.5462337591209916     C766
    0.5304210139672407    0.0800955177858846    0.8795670924543249     C767
    0.5304210139672407    0.0800955177858846    0.2129004257876582     C768
    0.5304210139672407    0.4134288511192179    0.5462337591209916     C769
    0.5304210139672407    0.4134288511192179    0.8795670924543249     C770
    0.5304210139672407    0.4134288511192179    0.2129004257876582     C771
    0.5304210139672407    0.7467621844525513    0.5462337591209916     C772
    0.5304210139672407    0.7467621844525513    0.8795670924543249     C773
    0.5304210139672407    0.7467621844525513    0.2129004257876582     C774
    0.8637543473005740    0.0800955177858846    0.5462337591209916     C775
    0.8637543473005740    0.0800955177858846    0.8795670924543249     C776
    0.8637543473005740    0.0800955177858846    0.2129004257876582     C777
    0.8637543473005740    0.4134288511192179    0.5462337591209916     C778
    0.8637543473005740    0.4134288511192179    0.8795670924543249     C779
    0.8637543473005740    0.4134288511192179    0.2129004257876582     C780
    0.8637543473005740    0.7467621844525513    0.5462337591209916     C781
    0.8637543473005740    0.7467621844525513    0.8795670924543249     C782
    0.8637543473005740    0.7467621844525513    0.2129004257876582     C783
    0.1556315601441809    0.1452004385576489    0.2433968071776833     C784
    0.1556315601441809    0.1452004385576489    0.5767301405110166     C785
    0.1556315601441809    0.1452004385576489    0.9100634738443499     C786
    0.1556315601441809    0.4785337718909822    0.2433968071776833     C787
    0.1556315601441809    0.4785337718909822    0.5767301405110166     C788
    0.1556315601441809    0.4785337718909822    0.9100634738443499     C789
    0.1556315601441809    0.8118671052243156    0.2433968071776833     C790
    0.1556315601441809    0.8118671052243156    0.5767301405110166     C791
    0.1556315601441809    0.8118671052243156    0.9100634738443499     C792
    0.4889648934775142    0.1452004385576489    0.2433968071776833     C793
    0.4889648934775142    0.1452004385576489    0.5767301405110166     C794
    0.4889648934775142    0.1452004385576489    0.9100634738443499     C795
    0.4889648934775142    0.4785337718909822    0.2433968071776833     C796
    0.4889648934775142    0.4785337718909822    0.5767301405110166     C797
    0.4889648934775142    0.4785337718909822    0.9100634738443499     C798
    0.4889648934775142    0.8118671052243156    0.2433968071776833     C799
    0.4889648934775142    0.8118671052243156    0.5767301405110166     C800
    0.4889648934775142    0.8118671052243156    0.9100634738443499     C801
    0.8222982268108475    0.1452004385576489    0.2433968071776833     C802
    0.8222982268108475    0.1452004385576489    0.5767301405110166     C803
    0.8222982268108475    0.1452004385576489    0.9100634738443499     C804
    0.8222982268108475    0.4785337718909822    0.2433968071776833     C805
    0.8222982268108475    0.4785337718909822    0.5767301405110166     C806
    0.8222982268108475    0.4785337718909822    0.9100634738443499     C807
    0.8222982268108475    0.8118671052243156    0.2433968071776833     C808
    0.8222982268108475    0.8118671052243156    0.5767301405110166     C809
    0.8222982268108475    0.8118671052243156    0.9100634738443499     C810
    0.1789215562340858    0.1455527138812042    0.2789435676806366     C811
    0.1789215562340858    0.1455527138812042    0.6122769010139699     C812
    0.1789215562340858    0.1455527138812042    0.9456102343473032     C813
    0.1789215562340858    0.4788860472145375    0.2789435676806366     C814
    0.1789215562340858    0.4788860472145375    0.6122769010139699     C815
    0.1789215562340858    0.4788860472145375    0.9456102343473032     C816
    0.1789215562340858    0.8122193805478708    0.2789435676806366     C817
    0.1789215562340858    0.8122193805478708    0.6122769010139699     C818
    0.1789215562340858    0.8122193805478708    0.9456102343473032     C819
    0.5122548895674192    0.1455527138812042    0.2789435676806366     C820
    0.5122548895674192    0.1455527138812042    0.6122769010139699     C821
    0.5122548895674192    0.1455527138812042    0.9456102343473032     C822
    0.5122548895674192    0.4788860472145375    0.2789435676806366     C823
    0.5122548895674192    0.4788860472145375    0.6122769010139699     C824
    0.5122548895674192    0.4788860472145375    0.9456102343473032     C825
    0.5122548895674192    0.8122193805478708    0.2789435676806366     C826
    0.5122548895674192    0.8122193805478708    0.6122769010139699     C827
    0.5122548895674192    0.8122193805478708    0.9456102343473032     C828
    0.8455882229007524    0.1455527138812042    0.2789435676806366     C829
    0.8455882229007524    0.1455527138812042    0.6122769010139699     C830
    0.8455882229007524    0.1455527138812042    0.9456102343473032     C831
    0.8455882229007524    0.4788860472145375    0.2789435676806366     C832
    0.8455882229007524    0.4788860472145375    0.6122769010139699     C833
    0.8455882229007524    0.4788860472145375    0.9456102343473032     C834
    0.8455882229007524    0.8122193805478708    0.2789435676806366     C835
    0.8455882229007524    0.8122193805478708    0.6122769010139699     C836
    0.8455882229007524    0.8122193805478708    0.9456102343473032     C837
    0.1835279792015416    0.2202222946253924    0.5310115936716484     C838
    0.1835279792015416    0.2202222946253924    0.8643449270049817     C839
    0.1835279792015416    0.2202222946253924    0.1976782603383150     C840
    0.1835279792015416    0.5535556279587257    0.5310115936716484     C841
    0.1835279792015416    0.5535556279587257    0.8643449270049817     C842
    0.1835279792015416    0.5535556279587257    0.1976782603383150     C843
    0.1835279792015416    0.8868889612920590    0.5310115936716484     C844
    0.1835279792015416    0.8868889612920590    0.8643449270049817     C845
    0.1835279792015416    0.8868889612920590    0.1976782603383150     C846
    0.5168613125348749    0.2202222946253924    0.5310115936716484     C847
    0.5168613125348749    0.2202222946253924    0.8643449270049817     C848
    0.5168613125348749    0.2202222946253924    0.1976782603383150     C849
    0.5168613125348749    0.5535556279587257    0.5310115936716484     C850
    0.5168613125348749    0.5535556279587257    0.8643449270049817     C851
    0.5168613125348749    0.5535556279587257    0.1976782603383150     C852
    0.5168613125348749    0.8868889612920590    0.5310115936716484     C853
    0.5168613125348749    0.8868889612920590    0.8643449270049817     C854
    0.5168613125348749    0.8868889612920590    0.1976782603383150     C855
    0.8501946458682083    0.2202222946253924    0.5310115936716484     C856
    0.8501946458682083    0.2202222946253924    0.8643449270049817     C857
    0.8501946458682083    0.2202222946253924    0.1976782603383150     C858
    0.8501946458682083    0.5535556279587257    0.5310115936716484     C859
    0.8501946458682083    0.5535556279587257    0.8643449270049817     C860
    0.8501946458682083    0.5535556279587257    0.1976782603383150     C861
    0.8501946458682083    0.8868889612920590    0.5310115936716484     C862
    0.8501946458682083    0.8868889612920590    0.8643449270049817     C863
    0.8501946458682083    0.8868889612920590    0.1976782603383150     C864
    0.0656436532236953    0.2330194072478622    0.3329871907964825     C865
    0.0656436532236953    0.2330194072478622    0.6663205241298158     C866
    0.0656436532236953    0.2330194072478622    0.9996538574631491     C867
    0.0656436532236953    0.5663527405811956    0.3329871907964825     C868
    0.0656436532236953    0.5663527405811956    0.6663205241298158     C869
    0.0656436532236953    0.5663527405811956    0.9996538574631491     C870
    0.0656436532236953    0.8996860739145289    0.3329871907964825     C871
    0.0656436532236953    0.8996860739145289    0.6663205241298158     C872
    0.0656436532236953    0.8996860739145289    0.9996538574631491     C873
    0.3989769865570286    0.2330194072478622    0.3329871907964825     C874
    0.3989769865570286    0.2330194072478622    0.6663205241298158     C875
    0.3989769865570286    0.2330194072478622    0.9996538574631491     C876
    0.3989769865570286    0.5663527405811956    0.3329871907964825     C877
    0.3989769865570286    0.5663527405811956    0.6663205241298158     C878
    0.3989769865570286    0.5663527405811956    0.9996538574631491     C879
    0.3989769865570286    0.8996860739145289    0.3329871907964825     C880
    0.3989769865570286    0.8996860739145289    0.6663205241298158     C881
    0.3989769865570286    0.8996860739145289    0.9996538574631491     C882
    0.7323103198903620    0.2330194072478622    0.3329871907964825     C883
    0.7323103198903620    0.2330194072478622    0.6663205241298158     C884
    0.7323103198903620    0.2330194072478622    0.9996538574631491     C885
    0.7323103198903620    0.5663527405811956    0.3329871907964825     C886
    0.7323103198903620    0.5663527405811956    0.6663205241298158     C887
    0.7323103198903620    0.5663527405811956    0.9996538574631491     C888
    0.7323103198903620    0.8996860739145289    0.3329871907964825     C889
    0.7323103198903620    0.8996860739145289    0.6663205241298158     C890
    0.7323103198903620    0.8996860739145289    0.9996538574631491     C891
    0.8414499508136399    0.2077441682418288    0.3250167581814913     C892
    0.8414499508136399    0.2077441682418288    0.6583500915148246     C893
    0.8414499508136399    0.2077441682418288    0.9916834248481579     C894
    0.8414499508136399    0.5410775015751622    0.3250167581814913     C895
    0.8414499508136399    0.5410775015751622    0.6583500915148246     C896
    0.8414499508136399    0.5410775015751622    0.9916834248481579     C897
    0.8414499508136399    0.8744108349084956    0.3250167581814913     C898
    0.8414499508136399    0.8744108349084956    0.6583500915148246     C899
    0.8414499508136399    0.8744108349084956    0.9916834248481579     C900
    0.1747832841469732    0.2077441682418288    0.3250167581814913     C901
    0.1747832841469732    0.2077441682418288    0.6583500915148246     C902
    0.1747832841469732    0.2077441682418288    0.9916834248481579     C903
    0.1747832841469732    0.5410775015751622    0.3250167581814913     C904
    0.1747832841469732    0.5410775015751622    0.6583500915148246     C905
    0.1747832841469732    0.5410775015751622    0.9916834248481579     C906
    0.1747832841469732    0.8744108349084956    0.3250167581814913     C907
    0.1747832841469732    0.8744108349084956    0.6583500915148246     C908
    0.1747832841469732    0.8744108349084956    0.9916834248481579     C909
    0.5081166174803065    0.2077441682418288    0.3250167581814913     C910
    0.5081166174803065    0.2077441682418288    0.6583500915148246     C911
    0.5081166174803065    0.2077441682418288    0.9916834248481579     C912
    0.5081166174803065    0.5410775015751622    0.3250167581814913     C913
    0.5081166174803065    0.5410775015751622    0.6583500915148246     C914
    0.5081166174803065    0.5410775015751622    0.9916834248481579     C915
    0.5081166174803065    0.8744108349084956    0.3250167581814913     C916
    0.5081166174803065    0.8744108349084956    0.6583500915148246     C917
    0.5081166174803065    0.8744108349084956    0.9916834248481579     C918
    0.1808678874698317    0.3212276460640474    0.3065425258388399     C919
    0.1808678874698317    0.3212276460640474    0.6398758591721733     C920
    0.1808678874698317    0.3212276460640474    0.9732091925055066     C921
    0.1808678874698317    0.6545609793973807    0.3065425258388399     C922
    0.1808678874698317    0.6545609793973807    0.6398758591721733     C923
    0.1808678874698317    0.6545609793973807    0.9732091925055066     C924
    0.1808678874698317    0.9878943127307139    0.3065425258388399     C925
    0.1808678874698317    0.9878943127307139    0.6398758591721733     C926
    0.1808678874698317    0.9878943127307139    0.9732091925055066     C927
    0.5142012208031650    0.3212276460640474    0.3065425258388399     C928
    0.5142012208031650    0.3212276460640474    0.6398758591721733     C929
    0.5142012208031650    0.3212276460640474    0.9732091925055066     C930
    0.5142012208031650    0.6545609793973807    0.3065425258388399     C931
    0.5142012208031650    0.6545609793973807    0.6398758591721733     C932
    0.5142012208031650    0.6545609793973807    0.9732091925055066     C933
    0.5142012208031650    0.9878943127307139    0.3065425258388399     C934
    0.5142012208031650    0.9878943127307139    0.6398758591721733     C935
    0.5142012208031650    0.9878943127307139    0.9732091925055066     C936
    0.8475345541364983    0.3212276460640474    0.3065425258388399     C937
    0.8475345541364983    0.3212276460640474    0.6398758591721733     C938
    0.8475345541364983    0.3212276460640474    0.9732091925055066     C939
    0.8475345541364983    0.6545609793973807    0.3065425258388399     C940
    0.8475345541364983    0.6545609793973807    0.6398758591721733     C941
    0.8475345541364983    0.6545609793973807    0.9732091925055066     C942
    0.8475345541364983    0.9878943127307139    0.3065425258388399     C943
    0.8475345541364983    0.9878943127307139    0.6398758591721733     C944
    0.8475345541364983    0.9878943127307139    0.9732091925055066     C945
    0.0547740239853577    0.2654336313112211    0.3537980036546732     C946
    0.0547740239853577    0.2654336313112211    0.6871313369880065     C947
    0.0547740239853577    0.2654336313112211    0.0204646703213398     C948
    0.0547740239853577    0.5987669646445544    0.3537980036546732     C949
    0.0547740239853577    0.5987669646445544    0.6871313369880065     C950
    0.0547740239853577    0.5987669646445544    0.0204646703213398     C951
    0.0547740239853577    0.9321002979778876    0.3537980036546732     C952
    0.0547740239853577    0.9321002979778876    0.6871313369880065     C953
    0.0547740239853577    0.9321002979778876    0.0204646703213398     C954
    0.3881073573186909    0.2654336313112211    0.3537980036546732     C955
    0.3881073573186909    0.2654336313112211    0.6871313369880065     C956
    0.3881073573186909    0.2654336313112211    0.0204646703213398     C957
    0.3881073573186909    0.5987669646445544    0.3537980036546732     C958
    0.3881073573186909    0.5987669646445544    0.6871313369880065     C959
    0.3881073573186909    0.5987669646445544    0.0204646703213398     C960
    0.3881073573186909    0.9321002979778876    0.3537980036546732     C961
    0.3881073573186909    0.9321002979778876    0.6871313369880065     C962
    0.3881073573186909    0.9321002979778876    0.0204646703213398     C963
    0.7214406906520243    0.2654336313112211    0.3537980036546732     C964
    0.7214406906520243    0.2654336313112211    0.6871313369880065     C965
    0.7214406906520243    0.2654336313112211    0.0204646703213398     C966
    0.7214406906520243    0.5987669646445544    0.3537980036546732     C967
    0.7214406906520243    0.5987669646445544    0.6871313369880065     C968
    0.7214406906520243    0.5987669646445544    0.0204646703213398     C969
    0.7214406906520243    0.9321002979778876    0.3537980036546732     C970
    0.7214406906520243    0.9321002979778876    0.6871313369880065     C971
    0.7214406906520243    0.9321002979778876    0.0204646703213398     C972
    0.1388403446557706    0.3720538700440609    0.2690988478993424     C973
    0.1388403446557706    0.3720538700440609    0.6024321812326757     C974
    0.1388403446557706    0.3720538700440609    0.9357655145660090     C975
    0.1388403446557706    0.7053872033773942    0.2690988478993424     C976
    0.1388403446557706    0.7053872033773942    0.6024321812326757     C977
    0.1388403446557706    0.7053872033773942    0.9357655145660090     C978
    0.1388403446557706    0.0387205367107275    0.2690988478993424     C979
    0.1388403446557706    0.0387205367107275    0.6024321812326757     C980
    0.1388403446557706    0.0387205367107275    0.9357655145660090     C981
    0.4721736779891039    0.3720538700440609    0.2690988478993424     C982
    0.4721736779891039    0.3720538700440609    0.6024321812326757     C983
    0.4721736779891039    0.3720538700440609    0.9357655145660090     C984
    0.4721736779891039    0.7053872033773942    0.2690988478993424     C985
    0.4721736779891039    0.7053872033773942    0.6024321812326757     C986
    0.4721736779891039    0.7053872033773942    0.9357655145660090     C987
    0.4721736779891039    0.0387205367107275    0.2690988478993424     C988
    0.4721736779891039    0.0387205367107275    0.6024321812326757     C989
    0.4721736779891039    0.0387205367107275    0.9357655145660090     C990
    0.8055070113224372    0.3720538700440609    0.2690988478993424     C991
    0.8055070113224372    0.3720538700440609    0.6024321812326757     C992
    0.8055070113224372    0.3720538700440609    0.9357655145660090     C993
    0.8055070113224372    0.7053872033773942    0.2690988478993424     C994
    0.8055070113224372    0.7053872033773942    0.6024321812326757     C995
    0.8055070113224372    0.7053872033773942    0.9357655145660090     C996
    0.8055070113224372    0.0387205367107275    0.2690988478993424     C997
    0.8055070113224372    0.0387205367107275    0.6024321812326757     C998
    0.8055070113224372    0.0387205367107275    0.9357655145660090     C999
    0.0969090606363178    0.3539136588502401    0.1615742348433947    C1000
    0.0969090606363178    0.3539136588502401    0.4949075681767281    C1001
    0.0969090606363178    0.3539136588502401    0.8282409015100614    C1002
    0.0969090606363178    0.6872469921835733    0.1615742348433947    C1003
    0.0969090606363178    0.6872469921835733    0.4949075681767281    C1004
    0.0969090606363178    0.6872469921835733    0.8282409015100614    C1005
    0.0969090606363178    0.0205803255169067    0.1615742348433947    C1006
    0.0969090606363178    0.0205803255169067    0.4949075681767281    C1007
    0.0969090606363178    0.0205803255169067    0.8282409015100614    C1008
    0.4302423939696511    0.3539136588502401    0.1615742348433947    C1009
    0.4302423939696511    0.3539136588502401    0.4949075681767281    C1010
    0.4302423939696511    0.3539136588502401    0.8282409015100614    C1011
    0.4302423939696511    0.6872469921835733    0.1615742348433947    C1012
    0.4302423939696511    0.6872469921835733    0.4949075681767281    C1013
    0.4302423939696511    0.6872469921835733    0.8282409015100614    C1014
    0.4302423939696511    0.0205803255169067    0.1615742348433947    C1015
    0.4302423939696511    0.0205803255169067    0.4949075681767281    C1016
    0.4302423939696511    0.0205803255169067    0.8282409015100614    C1017
    0.7635757273029844    0.3539136588502401    0.1615742348433947    C1018
    0.7635757273029844    0.3539136588502401    0.4949075681767281    C1019
    0.7635757273029844    0.3539136588502401    0.8282409015100614    C1020
    0.7635757273029844    0.6872469921835733    0.1615742348433947    C1021
    0.7635757273029844    0.6872469921835733    0.4949075681767281    C1022
    0.7635757273029844    0.6872469921835733    0.8282409015100614    C1023
    0.7635757273029844    0.0205803255169067    0.1615742348433947    C1024
    0.7635757273029844    0.0205803255169067    0.4949075681767281    C1025
    0.7635757273029844    0.0205803255169067    0.8282409015100614    C1026
    0.9919552949814161    0.3009239706879016    0.3724381399493141    C1027
    0.9919552949814161    0.3009239706879016    0.7057714732826474    C1028
    0.9919552949814161    0.3009239706879016    0.0391048066159807    C1029
    0.9919552949814161    0.6342573040212349    0.3724381399493141    C1030
    0.9919552949814161    0.6342573040212349    0.7057714732826474    C1031
    0.9919552949814161    0.6342573040212349    0.0391048066159807    C1032
    0.9919552949814161    0.9675906373545682    0.3724381399493141    C1033
    0.9919552949814161    0.9675906373545682    0.7057714732826474    C1034
    0.9919552949814161    0.9675906373545682    0.0391048066159807    C1035
    0.3252886283147495    0.3009239706879016    0.3724381399493141    C1036
    0.3252886283147495    0.3009239706879016    0.7057714732826474    C1037
    0.3252886283147495    0.3009239706879016    0.0391048066159807    C1038
    0.3252886283147495    0.6342573040212349    0.3724381399493141    C1039
    0.3252886283147495    0.6342573040212349    0.7057714732826474    C1040
    0.3252886283147495    0.6342573040212349    0.0391048066159807    C1041
    0.3252886283147495    0.9675906373545682    0.3724381399493141    C1042
    0.3252886283147495    0.9675906373545682    0.7057714732826474    C1043
    0.3252886283147495    0.9675906373545682    0.0391048066159807    C1044
    0.6586219616480828    0.3009239706879016    0.3724381399493141    C1045
    0.6586219616480828    0.3009239706879016    0.7057714732826474    C1046
    0.6586219616480828    0.3009239706879016    0.0391048066159807    C1047
    0.6586219616480828    0.6342573040212349    0.3724381399493141    C1048
    0.6586219616480828    0.6342573040212349    0.7057714732826474    C1049
    0.6586219616480828    0.6342573040212349    0.0391048066159807    C1050
    0.6586219616480828    0.9675906373545682    0.3724381399493141    C1051
    0.6586219616480828    0.9675906373545682    0.7057714732826474    C1052
    0.6586219616480828    0.9675906373545682    0.0391048066159807    C1053
    0.1480174512189526    0.3380856999873127    0.2508949727578148    C1054
    0.1480174512189526    0.3380856999873127    0.5842283060911482    C1055
    0.1480174512189526    0.3380856999873127    0.9175616394244814    C1056
    0.1480174512189526    0.6714190333206461    0.2508949727578148    C1057
    0.1480174512189526    0.6714190333206461    0.5842283060911482    C1058
    0.1480174512189526    0.6714190333206461    0.9175616394244814    C1059
    0.1480174512189526    0.0047523666539794    0.2508949727578148    C1060
    0.1480174512189526    0.0047523666539794    0.5842283060911482    C1061
    0.1480174512189526    0.0047523666539794    0.9175616394244814    C1062
    0.4813507845522860    0.3380856999873127    0.2508949727578148    C1063
    0.4813507845522860    0.3380856999873127    0.5842283060911482    C1064
    0.4813507845522860    0.3380856999873127    0.9175616394244814    C1065
    0.4813507845522860    0.6714190333206461    0.2508949727578148    C1066
    0.4813507845522860    0.6714190333206461    0.5842283060911482    C1067
    0.4813507845522860    0.6714190333206461    0.9175616394244814    C1068
    0.4813507845522860    0.0047523666539794    0.2508949727578148    C1069
    0.4813507845522860    0.0047523666539794    0.5842283060911482    C1070
    0.4813507845522860    0.0047523666539794    0.9175616394244814    C1071
    0.8146841178856192    0.3380856999873127    0.2508949727578148    C1072
    0.8146841178856192    0.3380856999873127    0.5842283060911482    C1073
    0.8146841178856192    0.3380856999873127    0.9175616394244814    C1074
    0.8146841178856192    0.6714190333206461    0.2508949727578148    C1075
    0.8146841178856192    0.6714190333206461    0.5842283060911482    C1076
    0.8146841178856192    0.6714190333206461    0.9175616394244814    C1077
    0.8146841178856192    0.0047523666539794    0.2508949727578148    C1078
    0.8146841178856192    0.0047523666539794    0.5842283060911482    C1079
    0.8146841178856192    0.0047523666539794    0.9175616394244814    C1080
    0.9781775608940542    0.2397609148472832    0.4347383237492718    C1081
    0.9781775608940542    0.2397609148472832    0.7680716570826052    C1082
    0.9781775608940542    0.2397609148472832    0.1014049904159384    C1083
    0.9781775608940542    0.5730942481806166    0.4347383237492718    C1084
    0.9781775608940542    0.5730942481806166    0.7680716570826052    C1085
    0.9781775608940542    0.5730942481806166    0.1014049904159384    C1086
    0.9781775608940542    0.9064275815139499    0.4347383237492718    C1087
    0.9781775608940542    0.9064275815139499    0.7680716570826052    C1088
    0.9781775608940542    0.9064275815139499    0.1014049904159384    C1089
    0.3115108942273874    0.2397609148472832    0.4347383237492718    C1090
    0.3115108942273874    0.2397609148472832    0.7680716570826052    C1091
    0.3115108942273874    0.2397609148472832    0.1014049904159384    C1092
    0.3115108942273874    0.5730942481806166    0.4347383237492718    C1093
    0.3115108942273874    0.5730942481806166    0.7680716570826052    C1094
    0.3115108942273874    0.5730942481806166    0.1014049904159384    C1095
    0.3115108942273874    0.9064275815139499    0.4347383237492718    C1096
    0.3115108942273874    0.9064275815139499    0.7680716570826052    C1097
    0.3115108942273874    0.9064275815139499    0.1014049904159384    C1098
    0.6448442275607209    0.2397609148472832    0.4347383237492718    C1099
    0.6448442275607209    0.2397609148472832    0.7680716570826052    C1100
    0.6448442275607209    0.2397609148472832    0.1014049904159384    C1101
    0.6448442275607209    0.5730942481806166    0.4347383237492718    C1102
    0.6448442275607209    0.5730942481806166    0.7680716570826052    C1103
    0.6448442275607209    0.5730942481806166    0.1014049904159384    C1104
    0.6448442275607209    0.9064275815139499    0.4347383237492718    C1105
    0.6448442275607209    0.9064275815139499    0.7680716570826052    C1106
    0.6448442275607209    0.9064275815139499    0.1014049904159384    C1107
    0.0681407621517993    0.3778343624005417    0.1728636848321295    C1108
    0.0681407621517993    0.3778343624005417    0.5061970181654629    C1109
    0.0681407621517993    0.3778343624005417    0.8395303514987962    C1110
    0.0681407621517993    0.7111676957338751    0.1728636848321295    C1111
    0.0681407621517993    0.7111676957338751    0.5061970181654629    C1112
    0.0681407621517993    0.7111676957338751    0.8395303514987962    C1113
    0.0681407621517993    0.0445010290672083    0.1728636848321295    C1114
    0.0681407621517993    0.0445010290672083    0.5061970181654629    C1115
    0.0681407621517993    0.0445010290672083    0.8395303514987962    C1116
    0.4014740954851326    0.3778343624005417    0.1728636848321295    C1117
    0.4014740954851326    0.3778343624005417    0.5061970181654629    C1118
    0.4014740954851326    0.3778343624005417    0.8395303514987962    C1119
    0.4014740954851326    0.7111676957338751    0.1728636848321295    C1120
    0.4014740954851326    0.7111676957338751    0.5061970181654629    C1121
    0.4014740954851326    0.7111676957338751    0.8395303514987962    C1122
    0.4014740954851326    0.0445010290672083    0.1728636848321295    C1123
    0.4014740954851326    0.0445010290672083    0.5061970181654629    C1124
    0.4014740954851326    0.0445010290672083    0.8395303514987962    C1125
    0.7348074288184659    0.3778343624005417    0.1728636848321295    C1126
    0.7348074288184659    0.3778343624005417    0.5061970181654629    C1127
    0.7348074288184659    0.3778343624005417    0.8395303514987962    C1128
    0.7348074288184659    0.7111676957338751    0.1728636848321295    C1129
    0.7348074288184659    0.7111676957338751    0.5061970181654629    C1130
    0.7348074288184659    0.7111676957338751    0.8395303514987962    C1131
    0.7348074288184659    0.0445010290672083    0.1728636848321295    C1132
    0.7348074288184659    0.0445010290672083    0.5061970181654629    C1133
    0.7348074288184659    0.0445010290672083    0.8395303514987962    C1134
    0.1298119173527400    0.2993658890877082    0.3908547223998137    C1135
    0.1298119173527400    0.2993658890877082    0.7241880557331470    C1136
    0.1298119173527400    0.2993658890877082    0.0575213890664803    C1137
    0.1298119173527400    0.6326992224210416    0.3908547223998137    C1138
    0.1298119173527400    0.6326992224210416    0.7241880557331470    C1139
    0.1298119173527400    0.6326992224210416    0.0575213890664803    C1140
    0.1298119173527400    0.9660325557543749    0.3908547223998137    C1141
    0.1298119173527400    0.9660325557543749    0.7241880557331470    C1142
    0.1298119173527400    0.9660325557543749    0.0575213890664803    C1143
    0.4631452506860734    0.2993658890877082    0.3908547223998137    C1144
    0.4631452506860734    0.2993658890877082    0.7241880557331470    C1145
    0.4631452506860734    0.2993658890877082    0.0575213890664803    C1146
    0.4631452506860734    0.6326992224210416    0.3908547223998137    C1147
    0.4631452506860734    0.6326992224210416    0.7241880557331470    C1148
    0.4631452506860734    0.6326992224210416    0.0575213890664803    C1149
    0.4631452506860734    0.9660325557543749    0.3908547223998137    C1150
    0.4631452506860734    0.9660325557543749    0.7241880557331470    C1151
    0.4631452506860734    0.9660325557543749    0.0575213890664803    C1152
    0.7964785840194066    0.2993658890877082    0.3908547223998137    C1153
    0.7964785840194066    0.2993658890877082    0.7241880557331470    C1154
    0.7964785840194066    0.2993658890877082    0.0575213890664803    C1155
    0.7964785840194066    0.6326992224210416    0.3908547223998137    C1156
    0.7964785840194066    0.6326992224210416    0.7241880557331470    C1157
    0.7964785840194066    0.6326992224210416    0.0575213890664803    C1158
    0.7964785840194066    0.9660325557543749    0.3908547223998137    C1159
    0.7964785840194066    0.9660325557543749    0.7241880557331470    C1160
    0.7964785840194066    0.9660325557543749    0.0575213890664803    C1161
    0.0421090073781983    0.1891871918898452    0.3481908707964148    C1162
    0.0421090073781983    0.1891871918898452    0.6815242041297481    C1163
    0.0421090073781983    0.1891871918898452    0.0148575374630814    C1164
    0.0421090073781983    0.5225205252231786    0.3481908707964148    C1165
    0.0421090073781983    0.5225205252231786    0.6815242041297481    C1166
    0.0421090073781983    0.5225205252231786    0.0148575374630814    C1167
    0.0421090073781983    0.8558538585565119    0.3481908707964148    C1168
    0.0421090073781983    0.8558538585565119    0.6815242041297481    C1169
    0.0421090073781983    0.8558538585565119    0.0148575374630814    C1170
    0.3754423407115317    0.1891871918898452    0.3481908707964148    C1171
    0.3754423407115317    0.1891871918898452    0.6815242041297481    C1172
    0.3754423407115317    0.1891871918898452    0.0148575374630814    C1173
    0.3754423407115317    0.5225205252231786    0.3481908707964148    C1174
    0.3754423407115317    0.5225205252231786    0.6815242041297481    C1175
    0.3754423407115317    0.5225205252231786    0.0148575374630814    C1176
    0.3754423407115317    0.8558538585565119    0.3481908707964148    C1177
    0.3754423407115317    0.8558538585565119    0.6815242041297481    C1178
    0.3754423407115317    0.8558538585565119    0.0148575374630814    C1179
    0.7087756740448650    0.1891871918898452    0.3481908707964148    C1180
    0.7087756740448650    0.1891871918898452    0.6815242041297481    C1181
    0.7087756740448650    0.1891871918898452    0.0148575374630814    C1182
    0.7087756740448650    0.5225205252231786    0.3481908707964148    C1183
    0.7087756740448650    0.5225205252231786    0.6815242041297481    C1184
    0.7087756740448650    0.5225205252231786    0.0148575374630814    C1185
    0.7087756740448650    0.8558538585565119    0.3481908707964148    C1186
    0.7087756740448650    0.8558538585565119    0.6815242041297481    C1187
    0.7087756740448650    0.8558538585565119    0.0148575374630814    C1188
    0.1774387619099141    0.2033547712155966    0.4352757272235812    C1189
    0.1774387619099141    0.2033547712155966    0.7686090605569145    C1190
    0.1774387619099141    0.2033547712155966    0.1019423938902478    C1191
    0.1774387619099141    0.5366881045489300    0.4352757272235812    C1192
    0.1774387619099141    0.5366881045489300    0.7686090605569145    C1193
    0.1774387619099141    0.5366881045489300    0.1019423938902478    C1194
    0.1774387619099141    0.8700214378822634    0.4352757272235812    C1195
    0.1774387619099141    0.8700214378822634    0.7686090605569145    C1196
    0.1774387619099141    0.8700214378822634    0.1019423938902478    C1197
    0.5107720952432475    0.2033547712155966    0.4352757272235812    C1198
    0.5107720952432475    0.2033547712155966    0.7686090605569145    C1199
    0.5107720952432475    0.2033547712155966    0.1019423938902478    C1200
    0.5107720952432475    0.5366881045489300    0.4352757272235812    C1201
    0.5107720952432475    0.5366881045489300    0.7686090605569145    C1202
    0.5107720952432475    0.5366881045489300    0.1019423938902478    C1203
    0.5107720952432475    0.8700214378822634    0.4352757272235812    C1204
    0.5107720952432475    0.8700214378822634    0.7686090605569145    C1205
    0.5107720952432475    0.8700214378822634    0.1019423938902478    C1206
    0.8441054285765808    0.2033547712155966    0.4352757272235812    C1207
    0.8441054285765808    0.2033547712155966    0.7686090605569145    C1208
    0.8441054285765808    0.2033547712155966    0.1019423938902478    C1209
    0.8441054285765808    0.5366881045489300    0.4352757272235812    C1210
    0.8441054285765808    0.5366881045489300    0.7686090605569145    C1211
    0.8441054285765808    0.5366881045489300    0.1019423938902478    C1212
    0.8441054285765808    0.8700214378822634    0.4352757272235812    C1213
    0.8441054285765808    0.8700214378822634    0.7686090605569145    C1214
    0.8441054285765808    0.8700214378822634    0.1019423938902478    C1215
    0.1736598000821257    0.1070063382394254    0.4171454460912682    C1216
    0.1736598000821257    0.1070063382394254    0.7504787794246015    C1217
    0.1736598000821257    0.1070063382394254    0.0838121127579348    C1218
    0.1736598000821257    0.4403396715727588    0.4171454460912682    C1219
    0.1736598000821257    0.4403396715727588    0.7504787794246015    C1220
    0.1736598000821257    0.4403396715727588    0.0838121127579348    C1221
    0.1736598000821257    0.7736730049060920    0.4171454460912682    C1222
    0.1736598000821257    0.7736730049060920    0.7504787794246015    C1223
    0.1736598000821257    0.7736730049060920    0.0838121127579348    C1224
    0.5069931334154590    0.1070063382394254    0.4171454460912682    C1225
    0.5069931334154590    0.1070063382394254    0.7504787794246015    C1226
    0.5069931334154590    0.1070063382394254    0.0838121127579348    C1227
    0.5069931334154590    0.4403396715727588    0.4171454460912682    C1228
    0.5069931334154590    0.4403396715727588    0.7504787794246015    C1229
    0.5069931334154590    0.4403396715727588    0.0838121127579348    C1230
    0.5069931334154590    0.7736730049060920    0.4171454460912682    C1231
    0.5069931334154590    0.7736730049060920    0.7504787794246015    C1232
    0.5069931334154590    0.7736730049060920    0.0838121127579348    C1233
    0.8403264667487924    0.1070063382394254    0.4171454460912682    C1234
    0.8403264667487924    0.1070063382394254    0.7504787794246015    C1235
    0.8403264667487924    0.1070063382394254    0.0838121127579348    C1236
    0.8403264667487924    0.4403396715727588    0.4171454460912682    C1237
    0.8403264667487924    0.4403396715727588    0.7504787794246015    C1238
    0.8403264667487924    0.4403396715727588    0.0838121127579348    C1239
    0.8403264667487924    0.7736730049060920    0.4171454460912682    C1240
    0.8403264667487924    0.7736730049060920    0.7504787794246015    C1241
    0.8403264667487924    0.7736730049060920    0.0838121127579348    C1242
    0.0139450019386674    0.1850412226768439    0.0983359751343443    C1243
    0.0139450019386674    0.1850412226768439    0.4316693084676777    C1244
    0.0139450019386674    0.1850412226768439    0.7650026418010110    C1245
    0.0139450019386674    0.5183745560101772    0.0983359751343443    C1246
    0.0139450019386674    0.5183745560101772    0.4316693084676777    C1247
    0.0139450019386674    0.5183745560101772    0.7650026418010110    C1248
    0.0139450019386674    0.8517078893435106    0.0983359751343443    C1249
    0.0139450019386674    0.8517078893435106    0.4316693084676777    C1250
    0.0139450019386674    0.8517078893435106    0.7650026418010110    C1251
    0.3472783352720008    0.1850412226768439    0.0983359751343443    C1252
    0.3472783352720008    0.1850412226768439    0.4316693084676777    C1253
    0.3472783352720008    0.1850412226768439    0.7650026418010110    C1254
    0.3472783352720008    0.5183745560101772    0.0983359751343443    C1255
    0.3472783352720008    0.5183745560101772    0.4316693084676777    C1256
    0.3472783352720008    0.5183745560101772    0.7650026418010110    C1257
    0.3472783352720008    0.8517078893435106    0.0983359751343443    C1258
    0.3472783352720008    0.8517078893435106    0.4316693084676777    C1259
    0.3472783352720008    0.8517078893435106    0.7650026418010110    C1260
    0.6806116686053341    0.1850412226768439    0.0983359751343443    C1261
    0.6806116686053341    0.1850412226768439    0.4316693084676777    C1262
    0.6806116686053341    0.1850412226768439    0.7650026418010110    C1263
    0.6806116686053341    0.5183745560101772    0.0983359751343443    C1264
    0.6806116686053341    0.5183745560101772    0.4316693084676777    C1265
    0.6806116686053341    0.5183745560101772    0.7650026418010110    C1266
    0.6806116686053341    0.8517078893435106    0.0983359751343443    C1267
    0.6806116686053341    0.8517078893435106    0.4316693084676777    C1268
    0.6806116686053341    0.8517078893435106    0.7650026418010110    C1269
    0.0089515239321670    0.1453708994766887    0.2493644524071644    C1270
    0.0089515239321670    0.1453708994766887    0.5826977857404977    C1271
    0.0089515239321670    0.1453708994766887    0.9160311190738309    C1272
    0.0089515239321670    0.4787042328100219    0.2493644524071644    C1273
    0.0089515239321670    0.4787042328100219    0.5826977857404977    C1274
    0.0089515239321670    0.4787042328100219    0.9160311190738309    C1275
    0.0089515239321670    0.8120375661433553    0.2493644524071644    C1276
    0.0089515239321670    0.8120375661433553    0.5826977857404977    C1277
    0.0089515239321670    0.8120375661433553    0.9160311190738309    C1278
    0.3422848572655004    0.1453708994766887    0.2493644524071644    C1279
    0.3422848572655004    0.1453708994766887    0.5826977857404977    C1280
    0.3422848572655004    0.1453708994766887    0.9160311190738309    C1281
    0.3422848572655004    0.4787042328100219    0.2493644524071644    C1282
    0.3422848572655004    0.4787042328100219    0.5826977857404977    C1283
    0.3422848572655004    0.4787042328100219    0.9160311190738309    C1284
    0.3422848572655004    0.8120375661433553    0.2493644524071644    C1285
    0.3422848572655004    0.8120375661433553    0.5826977857404977    C1286
    0.3422848572655004    0.8120375661433553    0.9160311190738309    C1287
    0.6756181905988337    0.1453708994766887    0.2493644524071644    C1288
    0.6756181905988337    0.1453708994766887    0.5826977857404977    C1289
    0.6756181905988337    0.1453708994766887    0.9160311190738309    C1290
    0.6756181905988337    0.4787042328100219    0.2493644524071644    C1291
    0.6756181905988337    0.4787042328100219    0.5826977857404977    C1292
    0.6756181905988337    0.4787042328100219    0.9160311190738309    C1293
    0.6756181905988337    0.8120375661433553    0.2493644524071644    C1294
    0.6756181905988337    0.8120375661433553    0.5826977857404977    C1295
    0.6756181905988337    0.8120375661433553    0.9160311190738309    C1296
    0.1747396282174101    0.2650900455795879    0.3203727984356373    C1297
    0.1747396282174101    0.2650900455795879    0.6537061317689706    C1298
    0.1747396282174101    0.2650900455795879    0.9870394651023039    C1299
    0.1747396282174101    0.5984233789129214    0.3203727984356373    C1300
    0.1747396282174101    0.5984233789129214    0.6537061317689706    C1301
    0.1747396282174101    0.5984233789129214    0.9870394651023039    C1302
    0.1747396282174101    0.9317567122462547    0.3203727984356373    C1303
    0.1747396282174101    0.9317567122462547    0.6537061317689706    C1304
    0.1747396282174101    0.9317567122462547    0.9870394651023039    C1305
    0.5080729615507433    0.2650900455795879    0.3203727984356373    C1306
    0.5080729615507433    0.2650900455795879    0.6537061317689706    C1307
    0.5080729615507433    0.2650900455795879    0.9870394651023039    C1308
    0.5080729615507433    0.5984233789129214    0.3203727984356373    C1309
    0.5080729615507433    0.5984233789129214    0.6537061317689706    C1310
    0.5080729615507433    0.5984233789129214    0.9870394651023039    C1311
    0.5080729615507433    0.9317567122462547    0.3203727984356373    C1312
    0.5080729615507433    0.9317567122462547    0.6537061317689706    C1313
    0.5080729615507433    0.9317567122462547    0.9870394651023039    C1314
    0.8414062948840767    0.2650900455795879    0.3203727984356373    C1315
    0.8414062948840767    0.2650900455795879    0.6537061317689706    C1316
    0.8414062948840767    0.2650900455795879    0.9870394651023039    C1317
    0.8414062948840767    0.5984233789129214    0.3203727984356373    C1318
    0.8414062948840767    0.5984233789129214    0.6537061317689706    C1319
    0.8414062948840767    0.5984233789129214    0.9870394651023039    C1320
    0.8414062948840767    0.9317567122462547    0.3203727984356373    C1321
    0.8414062948840767    0.9317567122462547    0.6537061317689706    C1322
    0.8414062948840767    0.9317567122462547    0.9870394651023039    C1323
    0.2039792751492679    0.3655207930224115    0.5004260955097675    C1324
    0.2039792751492679    0.3655207930224115    0.8337594288431007    C1325
    0.2039792751492679    0.3655207930224115    0.1670927621764340    C1326
    0.2039792751492679    0.6988541263557448    0.5004260955097675    C1327
    0.2039792751492679    0.6988541263557448    0.8337594288431007    C1328
    0.2039792751492679    0.6988541263557448    0.1670927621764340    C1329
    0.2039792751492679    0.0321874596890781    0.5004260955097675    C1330
    0.2039792751492679    0.0321874596890781    0.8337594288431007    C1331
    0.2039792751492679    0.0321874596890781    0.1670927621764340    C1332
    0.5373126084826012    0.3655207930224115    0.5004260955097675    C1333
    0.5373126084826012    0.3655207930224115    0.8337594288431007    C1334
    0.5373126084826012    0.3655207930224115    0.1670927621764340    C1335
    0.5373126084826012    0.6988541263557448    0.5004260955097675    C1336
    0.5373126084826012    0.6988541263557448    0.8337594288431007    C1337
    0.5373126084826012    0.6988541263557448    0.1670927621764340    C1338
    0.5373126084826012    0.0321874596890781    0.5004260955097675    C1339
    0.5373126084826012    0.0321874596890781    0.8337594288431007    C1340
    0.5373126084826012    0.0321874596890781    0.1670927621764340    C1341
    0.8706459418159346    0.3655207930224115    0.5004260955097675    C1342
    0.8706459418159346    0.3655207930224115    0.8337594288431007    C1343
    0.8706459418159346    0.3655207930224115    0.1670927621764340    C1344
    0.8706459418159346    0.6988541263557448    0.5004260955097675    C1345
    0.8706459418159346    0.6988541263557448    0.8337594288431007    C1346
    0.8706459418159346    0.6988541263557448    0.1670927621764340    C1347
    0.8706459418159346    0.0321874596890781    0.5004260955097675    C1348
    0.8706459418159346    0.0321874596890781    0.8337594288431007    C1349
    0.8706459418159346    0.0321874596890781    0.1670927621764340    C1350
    0.1720131902381181    0.2413561098562214    0.3422831404245532    C1351
    0.1720131902381181    0.2413561098562214    0.6756164737578865    C1352
    0.1720131902381181    0.2413561098562214    0.0089498070912198    C1353
    0.1720131902381181    0.5746894431895546    0.3422831404245532    C1354
    0.1720131902381181    0.5746894431895546    0.6756164737578865    C1355
    0.1720131902381181    0.5746894431895546    0.0089498070912198    C1356
    0.1720131902381181    0.9080227765228880    0.3422831404245532    C1357
    0.1720131902381181    0.9080227765228880    0.6756164737578865    C1358
    0.1720131902381181    0.9080227765228880    0.0089498070912198    C1359
    0.5053465235714514    0.2413561098562214    0.3422831404245532    C1360
    0.5053465235714514    0.2413561098562214    0.6756164737578865    C1361
    0.5053465235714514    0.2413561098562214    0.0089498070912198    C1362
    0.5053465235714514    0.5746894431895546    0.3422831404245532    C1363
    0.5053465235714514    0.5746894431895546    0.6756164737578865    C1364
    0.5053465235714514    0.5746894431895546    0.0089498070912198    C1365
    0.5053465235714514    0.9080227765228880    0.3422831404245532    C1366
    0.5053465235714514    0.9080227765228880    0.6756164737578865    C1367
    0.5053465235714514    0.9080227765228880    0.0089498070912198    C1368
    0.8386798569047847    0.2413561098562214    0.3422831404245532    C1369
    0.8386798569047847    0.2413561098562214    0.6756164737578865    C1370
    0.8386798569047847    0.2413561098562214    0.0089498070912198    C1371
    0.8386798569047847    0.5746894431895546    0.3422831404245532    C1372
    0.8386798569047847    0.5746894431895546    0.6756164737578865    C1373
    0.8386798569047847    0.5746894431895546    0.0089498070912198    C1374
    0.8386798569047847    0.9080227765228880    0.3422831404245532    C1375
    0.8386798569047847    0.9080227765228880    0.6756164737578865    C1376
    0.8386798569047847    0.9080227765228880    0.0089498070912198    C1377
    0.2152209400190792    0.3328763559484006    0.4842447767738784    C1378
    0.2152209400190792    0.3328763559484006    0.8175781101072118    C1379
    0.2152209400190792    0.3328763559484006    0.1509114434405451    C1380
    0.2152209400190792    0.6662096892817340    0.4842447767738784    C1381
    0.2152209400190792    0.6662096892817340    0.8175781101072118    C1382
    0.2152209400190792    0.6662096892817340    0.1509114434405451    C1383
    0.2152209400190792    0.9995430226150672    0.4842447767738784    C1384
    0.2152209400190792    0.9995430226150672    0.8175781101072118    C1385
    0.2152209400190792    0.9995430226150672    0.1509114434405451    C1386
    0.5485542733524125    0.3328763559484006    0.4842447767738784    C1387
    0.5485542733524125    0.3328763559484006    0.8175781101072118    C1388
    0.5485542733524125    0.3328763559484006    0.1509114434405451    C1389
    0.5485542733524125    0.6662096892817340    0.4842447767738784    C1390
    0.5485542733524125    0.6662096892817340    0.8175781101072118    C1391
    0.5485542733524125    0.6662096892817340    0.1509114434405451    C1392
    0.5485542733524125    0.9995430226150672    0.4842447767738784    C1393
    0.5485542733524125    0.9995430226150672    0.8175781101072118    C1394
    0.5485542733524125    0.9995430226150672    0.1509114434405451    C1395
    0.8818876066857458    0.3328763559484006    0.4842447767738784    C1396
    0.8818876066857458    0.3328763559484006    0.8175781101072118    C1397
    0.8818876066857458    0.3328763559484006    0.1509114434405451    C1398
    0.8818876066857458    0.6662096892817340    0.4842447767738784    C1399
    0.8818876066857458    0.6662096892817340    0.8175781101072118    C1400
    0.8818876066857458    0.6662096892817340    0.1509114434405451    C1401
    0.8818876066857458    0.9995430226150672    0.4842447767738784    C1402
    0.8818876066857458    0.9995430226150672    0.8175781101072118    C1403
    0.8818876066857458    0.9995430226150672    0.1509114434405451    C1404
    0.9926759670921546    0.1110455102510692    0.2294348351927991    C1405
    0.9926759670921546    0.1110455102510692    0.5627681685261323    C1406
    0.9926759670921546    0.1110455102510692    0.8961015018594657    C1407
    0.9926759670921546    0.4443788435844026    0.2294348351927991    C1408
    0.9926759670921546    0.4443788435844026    0.5627681685261323    C1409
    0.9926759670921546    0.4443788435844026    0.8961015018594657    C1410
    0.9926759670921546    0.7777121769177360    0.2294348351927991    C1411
    0.9926759670921546    0.7777121769177360    0.5627681685261323    C1412
    0.9926759670921546    0.7777121769177360    0.8961015018594657    C1413
    0.3260093004254878    0.1110455102510692    0.2294348351927991    C1414
    0.3260093004254878    0.1110455102510692    0.5627681685261323    C1415
    0.3260093004254878    0.1110455102510692    0.8961015018594657    C1416
    0.3260093004254878    0.4443788435844026    0.2294348351927991    C1417
    0.3260093004254878    0.4443788435844026    0.5627681685261323    C1418
    0.3260093004254878    0.4443788435844026    0.8961015018594657    C1419
    0.3260093004254878    0.7777121769177360    0.2294348351927991    C1420
    0.3260093004254878    0.7777121769177360    0.5627681685261323    C1421
    0.3260093004254878    0.7777121769177360    0.8961015018594657    C1422
    0.6593426337588211    0.1110455102510692    0.2294348351927991    C1423
    0.6593426337588211    0.1110455102510692    0.5627681685261323    C1424
    0.6593426337588211    0.1110455102510692    0.8961015018594657    C1425
    0.6593426337588211    0.4443788435844026    0.2294348351927991    C1426
    0.6593426337588211    0.4443788435844026    0.5627681685261323    C1427
    0.6593426337588211    0.4443788435844026    0.8961015018594657    C1428
    0.6593426337588211    0.7777121769177360    0.2294348351927991    C1429
    0.6593426337588211    0.7777121769177360    0.5627681685261323    C1430
    0.6593426337588211    0.7777121769177360    0.8961015018594657    C1431
    0.9527549900696175    0.1136689818388791    0.2029169493987010    C1432
    0.9527549900696175    0.1136689818388791    0.5362502827320343    C1433
    0.9527549900696175    0.1136689818388791    0.8695836160653676    C1434
    0.9527549900696175    0.4470023151722124    0.2029169493987010    C1435
    0.9527549900696175    0.4470023151722124    0.5362502827320343    C1436
    0.9527549900696175    0.4470023151722124    0.8695836160653676    C1437
    0.9527549900696175    0.7803356485055457    0.2029169493987010    C1438
    0.9527549900696175    0.7803356485055457    0.5362502827320343    C1439
    0.9527549900696175    0.7803356485055457    0.8695836160653676    C1440
    0.2860883234029508    0.1136689818388791    0.2029169493987010    C1441
    0.2860883234029508    0.1136689818388791    0.5362502827320343    C1442
    0.2860883234029508    0.1136689818388791    0.8695836160653676    C1443
    0.2860883234029508    0.4470023151722124    0.2029169493987010    C1444
    0.2860883234029508    0.4470023151722124    0.5362502827320343    C1445
    0.2860883234029508    0.4470023151722124    0.8695836160653676    C1446
    0.2860883234029508    0.7803356485055457    0.2029169493987010    C1447
    0.2860883234029508    0.7803356485055457    0.5362502827320343    C1448
    0.2860883234029508    0.7803356485055457    0.8695836160653676    C1449
    0.6194216567362840    0.1136689818388791    0.2029169493987010    C1450
    0.6194216567362840    0.1136689818388791    0.5362502827320343    C1451
    0.6194216567362840    0.1136689818388791    0.8695836160653676    C1452
    0.6194216567362840    0.4470023151722124    0.2029169493987010    C1453
    0.6194216567362840    0.4470023151722124    0.5362502827320343    C1454
    0.6194216567362840    0.4470023151722124    0.8695836160653676    C1455
    0.6194216567362840    0.7803356485055457    0.2029169493987010    C1456
    0.6194216567362840    0.7803356485055457    0.5362502827320343    C1457
    0.6194216567362840    0.7803356485055457    0.8695836160653676    C1458
    0.1007958274437046    0.8967499002320154    0.5792636081655437    C1459
    0.1007958274437046    0.8967499002320154    0.9125969414988769    C1460
    0.1007958274437046    0.8967499002320154    0.2459302748322103    C1461
    0.1007958274437046    0.2300832335653487    0.5792636081655437    C1462
    0.1007958274437046    0.2300832335653487    0.9125969414988769    C1463
    0.1007958274437046    0.2300832335653487    0.2459302748322103    C1464
    0.1007958274437046    0.5634165668986820    0.5792636081655437    C1465
    0.1007958274437046    0.5634165668986820    0.9125969414988769    C1466
    0.1007958274437046    0.5634165668986820    0.2459302748322103    C1467
    0.4341291607770379    0.8967499002320154    0.5792636081655437    C1468
    0.4341291607770379    0.8967499002320154    0.9125969414988769    C1469
    0.4341291607770379    0.8967499002320154    0.2459302748322103    C1470
    0.4341291607770379    0.2300832335653487    0.5792636081655437    C1471
    0.4341291607770379    0.2300832335653487    0.9125969414988769    C1472
    0.4341291607770379    0.2300832335653487    0.2459302748322103    C1473
    0.4341291607770379    0.5634165668986820    0.5792636081655437    C1474
    0.4341291607770379    0.5634165668986820    0.9125969414988769    C1475
    0.4341291607770379    0.5634165668986820    0.2459302748322103    C1476
    0.7674624941103713    0.8967499002320154    0.5792636081655437    C1477
    0.7674624941103713    0.8967499002320154    0.9125969414988769    C1478
    0.7674624941103713    0.8967499002320154    0.2459302748322103    C1479
    0.7674624941103713    0.2300832335653487    0.5792636081655437    C1480
    0.7674624941103713    0.2300832335653487    0.9125969414988769    C1481
    0.7674624941103713    0.2300832335653487    0.2459302748322103    C1482
    0.7674624941103713    0.5634165668986820    0.5792636081655437    C1483
    0.7674624941103713    0.5634165668986820    0.9125969414988769    C1484
    0.7674624941103713    0.5634165668986820    0.2459302748322103    C1485
    0.0792389814624530    0.1758541887952599    0.1371343026112202    C1486
    0.0792389814624530    0.1758541887952599    0.4704676359445537    C1487
    0.0792389814624530    0.1758541887952599    0.8038009692778869    C1488
    0.0792389814624530    0.5091875221285932    0.1371343026112202    C1489
    0.0792389814624530    0.5091875221285932    0.4704676359445537    C1490
    0.0792389814624530    0.5091875221285932    0.8038009692778869    C1491
    0.0792389814624530    0.8425208554619266    0.1371343026112202    C1492
    0.0792389814624530    0.8425208554619266    0.4704676359445537    C1493
    0.0792389814624530    0.8425208554619266    0.8038009692778869    C1494
    0.4125723147957863    0.1758541887952599    0.1371343026112202    C1495
    0.4125723147957863    0.1758541887952599    0.4704676359445537    C1496
    0.4125723147957863    0.1758541887952599    0.8038009692778869    C1497
    0.4125723147957863    0.5091875221285932    0.1371343026112202    C1498
    0.4125723147957863    0.5091875221285932    0.4704676359445537    C1499
    0.4125723147957863    0.5091875221285932    0.8038009692778869    C1500
    0.4125723147957863    0.8425208554619266    0.1371343026112202    C1501
    0.4125723147957863    0.8425208554619266    0.4704676359445537    C1502
    0.4125723147957863    0.8425208554619266    0.8038009692778869    C1503
    0.7459056481291195    0.1758541887952599    0.1371343026112202    C1504
    0.7459056481291195    0.1758541887952599    0.4704676359445537    C1505
    0.7459056481291195    0.1758541887952599    0.8038009692778869    C1506
    0.7459056481291195    0.5091875221285932    0.1371343026112202    C1507
    0.7459056481291195    0.5091875221285932    0.4704676359445537    C1508
    0.7459056481291195    0.5091875221285932    0.8038009692778869    C1509
    0.7459056481291195    0.8425208554619266    0.1371343026112202    C1510
    0.7459056481291195    0.8425208554619266    0.4704676359445537    C1511
    0.7459056481291195    0.8425208554619266    0.8038009692778869    C1512
    0.0949159439684631    0.3073649745566467    0.4057056884109290    C1513
    0.0949159439684631    0.3073649745566467    0.7390390217442624    C1514
    0.0949159439684631    0.3073649745566467    0.0723723550775957    C1515
    0.0949159439684631    0.6406983078899801    0.4057056884109290    C1516
    0.0949159439684631    0.6406983078899801    0.7390390217442624    C1517
    0.0949159439684631    0.6406983078899801    0.0723723550775957    C1518
    0.0949159439684631    0.9740316412233133    0.4057056884109290    C1519
    0.0949159439684631    0.9740316412233133    0.7390390217442624    C1520
    0.0949159439684631    0.9740316412233133    0.0723723550775957    C1521
    0.4282492773017965    0.3073649745566467    0.4057056884109290    C1522
    0.4282492773017965    0.3073649745566467    0.7390390217442624    C1523
    0.4282492773017965    0.3073649745566467    0.0723723550775957    C1524
    0.4282492773017965    0.6406983078899801    0.4057056884109290    C1525
    0.4282492773017965    0.6406983078899801    0.7390390217442624    C1526
    0.4282492773017965    0.6406983078899801    0.0723723550775957    C1527
    0.4282492773017965    0.9740316412233133    0.4057056884109290    C1528
    0.4282492773017965    0.9740316412233133    0.7390390217442624    C1529
    0.4282492773017965    0.9740316412233133    0.0723723550775957    C1530
    0.7615826106351298    0.3073649745566467    0.4057056884109290    C1531
    0.7615826106351298    0.3073649745566467    0.7390390217442624    C1532
    0.7615826106351298    0.3073649745566467    0.0723723550775957    C1533
    0.7615826106351298    0.6406983078899801    0.4057056884109290    C1534
    0.7615826106351298    0.6406983078899801    0.7390390217442624    C1535
    0.7615826106351298    0.6406983078899801    0.0723723550775957    C1536
    0.7615826106351298    0.9740316412233133    0.4057056884109290    C1537
    0.7615826106351298    0.9740316412233133    0.7390390217442624    C1538
    0.7615826106351298    0.9740316412233133    0.0723723550775957    C1539
    0.0596369462829598    0.9147326545059005    0.2416665128362272    C1540
    0.0596369462829598    0.9147326545059005    0.5749998461695607    C1541
    0.0596369462829598    0.9147326545059005    0.9083331795028939    C1542
    0.0596369462829598    0.2480659878392337    0.2416665128362272    C1543
    0.0596369462829598    0.2480659878392337    0.5749998461695607    C1544
    0.0596369462829598    0.2480659878392337    0.9083331795028939    C1545
    0.0596369462829598    0.5813993211725670    0.2416665128362272    C1546
    0.0596369462829598    0.5813993211725670    0.5749998461695607    C1547
    0.0596369462829598    0.5813993211725670    0.9083331795028939    C1548
    0.3929702796162932    0.9147326545059005    0.2416665128362272    C1549
    0.3929702796162932    0.9147326545059005    0.5749998461695607    C1550
    0.3929702796162932    0.9147326545059005    0.9083331795028939    C1551
    0.3929702796162932    0.2480659878392337    0.2416665128362272    C1552
    0.3929702796162932    0.2480659878392337    0.5749998461695607    C1553
    0.3929702796162932    0.2480659878392337    0.9083331795028939    C1554
    0.3929702796162932    0.5813993211725670    0.2416665128362272    C1555
    0.3929702796162932    0.5813993211725670    0.5749998461695607    C1556
    0.3929702796162932    0.5813993211725670    0.9083331795028939    C1557
    0.7263036129496264    0.9147326545059005    0.2416665128362272    C1558
    0.7263036129496264    0.9147326545059005    0.5749998461695607    C1559
    0.7263036129496264    0.9147326545059005    0.9083331795028939    C1560
    0.7263036129496264    0.2480659878392337    0.2416665128362272    C1561
    0.7263036129496264    0.2480659878392337    0.5749998461695607    C1562
    0.7263036129496264    0.2480659878392337    0.9083331795028939    C1563
    0.7263036129496264    0.5813993211725670    0.2416665128362272    C1564
    0.7263036129496264    0.5813993211725670    0.5749998461695607    C1565
    0.7263036129496264    0.5813993211725670    0.9083331795028939    C1566
    0.1529554836561985    0.3820821821154792    0.3890246089828061    C1567
    0.1529554836561985    0.3820821821154792    0.7223579423161395    C1568
    0.1529554836561985    0.3820821821154792    0.0556912756494727    C1569
    0.1529554836561985    0.7154155154488124    0.3890246089828061    C1570
    0.1529554836561985    0.7154155154488124    0.7223579423161395    C1571
    0.1529554836561985    0.7154155154488124    0.0556912756494727    C1572
    0.1529554836561985    0.0487488487821458    0.3890246089828061    C1573
    0.1529554836561985    0.0487488487821458    0.7223579423161395    C1574
    0.1529554836561985    0.0487488487821458    0.0556912756494727    C1575
    0.4862888169895317    0.3820821821154792    0.3890246089828061    C1576
    0.4862888169895317    0.3820821821154792    0.7223579423161395    C1577
    0.4862888169895317    0.3820821821154792    0.0556912756494727    C1578
    0.4862888169895317    0.7154155154488124    0.3890246089828061    C1579
    0.4862888169895317    0.7154155154488124    0.7223579423161395    C1580
    0.4862888169895317    0.7154155154488124    0.0556912756494727    C1581
    0.4862888169895317    0.0487488487821458    0.3890246089828061    C1582
    0.4862888169895317    0.0487488487821458    0.7223579423161395    C1583
    0.4862888169895317    0.0487488487821458    0.0556912756494727    C1584
    0.8196221503228651    0.3820821821154792    0.3890246089828061    C1585
    0.8196221503228651    0.3820821821154792    0.7223579423161395    C1586
    0.8196221503228651    0.3820821821154792    0.0556912756494727    C1587
    0.8196221503228651    0.7154155154488124    0.3890246089828061    C1588
    0.8196221503228651    0.7154155154488124    0.7223579423161395    C1589
    0.8196221503228651    0.7154155154488124    0.0556912756494727    C1590
    0.8196221503228651    0.0487488487821458    0.3890246089828061    C1591
    0.8196221503228651    0.0487488487821458    0.7223579423161395    C1592
    0.8196221503228651    0.0487488487821458    0.0556912756494727    C1593
    0.2594308715133617    0.3322949308796403    0.4858169118482626    C1594
    0.2594308715133617    0.3322949308796403    0.8191502451815960    C1595
    0.2594308715133617    0.3322949308796403    0.1524835785149292    C1596
    0.2594308715133617    0.6656282642129736    0.4858169118482626    C1597
    0.2594308715133617    0.6656282642129736    0.8191502451815960    C1598
    0.2594308715133617    0.6656282642129736    0.1524835785149292    C1599
    0.2594308715133617    0.9989615975463070    0.4858169118482626    C1600
    0.2594308715133617    0.9989615975463070    0.8191502451815960    C1601
    0.2594308715133617    0.9989615975463070    0.1524835785149292    C1602
    0.5927642048466950    0.3322949308796403    0.4858169118482626    C1603
    0.5927642048466950    0.3322949308796403    0.8191502451815960    C1604
    0.5927642048466950    0.3322949308796403    0.1524835785149292    C1605
    0.5927642048466950    0.6656282642129736    0.4858169118482626    C1606
    0.5927642048466950    0.6656282642129736    0.8191502451815960    C1607
    0.5927642048466950    0.6656282642129736    0.1524835785149292    C1608
    0.5927642048466950    0.9989615975463070    0.4858169118482626    C1609
    0.5927642048466950    0.9989615975463070    0.8191502451815960    C1610
    0.5927642048466950    0.9989615975463070    0.1524835785149292    C1611
    0.9260975381800283    0.3322949308796403    0.4858169118482626    C1612
    0.9260975381800283    0.3322949308796403    0.8191502451815960    C1613
    0.9260975381800283    0.3322949308796403    0.1524835785149292    C1614
    0.9260975381800283    0.6656282642129736    0.4858169118482626    C1615
    0.9260975381800283    0.6656282642129736    0.8191502451815960    C1616
    0.9260975381800283    0.6656282642129736    0.1524835785149292    C1617
    0.9260975381800283    0.9989615975463070    0.4858169118482626    C1618
    0.9260975381800283    0.9989615975463070    0.8191502451815960    C1619
    0.9260975381800283    0.9989615975463070    0.1524835785149292    C1620
    0.2090627285334976    0.3780778097905029    0.5365749478150409    C1621
    0.2090627285334976    0.3780778097905029    0.8699082811483743    C1622
    0.2090627285334976    0.3780778097905029    0.2032416144817075    C1623
    0.2090627285334976    0.7114111431238361    0.5365749478150409    C1624
    0.2090627285334976    0.7114111431238361    0.8699082811483743    C1625
    0.2090627285334976    0.7114111431238361    0.2032416144817075    C1626
    0.2090627285334976    0.0447444764571695    0.5365749478150409    C1627
    0.2090627285334976    0.0447444764571695    0.8699082811483743    C1628
    0.2090627285334976    0.0447444764571695    0.2032416144817075    C1629
    0.5423960618668310    0.3780778097905029    0.5365749478150409    C1630
    0.5423960618668310    0.3780778097905029    0.8699082811483743    C1631
    0.5423960618668310    0.3780778097905029    0.2032416144817075    C1632
    0.5423960618668310    0.7114111431238361    0.5365749478150409    C1633
    0.5423960618668310    0.7114111431238361    0.8699082811483743    C1634
    0.5423960618668310    0.7114111431238361    0.2032416144817075    C1635
    0.5423960618668310    0.0447444764571695    0.5365749478150409    C1636
    0.5423960618668310    0.0447444764571695    0.8699082811483743    C1637
    0.5423960618668310    0.0447444764571695    0.2032416144817075    C1638
    0.8757293952001642    0.3780778097905029    0.5365749478150409    C1639
    0.8757293952001642    0.3780778097905029    0.8699082811483743    C1640
    0.8757293952001642    0.3780778097905029    0.2032416144817075    C1641
    0.8757293952001642    0.7114111431238361    0.5365749478150409    C1642
    0.8757293952001642    0.7114111431238361    0.8699082811483743    C1643
    0.8757293952001642    0.7114111431238361    0.2032416144817075    C1644
    0.8757293952001642    0.0447444764571695    0.5365749478150409    C1645
    0.8757293952001642    0.0447444764571695    0.8699082811483743    C1646
    0.8757293952001642    0.0447444764571695    0.2032416144817075    C1647
    0.9103985505556913    0.2271658941008819    0.4224542058230747    C1648
    0.9103985505556913    0.2271658941008819    0.7557875391564081    C1649
    0.9103985505556913    0.2271658941008819    0.0891208724897413    C1650
    0.9103985505556913    0.5604992274342153    0.4224542058230747    C1651
    0.9103985505556913    0.5604992274342153    0.7557875391564081    C1652
    0.9103985505556913    0.5604992274342153    0.0891208724897413    C1653
    0.9103985505556913    0.8938325607675486    0.4224542058230747    C1654
    0.9103985505556913    0.8938325607675486    0.7557875391564081    C1655
    0.9103985505556913    0.8938325607675486    0.0891208724897413    C1656
    0.2437318838890246    0.2271658941008819    0.4224542058230747    C1657
    0.2437318838890246    0.2271658941008819    0.7557875391564081    C1658
    0.2437318838890246    0.2271658941008819    0.0891208724897413    C1659
    0.2437318838890246    0.5604992274342153    0.4224542058230747    C1660
    0.2437318838890246    0.5604992274342153    0.7557875391564081    C1661
    0.2437318838890246    0.5604992274342153    0.0891208724897413    C1662
    0.2437318838890246    0.8938325607675486    0.4224542058230747    C1663
    0.2437318838890246    0.8938325607675486    0.7557875391564081    C1664
    0.2437318838890246    0.8938325607675486    0.0891208724897413    C1665
    0.5770652172223580    0.2271658941008819    0.4224542058230747    C1666
    0.5770652172223580    0.2271658941008819    0.7557875391564081    C1667
    0.5770652172223580    0.2271658941008819    0.0891208724897413    C1668
    0.5770652172223580    0.5604992274342153    0.4224542058230747    C1669
    0.5770652172223580    0.5604992274342153    0.7557875391564081    C1670
    0.5770652172223580    0.5604992274342153    0.0891208724897413    C1671
    0.5770652172223580    0.8938325607675486    0.4224542058230747    C1672
    0.5770652172223580    0.8938325607675486    0.7557875391564081    C1673
    0.5770652172223580    0.8938325607675486    0.0891208724897413    C1674
    0.1077182772800527    0.3180784822118266    0.4420752874096954    C1675
    0.1077182772800527    0.3180784822118266    0.7754086207430286    C1676
    0.1077182772800527    0.3180784822118266    0.1087419540763620    C1677
    0.1077182772800527    0.6514118155451598    0.4420752874096954    C1678
    0.1077182772800527    0.6514118155451598    0.7754086207430286    C1679
    0.1077182772800527    0.6514118155451598    0.1087419540763620    C1680
    0.1077182772800527    0.9847451488784932    0.4420752874096954    C1681
    0.1077182772800527    0.9847451488784932    0.7754086207430286    C1682
    0.1077182772800527    0.9847451488784932    0.1087419540763620    C1683
    0.4410516106133859    0.3180784822118266    0.4420752874096954    C1684
    0.4410516106133859    0.3180784822118266    0.7754086207430286    C1685
    0.4410516106133859    0.3180784822118266    0.1087419540763620    C1686
    0.4410516106133859    0.6514118155451598    0.4420752874096954    C1687
    0.4410516106133859    0.6514118155451598    0.7754086207430286    C1688
    0.4410516106133859    0.6514118155451598    0.1087419540763620    C1689
    0.4410516106133859    0.9847451488784932    0.4420752874096954    C1690
    0.4410516106133859    0.9847451488784932    0.7754086207430286    C1691
    0.4410516106133859    0.9847451488784932    0.1087419540763620    C1692
    0.7743849439467192    0.3180784822118266    0.4420752874096954    C1693
    0.7743849439467192    0.3180784822118266    0.7754086207430286    C1694
    0.7743849439467192    0.3180784822118266    0.1087419540763620    C1695
    0.7743849439467192    0.6514118155451598    0.4420752874096954    C1696
    0.7743849439467192    0.6514118155451598    0.7754086207430286    C1697
    0.7743849439467192    0.6514118155451598    0.1087419540763620    C1698
    0.7743849439467192    0.9847451488784932    0.4420752874096954    C1699
    0.7743849439467192    0.9847451488784932    0.7754086207430286    C1700
    0.7743849439467192    0.9847451488784932    0.1087419540763620    C1701
    0.0938325219131455    0.3517176990952577    0.4562144144036784    C1702
    0.0938325219131455    0.3517176990952577    0.7895477477370118    C1703
    0.0938325219131455    0.3517176990952577    0.1228810810703450    C1704
    0.0938325219131455    0.6850510324285910    0.4562144144036784    C1705
    0.0938325219131455    0.6850510324285910    0.7895477477370118    C1706
    0.0938325219131455    0.6850510324285910    0.1228810810703450    C1707
    0.0938325219131455    0.0183843657619243    0.4562144144036784    C1708
    0.0938325219131455    0.0183843657619243    0.7895477477370118    C1709
    0.0938325219131455    0.0183843657619243    0.1228810810703450    C1710
    0.4271658552464789    0.3517176990952577    0.4562144144036784    C1711
    0.4271658552464789    0.3517176990952577    0.7895477477370118    C1712
    0.4271658552464789    0.3517176990952577    0.1228810810703450    C1713
    0.4271658552464789    0.6850510324285910    0.4562144144036784    C1714
    0.4271658552464789    0.6850510324285910    0.7895477477370118    C1715
    0.4271658552464789    0.6850510324285910    0.1228810810703450    C1716
    0.4271658552464789    0.0183843657619243    0.4562144144036784    C1717
    0.4271658552464789    0.0183843657619243    0.7895477477370118    C1718
    0.4271658552464789    0.0183843657619243    0.1228810810703450    C1719
    0.7604991885798122    0.3517176990952577    0.4562144144036784    C1720
    0.7604991885798122    0.3517176990952577    0.7895477477370118    C1721
    0.7604991885798122    0.3517176990952577    0.1228810810703450    C1722
    0.7604991885798122    0.6850510324285910    0.4562144144036784    C1723
    0.7604991885798122    0.6850510324285910    0.7895477477370118    C1724
    0.7604991885798122    0.6850510324285910    0.1228810810703450    C1725
    0.7604991885798122    0.0183843657619243    0.4562144144036784    C1726
    0.7604991885798122    0.0183843657619243    0.7895477477370118    C1727
    0.7604991885798122    0.0183843657619243    0.1228810810703450    C1728
    0.9822648861768841    0.2060222429987787    0.0782594001192639    C1729
    0.9822648861768841    0.2060222429987787    0.4115927334525973    C1730
    0.9822648861768841    0.2060222429987787    0.7449260667859307    C1731
    0.9822648861768841    0.5393555763321121    0.0782594001192639    C1732
    0.9822648861768841    0.5393555763321121    0.4115927334525973    C1733
    0.9822648861768841    0.5393555763321121    0.7449260667859307    C1734
    0.9822648861768841    0.8726889096654454    0.0782594001192639    C1735
    0.9822648861768841    0.8726889096654454    0.4115927334525973    C1736
    0.9822648861768841    0.8726889096654454    0.7449260667859307    C1737
    0.3155982195102174    0.2060222429987787    0.0782594001192639    C1738
    0.3155982195102174    0.2060222429987787    0.4115927334525973    C1739
    0.3155982195102174    0.2060222429987787    0.7449260667859307    C1740
    0.3155982195102174    0.5393555763321121    0.0782594001192639    C1741
    0.3155982195102174    0.5393555763321121    0.4115927334525973    C1742
    0.3155982195102174    0.5393555763321121    0.7449260667859307    C1743
    0.3155982195102174    0.8726889096654454    0.0782594001192639    C1744
    0.3155982195102174    0.8726889096654454    0.4115927334525973    C1745
    0.3155982195102174    0.8726889096654454    0.7449260667859307    C1746
    0.6489315528435506    0.2060222429987787    0.0782594001192639    C1747
    0.6489315528435506    0.2060222429987787    0.4115927334525973    C1748
    0.6489315528435506    0.2060222429987787    0.7449260667859307    C1749
    0.6489315528435506    0.5393555763321121    0.0782594001192639    C1750
    0.6489315528435506    0.5393555763321121    0.4115927334525973    C1751
    0.6489315528435506    0.5393555763321121    0.7449260667859307    C1752
    0.6489315528435506    0.8726889096654454    0.0782594001192639    C1753
    0.6489315528435506    0.8726889096654454    0.4115927334525973    C1754
    0.6489315528435506    0.8726889096654454    0.7449260667859307    C1755
    0.0403438889996668    0.1473702546609376    0.2827316050886520    C1756
    0.0403438889996668    0.1473702546609376    0.6160649384219854    C1757
    0.0403438889996668    0.1473702546609376    0.9493982717553187    C1758
    0.0403438889996668    0.4807035879942709    0.2827316050886520    C1759
    0.0403438889996668    0.4807035879942709    0.6160649384219854    C1760
    0.0403438889996668    0.4807035879942709    0.9493982717553187    C1761
    0.0403438889996668    0.8140369213276042    0.2827316050886520    C1762
    0.0403438889996668    0.8140369213276042    0.6160649384219854    C1763
    0.0403438889996668    0.8140369213276042    0.9493982717553187    C1764
    0.3736772223330002    0.1473702546609376    0.2827316050886520    C1765
    0.3736772223330002    0.1473702546609376    0.6160649384219854    C1766
    0.3736772223330002    0.1473702546609376    0.9493982717553187    C1767
    0.3736772223330002    0.4807035879942709    0.2827316050886520    C1768
    0.3736772223330002    0.4807035879942709    0.6160649384219854    C1769
    0.3736772223330002    0.4807035879942709    0.9493982717553187    C1770
    0.3736772223330002    0.8140369213276042    0.2827316050886520    C1771
    0.3736772223330002    0.8140369213276042    0.6160649384219854    C1772
    0.3736772223330002    0.8140369213276042    0.9493982717553187    C1773
    0.7070105556663335    0.1473702546609376    0.2827316050886520    C1774
    0.7070105556663335    0.1473702546609376    0.6160649384219854    C1775
    0.7070105556663335    0.1473702546609376    0.9493982717553187    C1776
    0.7070105556663335    0.4807035879942709    0.2827316050886520    C1777
    0.7070105556663335    0.4807035879942709    0.6160649384219854    C1778
    0.7070105556663335    0.4807035879942709    0.9493982717553187    C1779
    0.7070105556663335    0.8140369213276042    0.2827316050886520    C1780
    0.7070105556663335    0.8140369213276042    0.6160649384219854    C1781
    0.7070105556663335    0.8140369213276042    0.9493982717553187    C1782
    0.1646868445234966    0.3463601146743829    0.3935609043225372    C1783
    0.1646868445234966    0.3463601146743829    0.7268942376558705    C1784
    0.1646868445234966    0.3463601146743829    0.0602275709892038    C1785
    0.1646868445234966    0.6796934480077162    0.3935609043225372    C1786
    0.1646868445234966    0.6796934480077162    0.7268942376558705    C1787
    0.1646868445234966    0.6796934480077162    0.0602275709892038    C1788
    0.1646868445234966    0.0130267813410495    0.3935609043225372    C1789
    0.1646868445234966    0.0130267813410495    0.7268942376558705    C1790
    0.1646868445234966    0.0130267813410495    0.0602275709892038    C1791
    0.4980201778568301    0.3463601146743829    0.3935609043225372    C1792
    0.4980201778568301    0.3463601146743829    0.7268942376558705    C1793
    0.4980201778568301    0.3463601146743829    0.0602275709892038    C1794
    0.4980201778568301    0.6796934480077162    0.3935609043225372    C1795
    0.4980201778568301    0.6796934480077162    0.7268942376558705    C1796
    0.4980201778568301    0.6796934480077162    0.0602275709892038    C1797
    0.4980201778568301    0.0130267813410495    0.3935609043225372    C1798
    0.4980201778568301    0.0130267813410495    0.7268942376558705    C1799
    0.4980201778568301    0.0130267813410495    0.0602275709892038    C1800
    0.8313535111901633    0.3463601146743829    0.3935609043225372    C1801
    0.8313535111901633    0.3463601146743829    0.7268942376558705    C1802
    0.8313535111901633    0.3463601146743829    0.0602275709892038    C1803
    0.8313535111901633    0.6796934480077162    0.3935609043225372    C1804
    0.8313535111901633    0.6796934480077162    0.7268942376558705    C1805
    0.8313535111901633    0.6796934480077162    0.0602275709892038    C1806
    0.8313535111901633    0.0130267813410495    0.3935609043225372    C1807
    0.8313535111901633    0.0130267813410495    0.7268942376558705    C1808
    0.8313535111901633    0.0130267813410495    0.0602275709892038    C1809
    0.0349746394925744    0.2032150826400198    0.3174164960255930    C1810
    0.0349746394925744    0.2032150826400198    0.6507498293589262    C1811
    0.0349746394925744    0.2032150826400198    0.9840831626922596    C1812
    0.0349746394925744    0.5365484159733530    0.3174164960255930    C1813
    0.0349746394925744    0.5365484159733530    0.6507498293589262    C1814
    0.0349746394925744    0.5365484159733530    0.9840831626922596    C1815
    0.0349746394925744    0.8698817493066864    0.3174164960255930    C1816
    0.0349746394925744    0.8698817493066864    0.6507498293589262    C1817
    0.0349746394925744    0.8698817493066864    0.9840831626922596    C1818
    0.3683079728259078    0.2032150826400198    0.3174164960255930    C1819
    0.3683079728259078    0.2032150826400198    0.6507498293589262    C1820
    0.3683079728259078    0.2032150826400198    0.9840831626922596    C1821
    0.3683079728259078    0.5365484159733530    0.3174164960255930    C1822
    0.3683079728259078    0.5365484159733530    0.6507498293589262    C1823
    0.3683079728259078    0.5365484159733530    0.9840831626922596    C1824
    0.3683079728259078    0.8698817493066864    0.3174164960255930    C1825
    0.3683079728259078    0.8698817493066864    0.6507498293589262    C1826
    0.3683079728259078    0.8698817493066864    0.9840831626922596    C1827
    0.7016413061592410    0.2032150826400198    0.3174164960255930    C1828
    0.7016413061592410    0.2032150826400198    0.6507498293589262    C1829
    0.7016413061592410    0.2032150826400198    0.9840831626922596    C1830
    0.7016413061592410    0.5365484159733530    0.3174164960255930    C1831
    0.7016413061592410    0.5365484159733530    0.6507498293589262    C1832
    0.7016413061592410    0.5365484159733530    0.9840831626922596    C1833
    0.7016413061592410    0.8698817493066864    0.3174164960255930    C1834
    0.7016413061592410    0.8698817493066864    0.6507498293589262    C1835
    0.7016413061592410    0.8698817493066864    0.9840831626922596    C1836
    0.1319510658217828    0.3239726530413432    0.3738605452126321    C1837
    0.1319510658217828    0.3239726530413432    0.7071938785459655    C1838
    0.1319510658217828    0.3239726530413432    0.0405272118792988    C1839
    0.1319510658217828    0.6573059863746765    0.3738605452126321    C1840
    0.1319510658217828    0.6573059863746765    0.7071938785459655    C1841
    0.1319510658217828    0.6573059863746765    0.0405272118792988    C1842
    0.1319510658217828    0.9906393197080098    0.3738605452126321    C1843
    0.1319510658217828    0.9906393197080098    0.7071938785459655    C1844
    0.1319510658217828    0.9906393197080098    0.0405272118792988    C1845
    0.4652843991551161    0.3239726530413432    0.3738605452126321    C1846
    0.4652843991551161    0.3239726530413432    0.7071938785459655    C1847
    0.4652843991551161    0.3239726530413432    0.0405272118792988    C1848
    0.4652843991551161    0.6573059863746765    0.3738605452126321    C1849
    0.4652843991551161    0.6573059863746765    0.7071938785459655    C1850
    0.4652843991551161    0.6573059863746765    0.0405272118792988    C1851
    0.4652843991551161    0.9906393197080098    0.3738605452126321    C1852
    0.4652843991551161    0.9906393197080098    0.7071938785459655    C1853
    0.4652843991551161    0.9906393197080098    0.0405272118792988    C1854
    0.7986177324884495    0.3239726530413432    0.3738605452126321    C1855
    0.7986177324884495    0.3239726530413432    0.7071938785459655    C1856
    0.7986177324884495    0.3239726530413432    0.0405272118792988    C1857
    0.7986177324884495    0.6573059863746765    0.3738605452126321    C1858
    0.7986177324884495    0.6573059863746765    0.7071938785459655    C1859
    0.7986177324884495    0.6573059863746765    0.0405272118792988    C1860
    0.7986177324884495    0.9906393197080098    0.3738605452126321    C1861
    0.7986177324884495    0.9906393197080098    0.7071938785459655    C1862
    0.7986177324884495    0.9906393197080098    0.0405272118792988    C1863
    0.0552851298476428    0.1804742265868486    0.2917403997110761    C1864
    0.0552851298476428    0.1804742265868486    0.6250737330444095    C1865
    0.0552851298476428    0.1804742265868486    0.9584070663777429    C1866
    0.0552851298476428    0.5138075599201820    0.2917403997110761    C1867
    0.0552851298476428    0.5138075599201820    0.6250737330444095    C1868
    0.0552851298476428    0.5138075599201820    0.9584070663777429    C1869
    0.0552851298476428    0.8471408932535154    0.2917403997110761    C1870
    0.0552851298476428    0.8471408932535154    0.6250737330444095    C1871
    0.0552851298476428    0.8471408932535154    0.9584070663777429    C1872
    0.3886184631809761    0.1804742265868486    0.2917403997110761    C1873
    0.3886184631809761    0.1804742265868486    0.6250737330444095    C1874
    0.3886184631809761    0.1804742265868486    0.9584070663777429    C1875
    0.3886184631809761    0.5138075599201820    0.2917403997110761    C1876
    0.3886184631809761    0.5138075599201820    0.6250737330444095    C1877
    0.3886184631809761    0.5138075599201820    0.9584070663777429    C1878
    0.3886184631809761    0.8471408932535154    0.2917403997110761    C1879
    0.3886184631809761    0.8471408932535154    0.6250737330444095    C1880
    0.3886184631809761    0.8471408932535154    0.9584070663777429    C1881
    0.7219517965143094    0.1804742265868486    0.2917403997110761    C1882
    0.7219517965143094    0.1804742265868486    0.6250737330444095    C1883
    0.7219517965143094    0.1804742265868486    0.9584070663777429    C1884
    0.7219517965143094    0.5138075599201820    0.2917403997110761    C1885
    0.7219517965143094    0.5138075599201820    0.6250737330444095    C1886
    0.7219517965143094    0.5138075599201820    0.9584070663777429    C1887
    0.7219517965143094    0.8471408932535154    0.2917403997110761    C1888
    0.7219517965143094    0.8471408932535154    0.6250737330444095    C1889
    0.7219517965143094    0.8471408932535154    0.9584070663777429    C1890
    0.0538035454219957    0.1921805718554659    0.1081342880805780    C1891
    0.0538035454219957    0.1921805718554659    0.4414676214139114    C1892
    0.0538035454219957    0.1921805718554659    0.7748009547472448    C1893
    0.0538035454219957    0.5255139051887991    0.1081342880805780    C1894
    0.0538035454219957    0.5255139051887991    0.4414676214139114    C1895
    0.0538035454219957    0.5255139051887991    0.7748009547472448    C1896
    0.0538035454219957    0.8588472385221324    0.1081342880805780    C1897
    0.0538035454219957    0.8588472385221324    0.4414676214139114    C1898
    0.0538035454219957    0.8588472385221324    0.7748009547472448    C1899
    0.3871368787553291    0.1921805718554659    0.1081342880805780    C1900
    0.3871368787553291    0.1921805718554659    0.4414676214139114    C1901
    0.3871368787553291    0.1921805718554659    0.7748009547472448    C1902
    0.3871368787553291    0.5255139051887991    0.1081342880805780    C1903
    0.3871368787553291    0.5255139051887991    0.4414676214139114    C1904
    0.3871368787553291    0.5255139051887991    0.7748009547472448    C1905
    0.3871368787553291    0.8588472385221324    0.1081342880805780    C1906
    0.3871368787553291    0.8588472385221324    0.4414676214139114    C1907
    0.3871368787553291    0.8588472385221324    0.7748009547472448    C1908
    0.7204702120886624    0.1921805718554659    0.1081342880805780    C1909
    0.7204702120886624    0.1921805718554659    0.4414676214139114    C1910
    0.7204702120886624    0.1921805718554659    0.7748009547472448    C1911
    0.7204702120886624    0.5255139051887991    0.1081342880805780    C1912
    0.7204702120886624    0.5255139051887991    0.4414676214139114    C1913
    0.7204702120886624    0.5255139051887991    0.7748009547472448    C1914
    0.7204702120886624    0.8588472385221324    0.1081342880805780    C1915
    0.7204702120886624    0.8588472385221324    0.4414676214139114    C1916
    0.7204702120886624    0.8588472385221324    0.7748009547472448    C1917
    0.1719234078103160    0.3020559128301901    0.3300087246878542    C1918
    0.1719234078103160    0.3020559128301901    0.6633420580211875    C1919
    0.1719234078103160    0.3020559128301901    0.9966753913545209    C1920
    0.1719234078103160    0.6353892461635233    0.3300087246878542    C1921
    0.1719234078103160    0.6353892461635233    0.6633420580211875    C1922
    0.1719234078103160    0.6353892461635233    0.9966753913545209    C1923
    0.1719234078103160    0.9687225794968566    0.3300087246878542    C1924
    0.1719234078103160    0.9687225794968566    0.6633420580211875    C1925
    0.1719234078103160    0.9687225794968566    0.9966753913545209    C1926
    0.5052567411436493    0.3020559128301901    0.3300087246878542    C1927
    0.5052567411436493    0.3020559128301901    0.6633420580211875    C1928
    0.5052567411436493    0.3020559128301901    0.9966753913545209    C1929
    0.5052567411436493    0.6353892461635233    0.3300087246878542    C1930
    0.5052567411436493    0.6353892461635233    0.6633420580211875    C1931
    0.5052567411436493    0.6353892461635233    0.9966753913545209    C1932
    0.5052567411436493    0.9687225794968566    0.3300087246878542    C1933
    0.5052567411436493    0.9687225794968566    0.6633420580211875    C1934
    0.5052567411436493    0.9687225794968566    0.9966753913545209    C1935
    0.8385900744769825    0.3020559128301901    0.3300087246878542    C1936
    0.8385900744769825    0.3020559128301901    0.6633420580211875    C1937
    0.8385900744769825    0.3020559128301901    0.9966753913545209    C1938
    0.8385900744769825    0.6353892461635233    0.3300087246878542    C1939
    0.8385900744769825    0.6353892461635233    0.6633420580211875    C1940
    0.8385900744769825    0.6353892461635233    0.9966753913545209    C1941
    0.8385900744769825    0.9687225794968566    0.3300087246878542    C1942
    0.8385900744769825    0.9687225794968566    0.6633420580211875    C1943
    0.8385900744769825    0.9687225794968566    0.9966753913545209    C1944
    0.2578734401257508    0.3495385477236296    0.1380835009599187     H001
    0.2578734401257508    0.3495385477236296    0.4714168342932521     H002
    0.2578734401257508    0.3495385477236296    0.8047501676265854     H003
    0.2578734401257508    0.6828718810569629    0.1380835009599187     H004
    0.2578734401257508    0.6828718810569629    0.4714168342932521     H005
    0.2578734401257508    0.6828718810569629    0.8047501676265854     H006
    0.2578734401257508    0.0162052143902962    0.1380835009599187     H007
    0.2578734401257508    0.0162052143902962    0.4714168342932521     H008
    0.2578734401257508    0.0162052143902962    0.8047501676265854     H009
    0.5912067734590840    0.3495385477236296    0.1380835009599187     H010
    0.5912067734590840    0.3495385477236296    0.4714168342932521     H011
    0.5912067734590840    0.3495385477236296    0.8047501676265854     H012
    0.5912067734590840    0.6828718810569629    0.1380835009599187     H013
    0.5912067734590840    0.6828718810569629    0.4714168342932521     H014
    0.5912067734590840    0.6828718810569629    0.8047501676265854     H015
    0.5912067734590840    0.0162052143902962    0.1380835009599187     H016
    0.5912067734590840    0.0162052143902962    0.4714168342932521     H017
    0.5912067734590840    0.0162052143902962    0.8047501676265854     H018
    0.9245401067924174    0.3495385477236296    0.1380835009599187     H019
    0.9245401067924174    0.3495385477236296    0.4714168342932521     H020
    0.9245401067924174    0.3495385477236296    0.8047501676265854     H021
    0.9245401067924174    0.6828718810569629    0.1380835009599187     H022
    0.9245401067924174    0.6828718810569629    0.4714168342932521     H023
    0.9245401067924174    0.6828718810569629    0.8047501676265854     H024
    0.9245401067924174    0.0162052143902962    0.1380835009599187     H025
    0.9245401067924174    0.0162052143902962    0.4714168342932521     H026
    0.9245401067924174    0.0162052143902962    0.8047501676265854     H027
    0.2689799944985163    0.3475667256236503    0.1776078574141357     H028
    0.2689799944985163    0.3475667256236503    0.5109411907474690     H029
    0.2689799944985163    0.3475667256236503    0.8442745240808023     H030
    0.2689799944985163    0.6809000589569836    0.1776078574141357     H031
    0.2689799944985163    0.6809000589569836    0.5109411907474690     H032
    0.2689799944985163    0.6809000589569836    0.8442745240808023     H033
    0.2689799944985163    0.0142333922903169    0.1776078574141357     H034
    0.2689799944985163    0.0142333922903169    0.5109411907474690     H035
    0.2689799944985163    0.0142333922903169    0.8442745240808023     H036
    0.6023133278318497    0.3475667256236503    0.1776078574141357     H037
    0.6023133278318497    0.3475667256236503    0.5109411907474690     H038
    0.6023133278318497    0.3475667256236503    0.8442745240808023     H039
    0.6023133278318497    0.6809000589569836    0.1776078574141357     H040
    0.6023133278318497    0.6809000589569836    0.5109411907474690     H041
    0.6023133278318497    0.6809000589569836    0.8442745240808023     H042
    0.6023133278318497    0.0142333922903169    0.1776078574141357     H043
    0.6023133278318497    0.0142333922903169    0.5109411907474690     H044
    0.6023133278318497    0.0142333922903169    0.8442745240808023     H045
    0.9356466611651829    0.3475667256236503    0.1776078574141357     H046
    0.9356466611651829    0.3475667256236503    0.5109411907474690     H047
    0.9356466611651829    0.3475667256236503    0.8442745240808023     H048
    0.9356466611651829    0.6809000589569836    0.1776078574141357     H049
    0.9356466611651829    0.6809000589569836    0.5109411907474690     H050
    0.9356466611651829    0.6809000589569836    0.8442745240808023     H051
    0.9356466611651829    0.0142333922903169    0.1776078574141357     H052
    0.9356466611651829    0.0142333922903169    0.5109411907474690     H053
    0.9356466611651829    0.0142333922903169    0.8442745240808023     H054
    0.1093050768307302    0.3792184738019879    0.2660474675825583     H055
    0.1093050768307302    0.3792184738019879    0.5993808009158916     H056
    0.1093050768307302    0.3792184738019879    0.9327141342492249     H057
    0.1093050768307302    0.7125518071353212    0.2660474675825583     H058
    0.1093050768307302    0.7125518071353212    0.5993808009158916     H059
    0.1093050768307302    0.7125518071353212    0.9327141342492249     H060
    0.1093050768307302    0.0458851404686545    0.2660474675825583     H061
    0.1093050768307302    0.0458851404686545    0.5993808009158916     H062
    0.1093050768307302    0.0458851404686545    0.9327141342492249     H063
    0.4426384101640636    0.3792184738019879    0.2660474675825583     H064
    0.4426384101640636    0.3792184738019879    0.5993808009158916     H065
    0.4426384101640636    0.3792184738019879    0.9327141342492249     H066
    0.4426384101640636    0.7125518071353212    0.2660474675825583     H067
    0.4426384101640636    0.7125518071353212    0.5993808009158916     H068
    0.4426384101640636    0.7125518071353212    0.9327141342492249     H069
    0.4426384101640636    0.0458851404686545    0.2660474675825583     H070
    0.4426384101640636    0.0458851404686545    0.5993808009158916     H071
    0.4426384101640636    0.0458851404686545    0.9327141342492249     H072
    0.7759717434973968    0.3792184738019879    0.2660474675825583     H073
    0.7759717434973968    0.3792184738019879    0.5993808009158916     H074
    0.7759717434973968    0.3792184738019879    0.9327141342492249     H075
    0.7759717434973968    0.7125518071353212    0.2660474675825583     H076
    0.7759717434973968    0.7125518071353212    0.5993808009158916     H077
    0.7759717434973968    0.7125518071353212    0.9327141342492249     H078
    0.7759717434973968    0.0458851404686545    0.2660474675825583     H079
    0.7759717434973968    0.0458851404686545    0.5993808009158916     H080
    0.7759717434973968    0.0458851404686545    0.9327141342492249     H081
    0.1252011946377429    0.3643563832053757    0.1772503243856154     H082
    0.1252011946377429    0.3643563832053757    0.5105836577189486     H083
    0.1252011946377429    0.3643563832053757    0.8439169910522820     H084
    0.1252011946377429    0.6976897165387090    0.1772503243856154     H085
    0.1252011946377429    0.6976897165387090    0.5105836577189486     H086
    0.1252011946377429    0.6976897165387090    0.8439169910522820     H087
    0.1252011946377429    0.0310230498720423    0.1772503243856154     H088
    0.1252011946377429    0.0310230498720423    0.5105836577189486     H089
    0.1252011946377429    0.0310230498720423    0.8439169910522820     H090
    0.4585345279710763    0.3643563832053757    0.1772503243856154     H091
    0.4585345279710763    0.3643563832053757    0.5105836577189486     H092
    0.4585345279710763    0.3643563832053757    0.8439169910522820     H093
    0.4585345279710763    0.6976897165387090    0.1772503243856154     H094
    0.4585345279710763    0.6976897165387090    0.5105836577189486     H095
    0.4585345279710763    0.6976897165387090    0.8439169910522820     H096
    0.4585345279710763    0.0310230498720423    0.1772503243856154     H097
    0.4585345279710763    0.0310230498720423    0.5105836577189486     H098
    0.4585345279710763    0.0310230498720423    0.8439169910522820     H099
    0.7918678613044097    0.3643563832053757    0.1772503243856154     H100
    0.7918678613044097    0.3643563832053757    0.5105836577189486     H101
    0.7918678613044097    0.3643563832053757    0.8439169910522820     H102
    0.7918678613044097    0.6976897165387090    0.1772503243856154     H103
    0.7918678613044097    0.6976897165387090    0.5105836577189486     H104
    0.7918678613044097    0.6976897165387090    0.8439169910522820     H105
    0.7918678613044097    0.0310230498720423    0.1772503243856154     H106
    0.7918678613044097    0.0310230498720423    0.5105836577189486     H107
    0.7918678613044097    0.0310230498720423    0.8439169910522820     H108
    0.1965201951628236    0.3609876345288363    0.5484112603459900     H109
    0.1965201951628236    0.3609876345288363    0.8817445936793232     H110
    0.1965201951628236    0.3609876345288363    0.2150779270126566     H111
    0.1965201951628236    0.6943209678621697    0.5484112603459900     H112
    0.1965201951628236    0.6943209678621697    0.8817445936793232     H113
    0.1965201951628236    0.6943209678621697    0.2150779270126566     H114
    0.1965201951628236    0.0276543011955030    0.5484112603459900     H115
    0.1965201951628236    0.0276543011955030    0.8817445936793232     H116
    0.1965201951628236    0.0276543011955030    0.2150779270126566     H117
    0.5298535284961569    0.3609876345288363    0.5484112603459900     H118
    0.5298535284961569    0.3609876345288363    0.8817445936793232     H119
    0.5298535284961569    0.3609876345288363    0.2150779270126566     H120
    0.5298535284961569    0.6943209678621697    0.5484112603459900     H121
    0.5298535284961569    0.6943209678621697    0.8817445936793232     H122
    0.5298535284961569    0.6943209678621697    0.2150779270126566     H123
    0.5298535284961569    0.0276543011955030    0.5484112603459900     H124
    0.5298535284961569    0.0276543011955030    0.8817445936793232     H125
    0.5298535284961569    0.0276543011955030    0.2150779270126566     H126
    0.8631868618294902    0.3609876345288363    0.5484112603459900     H127
    0.8631868618294902    0.3609876345288363    0.8817445936793232     H128
    0.8631868618294902    0.3609876345288363    0.2150779270126566     H129
    0.8631868618294902    0.6943209678621697    0.5484112603459900     H130
    0.8631868618294902    0.6943209678621697    0.8817445936793232     H131
    0.8631868618294902    0.6943209678621697    0.2150779270126566     H132
    0.8631868618294902    0.0276543011955030    0.5484112603459900     H133
    0.8631868618294902    0.0276543011955030    0.8817445936793232     H134
    0.8631868618294902    0.0276543011955030    0.2150779270126566     H135
    0.1377220714754266    0.1248045002696391    0.2326513875802843     H136
    0.1377220714754266    0.1248045002696391    0.5659847209136175     H137
    0.1377220714754266    0.1248045002696391    0.8993180542469508     H138
    0.1377220714754266    0.4581378336029724    0.2326513875802843     H139
    0.1377220714754266    0.4581378336029724    0.5659847209136175     H140
    0.1377220714754266    0.4581378336029724    0.8993180542469508     H141
    0.1377220714754266    0.7914711669363058    0.2326513875802843     H142
    0.1377220714754266    0.7914711669363058    0.5659847209136175     H143
    0.1377220714754266    0.7914711669363058    0.8993180542469508     H144
    0.4710554048087601    0.1248045002696391    0.2326513875802843     H145
    0.4710554048087601    0.1248045002696391    0.5659847209136175     H146
    0.4710554048087601    0.1248045002696391    0.8993180542469508     H147
    0.4710554048087601    0.4581378336029724    0.2326513875802843     H148
    0.4710554048087601    0.4581378336029724    0.5659847209136175     H149
    0.4710554048087601    0.4581378336029724    0.8993180542469508     H150
    0.4710554048087601    0.7914711669363058    0.2326513875802843     H151
    0.4710554048087601    0.7914711669363058    0.5659847209136175     H152
    0.4710554048087601    0.7914711669363058    0.8993180542469508     H153
    0.8043887381420933    0.1248045002696391    0.2326513875802843     H154
    0.8043887381420933    0.1248045002696391    0.5659847209136175     H155
    0.8043887381420933    0.1248045002696391    0.8993180542469508     H156
    0.8043887381420933    0.4581378336029724    0.2326513875802843     H157
    0.8043887381420933    0.4581378336029724    0.5659847209136175     H158
    0.8043887381420933    0.4581378336029724    0.8993180542469508     H159
    0.8043887381420933    0.7914711669363058    0.2326513875802843     H160
    0.8043887381420933    0.7914711669363058    0.5659847209136175     H161
    0.8043887381420933    0.7914711669363058    0.8993180542469508     H162
    0.0748836038879830    0.4267356494111476    0.2028474695978943     H163
    0.0748836038879830    0.4267356494111476    0.5361808029312276     H164
    0.0748836038879830    0.4267356494111476    0.8695141362645610     H165
    0.0748836038879830    0.7600689827444809    0.2028474695978943     H166
    0.0748836038879830    0.7600689827444809    0.5361808029312276     H167
    0.0748836038879830    0.7600689827444809    0.8695141362645610     H168
    0.0748836038879830    0.0934023160778142    0.2028474695978943     H169
    0.0748836038879830    0.0934023160778142    0.5361808029312276     H170
    0.0748836038879830    0.0934023160778142    0.8695141362645610     H171
    0.4082169372213164    0.4267356494111476    0.2028474695978943     H172
    0.4082169372213164    0.4267356494111476    0.5361808029312276     H173
    0.4082169372213164    0.4267356494111476    0.8695141362645610     H174
    0.4082169372213164    0.7600689827444809    0.2028474695978943     H175
    0.4082169372213164    0.7600689827444809    0.5361808029312276     H176
    0.4082169372213164    0.7600689827444809    0.8695141362645610     H177
    0.4082169372213164    0.0934023160778142    0.2028474695978943     H178
    0.4082169372213164    0.0934023160778142    0.5361808029312276     H179
    0.4082169372213164    0.0934023160778142    0.8695141362645610     H180
    0.7415502705546497    0.4267356494111476    0.2028474695978943     H181
    0.7415502705546497    0.4267356494111476    0.5361808029312276     H182
    0.7415502705546497    0.4267356494111476    0.8695141362645610     H183
    0.7415502705546497    0.7600689827444809    0.2028474695978943     H184
    0.7415502705546497    0.7600689827444809    0.5361808029312276     H185
    0.7415502705546497    0.7600689827444809    0.8695141362645610     H186
    0.7415502705546497    0.0934023160778142    0.2028474695978943     H187
    0.7415502705546497    0.0934023160778142    0.5361808029312276     H188
    0.7415502705546497    0.0934023160778142    0.8695141362645610     H189
    0.2086569046376592    0.3211807175643616    0.5005765956496306     H190
    0.2086569046376592    0.3211807175643616    0.8339099289829640     H191
    0.2086569046376592    0.3211807175643616    0.1672432623162973     H192
    0.2086569046376592    0.6545140508976950    0.5005765956496306     H193
    0.2086569046376592    0.6545140508976950    0.8339099289829640     H194
    0.2086569046376592    0.6545140508976950    0.1672432623162973     H195
    0.2086569046376592    0.9878473842310282    0.5005765956496306     H196
    0.2086569046376592    0.9878473842310282    0.8339099289829640     H197
    0.2086569046376592    0.9878473842310282    0.1672432623162973     H198
    0.5419902379709924    0.3211807175643616    0.5005765956496306     H199
    0.5419902379709924    0.3211807175643616    0.8339099289829640     H200
    0.5419902379709924    0.3211807175643616    0.1672432623162973     H201
    0.5419902379709924    0.6545140508976950    0.5005765956496306     H202
    0.5419902379709924    0.6545140508976950    0.8339099289829640     H203
    0.5419902379709924    0.6545140508976950    0.1672432623162973     H204
    0.5419902379709924    0.9878473842310282    0.5005765956496306     H205
    0.5419902379709924    0.9878473842310282    0.8339099289829640     H206
    0.5419902379709924    0.9878473842310282    0.1672432623162973     H207
    0.8753235713043257    0.3211807175643616    0.5005765956496306     H208
    0.8753235713043257    0.3211807175643616    0.8339099289829640     H209
    0.8753235713043257    0.3211807175643616    0.1672432623162973     H210
    0.8753235713043257    0.6545140508976950    0.5005765956496306     H211
    0.8753235713043257    0.6545140508976950    0.8339099289829640     H212
    0.8753235713043257    0.6545140508976950    0.1672432623162973     H213
    0.8753235713043257    0.9878473842310282    0.5005765956496306     H214
    0.8753235713043257    0.9878473842310282    0.8339099289829640     H215
    0.8753235713043257    0.9878473842310282    0.1672432623162973     H216
    0.1436106207087859    0.2247805158665431    0.3925807624238515     H217
    0.1436106207087859    0.2247805158665431    0.7259140957571848     H218
    0.1436106207087859    0.2247805158665431    0.0592474290905181     H219
    0.1436106207087859    0.5581138491998765    0.3925807624238515     H220
    0.1436106207087859    0.5581138491998765    0.7259140957571848     H221
    0.1436106207087859    0.5581138491998765    0.0592474290905181     H222
    0.1436106207087859    0.8914471825332098    0.3925807624238515     H223
    0.1436106207087859    0.8914471825332098    0.7259140957571848     H224
    0.1436106207087859    0.8914471825332098    0.0592474290905181     H225
    0.4769439540421193    0.2247805158665431    0.3925807624238515     H226
    0.4769439540421193    0.2247805158665431    0.7259140957571848     H227
    0.4769439540421193    0.2247805158665431    0.0592474290905181     H228
    0.4769439540421193    0.5581138491998765    0.3925807624238515     H229
    0.4769439540421193    0.5581138491998765    0.7259140957571848     H230
    0.4769439540421193    0.5581138491998765    0.0592474290905181     H231
    0.4769439540421193    0.8914471825332098    0.3925807624238515     H232
    0.4769439540421193    0.8914471825332098    0.7259140957571848     H233
    0.4769439540421193    0.8914471825332098    0.0592474290905181     H234
    0.8102772873754526    0.2247805158665431    0.3925807624238515     H235
    0.8102772873754526    0.2247805158665431    0.7259140957571848     H236
    0.8102772873754526    0.2247805158665431    0.0592474290905181     H237
    0.8102772873754526    0.5581138491998765    0.3925807624238515     H238
    0.8102772873754526    0.5581138491998765    0.7259140957571848     H239
    0.8102772873754526    0.5581138491998765    0.0592474290905181     H240
    0.8102772873754526    0.8914471825332098    0.3925807624238515     H241
    0.8102772873754526    0.8914471825332098    0.7259140957571848     H242
    0.8102772873754526    0.8914471825332098    0.0592474290905181     H243
    0.1729483192137725    0.3469033581412040    0.4215173884646728     H244
    0.1729483192137725    0.3469033581412040    0.7548507217980061     H245
    0.1729483192137725    0.3469033581412040    0.0881840551313394     H246
    0.1729483192137725    0.6802366914745372    0.4215173884646728     H247
    0.1729483192137725    0.6802366914745372    0.7548507217980061     H248
    0.1729483192137725    0.6802366914745372    0.0881840551313394     H249
    0.1729483192137725    0.0135700248078706    0.4215173884646728     H250
    0.1729483192137725    0.0135700248078706    0.7548507217980061     H251
    0.1729483192137725    0.0135700248078706    0.0881840551313394     H252
    0.5062816525471059    0.3469033581412040    0.4215173884646728     H253
    0.5062816525471059    0.3469033581412040    0.7548507217980061     H254
    0.5062816525471059    0.3469033581412040    0.0881840551313394     H255
    0.5062816525471059    0.6802366914745372    0.4215173884646728     H256
    0.5062816525471059    0.6802366914745372    0.7548507217980061     H257
    0.5062816525471059    0.6802366914745372    0.0881840551313394     H258
    0.5062816525471059    0.0135700248078706    0.4215173884646728     H259
    0.5062816525471059    0.0135700248078706    0.7548507217980061     H260
    0.5062816525471059    0.0135700248078706    0.0881840551313394     H261
    0.8396149858804391    0.3469033581412040    0.4215173884646728     H262
    0.8396149858804391    0.3469033581412040    0.7548507217980061     H263
    0.8396149858804391    0.3469033581412040    0.0881840551313394     H264
    0.8396149858804391    0.6802366914745372    0.4215173884646728     H265
    0.8396149858804391    0.6802366914745372    0.7548507217980061     H266
    0.8396149858804391    0.6802366914745372    0.0881840551313394     H267
    0.8396149858804391    0.0135700248078706    0.4215173884646728     H268
    0.8396149858804391    0.0135700248078706    0.7548507217980061     H269
    0.8396149858804391    0.0135700248078706    0.0881840551313394     H270
    0.1770176879474058    0.1886816134479113    0.3906582114757946     H271
    0.1770176879474058    0.1886816134479113    0.7239915448091279     H272
    0.1770176879474058    0.1886816134479113    0.0573248781424612     H273
    0.1770176879474058    0.5220149467812447    0.3906582114757946     H274
    0.1770176879474058    0.5220149467812447    0.7239915448091279     H275
    0.1770176879474058    0.5220149467812447    0.0573248781424612     H276
    0.1770176879474058    0.8553482801145780    0.3906582114757946     H277
    0.1770176879474058    0.8553482801145780    0.7239915448091279     H278
    0.1770176879474058    0.8553482801145780    0.0573248781424612     H279
    0.5103510212807392    0.1886816134479113    0.3906582114757946     H280
    0.5103510212807392    0.1886816134479113    0.7239915448091279     H281
    0.5103510212807392    0.1886816134479113    0.0573248781424612     H282
    0.5103510212807392    0.5220149467812447    0.3906582114757946     H283
    0.5103510212807392    0.5220149467812447    0.7239915448091279     H284
    0.5103510212807392    0.5220149467812447    0.0573248781424612     H285
    0.5103510212807392    0.8553482801145780    0.3906582114757946     H286
    0.5103510212807392    0.8553482801145780    0.7239915448091279     H287
    0.5103510212807392    0.8553482801145780    0.0573248781424612     H288
    0.8436843546140724    0.1886816134479113    0.3906582114757946     H289
    0.8436843546140724    0.1886816134479113    0.7239915448091279     H290
    0.8436843546140724    0.1886816134479113    0.0573248781424612     H291
    0.8436843546140724    0.5220149467812447    0.3906582114757946     H292
    0.8436843546140724    0.5220149467812447    0.7239915448091279     H293
    0.8436843546140724    0.5220149467812447    0.0573248781424612     H294
    0.8436843546140724    0.8553482801145780    0.3906582114757946     H295
    0.8436843546140724    0.8553482801145780    0.7239915448091279     H296
    0.8436843546140724    0.8553482801145780    0.0573248781424612     H297
    0.2113724589323851    0.3169155680076149    0.3044765827056332     H298
    0.2113724589323851    0.3169155680076149    0.6378099160389665     H299
    0.2113724589323851    0.3169155680076149    0.9711432493722998     H300
    0.2113724589323851    0.6502489013409483    0.3044765827056332     H301
    0.2113724589323851    0.6502489013409483    0.6378099160389665     H302
    0.2113724589323851    0.6502489013409483    0.9711432493722998     H303
    0.2113724589323851    0.9835822346742815    0.3044765827056332     H304
    0.2113724589323851    0.9835822346742815    0.6378099160389665     H305
    0.2113724589323851    0.9835822346742815    0.9711432493722998     H306
    0.5447057922657184    0.3169155680076149    0.3044765827056332     H307
    0.5447057922657184    0.3169155680076149    0.6378099160389665     H308
    0.5447057922657184    0.3169155680076149    0.9711432493722998     H309
    0.5447057922657184    0.6502489013409483    0.3044765827056332     H310
    0.5447057922657184    0.6502489013409483    0.6378099160389665     H311
    0.5447057922657184    0.6502489013409483    0.9711432493722998     H312
    0.5447057922657184    0.9835822346742815    0.3044765827056332     H313
    0.5447057922657184    0.9835822346742815    0.6378099160389665     H314
    0.5447057922657184    0.9835822346742815    0.9711432493722998     H315
    0.8780391255990517    0.3169155680076149    0.3044765827056332     H316
    0.8780391255990517    0.3169155680076149    0.6378099160389665     H317
    0.8780391255990517    0.3169155680076149    0.9711432493722998     H318
    0.8780391255990517    0.6502489013409483    0.3044765827056332     H319
    0.8780391255990517    0.6502489013409483    0.6378099160389665     H320
    0.8780391255990517    0.6502489013409483    0.9711432493722998     H321
    0.8780391255990517    0.9835822346742815    0.3044765827056332     H322
    0.8780391255990517    0.9835822346742815    0.6378099160389665     H323
    0.8780391255990517    0.9835822346742815    0.9711432493722998     H324
    0.0712650739849495    0.1757127633596485    0.3507400315333518     H325
    0.0712650739849495    0.1757127633596485    0.6840733648666850     H326
    0.0712650739849495    0.1757127633596485    0.0174066982000184     H327
    0.0712650739849495    0.5090460966929817    0.3507400315333518     H328
    0.0712650739849495    0.5090460966929817    0.6840733648666850     H329
    0.0712650739849495    0.5090460966929817    0.0174066982000184     H330
    0.0712650739849495    0.8423794300263151    0.3507400315333518     H331
    0.0712650739849495    0.8423794300263151    0.6840733648666850     H332
    0.0712650739849495    0.8423794300263151    0.0174066982000184     H333
    0.4045984073182829    0.1757127633596485    0.3507400315333518     H334
    0.4045984073182829    0.1757127633596485    0.6840733648666850     H335
    0.4045984073182829    0.1757127633596485    0.0174066982000184     H336
    0.4045984073182829    0.5090460966929817    0.3507400315333518     H337
    0.4045984073182829    0.5090460966929817    0.6840733648666850     H338
    0.4045984073182829    0.5090460966929817    0.0174066982000184     H339
    0.4045984073182829    0.8423794300263151    0.3507400315333518     H340
    0.4045984073182829    0.8423794300263151    0.6840733648666850     H341
    0.4045984073182829    0.8423794300263151    0.0174066982000184     H342
    0.7379317406516162    0.1757127633596485    0.3507400315333518     H343
    0.7379317406516162    0.1757127633596485    0.6840733648666850     H344
    0.7379317406516162    0.1757127633596485    0.0174066982000184     H345
    0.7379317406516162    0.5090460966929817    0.3507400315333518     H346
    0.7379317406516162    0.5090460966929817    0.6840733648666850     H347
    0.7379317406516162    0.5090460966929817    0.0174066982000184     H348
    0.7379317406516162    0.8423794300263151    0.3507400315333518     H349
    0.7379317406516162    0.8423794300263151    0.6840733648666850     H350
    0.7379317406516162    0.8423794300263151    0.0174066982000184     H351
    0.2082330846988469    0.2132012334346907    0.5517292828478283     H352
    0.2082330846988469    0.2132012334346907    0.8850626161811616     H353
    0.2082330846988469    0.2132012334346907    0.2183959495144949     H354
    0.2082330846988469    0.5465345667680239    0.5517292828478283     H355
    0.2082330846988469    0.5465345667680239    0.8850626161811616     H356
    0.2082330846988469    0.5465345667680239    0.2183959495144949     H357
    0.2082330846988469    0.8798679001013573    0.5517292828478283     H358
    0.2082330846988469    0.8798679001013573    0.8850626161811616     H359
    0.2082330846988469    0.8798679001013573    0.2183959495144949     H360
    0.5415664180321803    0.2132012334346907    0.5517292828478283     H361
    0.5415664180321803    0.2132012334346907    0.8850626161811616     H362
    0.5415664180321803    0.2132012334346907    0.2183959495144949     H363
    0.5415664180321803    0.5465345667680239    0.5517292828478283     H364
    0.5415664180321803    0.5465345667680239    0.8850626161811616     H365
    0.5415664180321803    0.5465345667680239    0.2183959495144949     H366
    0.5415664180321803    0.8798679001013573    0.5517292828478283     H367
    0.5415664180321803    0.8798679001013573    0.8850626161811616     H368
    0.5415664180321803    0.8798679001013573    0.2183959495144949     H369
    0.8748997513655137    0.2132012334346907    0.5517292828478283     H370
    0.8748997513655137    0.2132012334346907    0.8850626161811616     H371
    0.8748997513655137    0.2132012334346907    0.2183959495144949     H372
    0.8748997513655137    0.5465345667680239    0.5517292828478283     H373
    0.8748997513655137    0.5465345667680239    0.8850626161811616     H374
    0.8748997513655137    0.5465345667680239    0.2183959495144949     H375
    0.8748997513655137    0.8798679001013573    0.5517292828478283     H376
    0.8748997513655137    0.8798679001013573    0.8850626161811616     H377
    0.8748997513655137    0.8798679001013573    0.2183959495144949     H378
    0.1040634004712675    0.3424966064451962    0.3731619942307832     H379
    0.1040634004712675    0.3424966064451962    0.7064953275641166     H380
    0.1040634004712675    0.3424966064451962    0.0398286608974499     H381
    0.1040634004712675    0.6758299397785295    0.3731619942307832     H382
    0.1040634004712675    0.6758299397785295    0.7064953275641166     H383
    0.1040634004712675    0.6758299397785295    0.0398286608974499     H384
    0.1040634004712675    0.0091632731118628    0.3731619942307832     H385
    0.1040634004712675    0.0091632731118628    0.7064953275641166     H386
    0.1040634004712675    0.0091632731118628    0.0398286608974499     H387
    0.4373967338046008    0.3424966064451962    0.3731619942307832     H388
    0.4373967338046008    0.3424966064451962    0.7064953275641166     H389
    0.4373967338046008    0.3424966064451962    0.0398286608974499     H390
    0.4373967338046008    0.6758299397785295    0.3731619942307832     H391
    0.4373967338046008    0.6758299397785295    0.7064953275641166     H392
    0.4373967338046008    0.6758299397785295    0.0398286608974499     H393
    0.4373967338046008    0.0091632731118628    0.3731619942307832     H394
    0.4373967338046008    0.0091632731118628    0.7064953275641166     H395
    0.4373967338046008    0.0091632731118628    0.0398286608974499     H396
    0.7707300671379341    0.3424966064451962    0.3731619942307832     H397
    0.7707300671379341    0.3424966064451962    0.7064953275641166     H398
    0.7707300671379341    0.3424966064451962    0.0398286608974499     H399
    0.7707300671379341    0.6758299397785295    0.3731619942307832     H400
    0.7707300671379341    0.6758299397785295    0.7064953275641166     H401
    0.7707300671379341    0.6758299397785295    0.0398286608974499     H402
    0.7707300671379341    0.0091632731118628    0.3731619942307832     H403
    0.7707300671379341    0.0091632731118628    0.7064953275641166     H404
    0.7707300671379341    0.0091632731118628    0.0398286608974499     H405
    0.1862379001128111    0.3343872867047639    0.3824458821824166     H406
    0.1862379001128111    0.3343872867047639    0.7157792155157500     H407
    0.1862379001128111    0.3343872867047639    0.0491125488490833     H408
    0.1862379001128111    0.6677206200380973    0.3824458821824166     H409
    0.1862379001128111    0.6677206200380973    0.7157792155157500     H410
    0.1862379001128111    0.6677206200380973    0.0491125488490833     H411
    0.1862379001128111    0.0010539533714306    0.3824458821824166     H412
    0.1862379001128111    0.0010539533714306    0.7157792155157500     H413
    0.1862379001128111    0.0010539533714306    0.0491125488490833     H414
    0.5195712334461444    0.3343872867047639    0.3824458821824166     H415
    0.5195712334461444    0.3343872867047639    0.7157792155157500     H416
    0.5195712334461444    0.3343872867047639    0.0491125488490833     H417
    0.5195712334461444    0.6677206200380973    0.3824458821824166     H418
    0.5195712334461444    0.6677206200380973    0.7157792155157500     H419
    0.5195712334461444    0.6677206200380973    0.0491125488490833     H420
    0.5195712334461444    0.0010539533714306    0.3824458821824166     H421
    0.5195712334461444    0.0010539533714306    0.7157792155157500     H422
    0.5195712334461444    0.0010539533714306    0.0491125488490833     H423
    0.8529045667794777    0.3343872867047639    0.3824458821824166     H424
    0.8529045667794777    0.3343872867047639    0.7157792155157500     H425
    0.8529045667794777    0.3343872867047639    0.0491125488490833     H426
    0.8529045667794777    0.6677206200380973    0.3824458821824166     H427
    0.8529045667794777    0.6677206200380973    0.7157792155157500     H428
    0.8529045667794777    0.6677206200380973    0.0491125488490833     H429
    0.8529045667794777    0.0010539533714306    0.3824458821824166     H430
    0.8529045667794777    0.0010539533714306    0.7157792155157500     H431
    0.8529045667794777    0.0010539533714306    0.0491125488490833     H432
    0.1732970246601652    0.2449427633212873    0.5424464408590578     H433
    0.1732970246601652    0.2449427633212873    0.8757797741923911     H434
    0.1732970246601652    0.2449427633212873    0.2091131075257244     H435
    0.1732970246601652    0.5782760966546205    0.5424464408590578     H436
    0.1732970246601652    0.5782760966546205    0.8757797741923911     H437
    0.1732970246601652    0.5782760966546205    0.2091131075257244     H438
    0.1732970246601652    0.9116094299879539    0.5424464408590578     H439
    0.1732970246601652    0.9116094299879539    0.8757797741923911     H440
    0.1732970246601652    0.9116094299879539    0.2091131075257244     H441
    0.5066303579934985    0.2449427633212873    0.5424464408590578     H442
    0.5066303579934985    0.2449427633212873    0.8757797741923911     H443
    0.5066303579934985    0.2449427633212873    0.2091131075257244     H444
    0.5066303579934985    0.5782760966546205    0.5424464408590578     H445
    0.5066303579934985    0.5782760966546205    0.8757797741923911     H446
    0.5066303579934985    0.5782760966546205    0.2091131075257244     H447
    0.5066303579934985    0.9116094299879539    0.5424464408590578     H448
    0.5066303579934985    0.9116094299879539    0.8757797741923911     H449
    0.5066303579934985    0.9116094299879539    0.2091131075257244     H450
    0.8399636913268318    0.2449427633212873    0.5424464408590578     H451
    0.8399636913268318    0.2449427633212873    0.8757797741923911     H452
    0.8399636913268318    0.2449427633212873    0.2091131075257244     H453
    0.8399636913268318    0.5782760966546205    0.5424464408590578     H454
    0.8399636913268318    0.5782760966546205    0.8757797741923911     H455
    0.8399636913268318    0.5782760966546205    0.2091131075257244     H456
    0.8399636913268318    0.9116094299879539    0.5424464408590578     H457
    0.8399636913268318    0.9116094299879539    0.8757797741923911     H458
    0.8399636913268318    0.9116094299879539    0.2091131075257244     H459
    0.2105575829089383    0.1942243375219823    0.4917861850547164     H460
    0.2105575829089383    0.1942243375219823    0.8251195183880498     H461
    0.2105575829089383    0.1942243375219823    0.1584528517213830     H462
    0.2105575829089383    0.5275576708553156    0.4917861850547164     H463
    0.2105575829089383    0.5275576708553156    0.8251195183880498     H464
    0.2105575829089383    0.5275576708553156    0.1584528517213830     H465
    0.2105575829089383    0.8608910041886489    0.4917861850547164     H466
    0.2105575829089383    0.8608910041886489    0.8251195183880498     H467
    0.2105575829089383    0.8608910041886489    0.1584528517213830     H468
    0.5438909162422716    0.1942243375219823    0.4917861850547164     H469
    0.5438909162422716    0.1942243375219823    0.8251195183880498     H470
    0.5438909162422716    0.1942243375219823    0.1584528517213830     H471
    0.5438909162422716    0.5275576708553156    0.4917861850547164     H472
    0.5438909162422716    0.5275576708553156    0.8251195183880498     H473
    0.5438909162422716    0.5275576708553156    0.1584528517213830     H474
    0.5438909162422716    0.8608910041886489    0.4917861850547164     H475
    0.5438909162422716    0.8608910041886489    0.8251195183880498     H476
    0.5438909162422716    0.8608910041886489    0.1584528517213830     H477
    0.8772242495756050    0.1942243375219823    0.4917861850547164     H478
    0.8772242495756050    0.1942243375219823    0.8251195183880498     H479
    0.8772242495756050    0.1942243375219823    0.1584528517213830     H480
    0.8772242495756050    0.5275576708553156    0.4917861850547164     H481
    0.8772242495756050    0.5275576708553156    0.8251195183880498     H482
    0.8772242495756050    0.5275576708553156    0.1584528517213830     H483
    0.8772242495756050    0.8608910041886489    0.4917861850547164     H484
    0.8772242495756050    0.8608910041886489    0.8251195183880498     H485
    0.8772242495756050    0.8608910041886489    0.1584528517213830     H486
    0.1559521710782878    0.1820010902900745    0.4231715356543455     H487
    0.1559521710782878    0.1820010902900745    0.7565048689876788     H488
    0.1559521710782878    0.1820010902900745    0.0898382023210121     H489
    0.1559521710782878    0.5153344236234079    0.4231715356543455     H490
    0.1559521710782878    0.5153344236234079    0.7565048689876788     H491
    0.1559521710782878    0.5153344236234079    0.0898382023210121     H492
    0.1559521710782878    0.8486677569567411    0.4231715356543455     H493
    0.1559521710782878    0.8486677569567411    0.7565048689876788     H494
    0.1559521710782878    0.8486677569567411    0.0898382023210121     H495
    0.4892855044116211    0.1820010902900745    0.4231715356543455     H496
    0.4892855044116211    0.1820010902900745    0.7565048689876788     H497
    0.4892855044116211    0.1820010902900745    0.0898382023210121     H498
    0.4892855044116211    0.5153344236234079    0.4231715356543455     H499
    0.4892855044116211    0.5153344236234079    0.7565048689876788     H500
    0.4892855044116211    0.5153344236234079    0.0898382023210121     H501
    0.4892855044116211    0.8486677569567411    0.4231715356543455     H502
    0.4892855044116211    0.8486677569567411    0.7565048689876788     H503
    0.4892855044116211    0.8486677569567411    0.0898382023210121     H504
    0.8226188377449545    0.1820010902900745    0.4231715356543455     H505
    0.8226188377449545    0.1820010902900745    0.7565048689876788     H506
    0.8226188377449545    0.1820010902900745    0.0898382023210121     H507
    0.8226188377449545    0.5153344236234079    0.4231715356543455     H508
    0.8226188377449545    0.5153344236234079    0.7565048689876788     H509
    0.8226188377449545    0.5153344236234079    0.0898382023210121     H510
    0.8226188377449545    0.8486677569567411    0.4231715356543455     H511
    0.8226188377449545    0.8486677569567411    0.7565048689876788     H512
    0.8226188377449545    0.8486677569567411    0.0898382023210121     H513
    0.2124352378790423    0.0920620639842350    0.5732940614612602     H514
    0.2124352378790423    0.0920620639842350    0.9066273947945934     H515
    0.2124352378790423    0.0920620639842350    0.2399607281279268     H516
    0.2124352378790423    0.4253953973175684    0.5732940614612602     H517
    0.2124352378790423    0.4253953973175684    0.9066273947945934     H518
    0.2124352378790423    0.4253953973175684    0.2399607281279268     H519
    0.2124352378790423    0.7587287306509016    0.5732940614612602     H520
    0.2124352378790423    0.7587287306509016    0.9066273947945934     H521
    0.2124352378790423    0.7587287306509016    0.2399607281279268     H522
    0.5457685712123757    0.0920620639842350    0.5732940614612602     H523
    0.5457685712123757    0.0920620639842350    0.9066273947945934     H524
    0.5457685712123757    0.0920620639842350    0.2399607281279268     H525
    0.5457685712123757    0.4253953973175684    0.5732940614612602     H526
    0.5457685712123757    0.4253953973175684    0.9066273947945934     H527
    0.5457685712123757    0.4253953973175684    0.2399607281279268     H528
    0.5457685712123757    0.7587287306509016    0.5732940614612602     H529
    0.5457685712123757    0.7587287306509016    0.9066273947945934     H530
    0.5457685712123757    0.7587287306509016    0.2399607281279268     H531
    0.8791019045457089    0.0920620639842350    0.5732940614612602     H532
    0.8791019045457089    0.0920620639842350    0.9066273947945934     H533
    0.8791019045457089    0.0920620639842350    0.2399607281279268     H534
    0.8791019045457089    0.4253953973175684    0.5732940614612602     H535
    0.8791019045457089    0.4253953973175684    0.9066273947945934     H536
    0.8791019045457089    0.4253953973175684    0.2399607281279268     H537
    0.8791019045457089    0.7587287306509016    0.5732940614612602     H538
    0.8791019045457089    0.7587287306509016    0.9066273947945934     H539
    0.8791019045457089    0.7587287306509016    0.2399607281279268     H540
    0.1948361123150317    0.2591881760403503    0.4273180167568836     H541
    0.1948361123150317    0.2591881760403503    0.7606513500902170     H542
    0.1948361123150317    0.2591881760403503    0.0939846834235503     H543
    0.1948361123150317    0.5925215093736838    0.4273180167568836     H544
    0.1948361123150317    0.5925215093736838    0.7606513500902170     H545
    0.1948361123150317    0.5925215093736838    0.0939846834235503     H546
    0.1948361123150317    0.9258548427070170    0.4273180167568836     H547
    0.1948361123150317    0.9258548427070170    0.7606513500902170     H548
    0.1948361123150317    0.9258548427070170    0.0939846834235503     H549
    0.5281694456483650    0.2591881760403503    0.4273180167568836     H550
    0.5281694456483650    0.2591881760403503    0.7606513500902170     H551
    0.5281694456483650    0.2591881760403503    0.0939846834235503     H552
    0.5281694456483650    0.5925215093736838    0.4273180167568836     H553
    0.5281694456483650    0.5925215093736838    0.7606513500902170     H554
    0.5281694456483650    0.5925215093736838    0.0939846834235503     H555
    0.5281694456483650    0.9258548427070170    0.4273180167568836     H556
    0.5281694456483650    0.9258548427070170    0.7606513500902170     H557
    0.5281694456483650    0.9258548427070170    0.0939846834235503     H558
    0.8615027789816984    0.2591881760403503    0.4273180167568836     H559
    0.8615027789816984    0.2591881760403503    0.7606513500902170     H560
    0.8615027789816984    0.2591881760403503    0.0939846834235503     H561
    0.8615027789816984    0.5925215093736838    0.4273180167568836     H562
    0.8615027789816984    0.5925215093736838    0.7606513500902170     H563
    0.8615027789816984    0.5925215093736838    0.0939846834235503     H564
    0.8615027789816984    0.9258548427070170    0.4273180167568836     H565
    0.8615027789816984    0.9258548427070170    0.7606513500902170     H566
    0.8615027789816984    0.9258548427070170    0.0939846834235503     H567
    0.1077167733291197    0.3696520359954094    0.4530208150554628     H568
    0.1077167733291197    0.3696520359954094    0.7863541483887961     H569
    0.1077167733291197    0.3696520359954094    0.1196874817221294     H570
    0.1077167733291197    0.7029853693287428    0.4530208150554628     H571
    0.1077167733291197    0.7029853693287428    0.7863541483887961     H572
    0.1077167733291197    0.7029853693287428    0.1196874817221294     H573
    0.1077167733291197    0.0363187026620761    0.4530208150554628     H574
    0.1077167733291197    0.0363187026620761    0.7863541483887961     H575
    0.1077167733291197    0.0363187026620761    0.1196874817221294     H576
    0.4410501066624530    0.3696520359954094    0.4530208150554628     H577
    0.4410501066624530    0.3696520359954094    0.7863541483887961     H578
    0.4410501066624530    0.3696520359954094    0.1196874817221294     H579
    0.4410501066624530    0.7029853693287428    0.4530208150554628     H580
    0.4410501066624530    0.7029853693287428    0.7863541483887961     H581
    0.4410501066624530    0.7029853693287428    0.1196874817221294     H582
    0.4410501066624530    0.0363187026620761    0.4530208150554628     H583
    0.4410501066624530    0.0363187026620761    0.7863541483887961     H584
    0.4410501066624530    0.0363187026620761    0.1196874817221294     H585
    0.7743834399957863    0.3696520359954094    0.4530208150554628     H586
    0.7743834399957863    0.3696520359954094    0.7863541483887961     H587
    0.7743834399957863    0.3696520359954094    0.1196874817221294     H588
    0.7743834399957863    0.7029853693287428    0.4530208150554628     H589
    0.7743834399957863    0.7029853693287428    0.7863541483887961     H590
    0.7743834399957863    0.7029853693287428    0.1196874817221294     H591
    0.7743834399957863    0.0363187026620761    0.4530208150554628     H592
    0.7743834399957863    0.0363187026620761    0.7863541483887961     H593
    0.7743834399957863    0.0363187026620761    0.1196874817221294     H594
    0.2364939251970201    0.2760961270979789    0.1555122144828296     H595
    0.2364939251970201    0.2760961270979789    0.4888455478161630     H596
    0.2364939251970201    0.2760961270979789    0.8221788811494963     H597
    0.2364939251970201    0.6094294604313122    0.1555122144828296     H598
    0.2364939251970201    0.6094294604313122    0.4888455478161630     H599
    0.2364939251970201    0.6094294604313122    0.8221788811494963     H600
    0.2364939251970201    0.9427627937646454    0.1555122144828296     H601
    0.2364939251970201    0.9427627937646454    0.4888455478161630     H602
    0.2364939251970201    0.9427627937646454    0.8221788811494963     H603
    0.5698272585303534    0.2760961270979789    0.1555122144828296     H604
    0.5698272585303534    0.2760961270979789    0.4888455478161630     H605
    0.5698272585303534    0.2760961270979789    0.8221788811494963     H606
    0.5698272585303534    0.6094294604313122    0.1555122144828296     H607
    0.5698272585303534    0.6094294604313122    0.4888455478161630     H608
    0.5698272585303534    0.6094294604313122    0.8221788811494963     H609
    0.5698272585303534    0.9427627937646454    0.1555122144828296     H610
    0.5698272585303534    0.9427627937646454    0.4888455478161630     H611
    0.5698272585303534    0.9427627937646454    0.8221788811494963     H612
    0.9031605918636867    0.2760961270979789    0.1555122144828296     H613
    0.9031605918636867    0.2760961270979789    0.4888455478161630     H614
    0.9031605918636867    0.2760961270979789    0.8221788811494963     H615
    0.9031605918636867    0.6094294604313122    0.1555122144828296     H616
    0.9031605918636867    0.6094294604313122    0.4888455478161630     H617
    0.9031605918636867    0.6094294604313122    0.8221788811494963     H618
    0.9031605918636867    0.9427627937646454    0.1555122144828296     H619
    0.9031605918636867    0.9427627937646454    0.4888455478161630     H620
    0.9031605918636867    0.9427627937646454    0.8221788811494963     H621
    0.3243116365134496    0.3152436364393976    0.2713640547512997     H622
    0.3243116365134496    0.3152436364393976    0.6046973880846330     H623
    0.3243116365134496    0.3152436364393976    0.9380307214179663     H624
    0.3243116365134496    0.6485769697727308    0.2713640547512997     H625
    0.3243116365134496    0.6485769697727308    0.6046973880846330     H626
    0.3243116365134496    0.6485769697727308    0.9380307214179663     H627
    0.3243116365134496    0.9819103031060642    0.2713640547512997     H628
    0.3243116365134496    0.9819103031060642    0.6046973880846330     H629
    0.3243116365134496    0.9819103031060642    0.9380307214179663     H630
    0.6576449698467830    0.3152436364393976    0.2713640547512997     H631
    0.6576449698467830    0.3152436364393976    0.6046973880846330     H632
    0.6576449698467830    0.3152436364393976    0.9380307214179663     H633
    0.6576449698467830    0.6485769697727308    0.2713640547512997     H634
    0.6576449698467830    0.6485769697727308    0.6046973880846330     H635
    0.6576449698467830    0.6485769697727308    0.9380307214179663     H636
    0.6576449698467830    0.9819103031060642    0.2713640547512997     H637
    0.6576449698467830    0.9819103031060642    0.6046973880846330     H638
    0.6576449698467830    0.9819103031060642    0.9380307214179663     H639
    0.9909783031801163    0.3152436364393976    0.2713640547512997     H640
    0.9909783031801163    0.3152436364393976    0.6046973880846330     H641
    0.9909783031801163    0.3152436364393976    0.9380307214179663     H642
    0.9909783031801163    0.6485769697727308    0.2713640547512997     H643
    0.9909783031801163    0.6485769697727308    0.6046973880846330     H644
    0.9909783031801163    0.6485769697727308    0.9380307214179663     H645
    0.9909783031801163    0.9819103031060642    0.2713640547512997     H646
    0.9909783031801163    0.9819103031060642    0.6046973880846330     H647
    0.9909783031801163    0.9819103031060642    0.9380307214179663     H648
    0.1256904473356184    0.3295835975734857    0.2303825271438521     H649
    0.1256904473356184    0.3295835975734857    0.5637158604771855     H650
    0.1256904473356184    0.3295835975734857    0.8970491938105188     H651
    0.1256904473356184    0.6629169309068189    0.2303825271438521     H652
    0.1256904473356184    0.6629169309068189    0.5637158604771855     H653
    0.1256904473356184    0.6629169309068189    0.8970491938105188     H654
    0.1256904473356184    0.9962502642401522    0.2303825271438521     H655
    0.1256904473356184    0.9962502642401522    0.5637158604771855     H656
    0.1256904473356184    0.9962502642401522    0.8970491938105188     H657
    0.4590237806689518    0.3295835975734857    0.2303825271438521     H658
    0.4590237806689518    0.3295835975734857    0.5637158604771855     H659
    0.4590237806689518    0.3295835975734857    0.8970491938105188     H660
    0.4590237806689518    0.6629169309068189    0.2303825271438521     H661
    0.4590237806689518    0.6629169309068189    0.5637158604771855     H662
    0.4590237806689518    0.6629169309068189    0.8970491938105188     H663
    0.4590237806689518    0.9962502642401522    0.2303825271438521     H664
    0.4590237806689518    0.9962502642401522    0.5637158604771855     H665
    0.4590237806689518    0.9962502642401522    0.8970491938105188     H666
    0.7923571140022851    0.3295835975734857    0.2303825271438521     H667
    0.7923571140022851    0.3295835975734857    0.5637158604771855     H668
    0.7923571140022851    0.3295835975734857    0.8970491938105188     H669
    0.7923571140022851    0.6629169309068189    0.2303825271438521     H670
    0.7923571140022851    0.6629169309068189    0.5637158604771855     H671
    0.7923571140022851    0.6629169309068189    0.8970491938105188     H672
    0.7923571140022851    0.9962502642401522    0.2303825271438521     H673
    0.7923571140022851    0.9962502642401522    0.5637158604771855     H674
    0.7923571140022851    0.9962502642401522    0.8970491938105188     H675
    0.2316268677880030    0.2921029753705999    0.0928982383363417     H676
    0.2316268677880030    0.2921029753705999    0.4262315716696752     H677
    0.2316268677880030    0.2921029753705999    0.7595649050030084     H678
    0.2316268677880030    0.6254363087039333    0.0928982383363417     H679
    0.2316268677880030    0.6254363087039333    0.4262315716696752     H680
    0.2316268677880030    0.6254363087039333    0.7595649050030084     H681
    0.2316268677880030    0.9587696420372666    0.0928982383363417     H682
    0.2316268677880030    0.9587696420372666    0.4262315716696752     H683
    0.2316268677880030    0.9587696420372666    0.7595649050030084     H684
    0.5649602011213364    0.2921029753705999    0.0928982383363417     H685
    0.5649602011213364    0.2921029753705999    0.4262315716696752     H686
    0.5649602011213364    0.2921029753705999    0.7595649050030084     H687
    0.5649602011213364    0.6254363087039333    0.0928982383363417     H688
    0.5649602011213364    0.6254363087039333    0.4262315716696752     H689
    0.5649602011213364    0.6254363087039333    0.7595649050030084     H690
    0.5649602011213364    0.9587696420372666    0.0928982383363417     H691
    0.5649602011213364    0.9587696420372666    0.4262315716696752     H692
    0.5649602011213364    0.9587696420372666    0.7595649050030084     H693
    0.8982935344546696    0.2921029753705999    0.0928982383363417     H694
    0.8982935344546696    0.2921029753705999    0.4262315716696752     H695
    0.8982935344546696    0.2921029753705999    0.7595649050030084     H696
    0.8982935344546696    0.6254363087039333    0.0928982383363417     H697
    0.8982935344546696    0.6254363087039333    0.4262315716696752     H698
    0.8982935344546696    0.6254363087039333    0.7595649050030084     H699
    0.8982935344546696    0.9587696420372666    0.0928982383363417     H700
    0.8982935344546696    0.9587696420372666    0.4262315716696752     H701
    0.8982935344546696    0.9587696420372666    0.7595649050030084     H702
    0.1119009445325361    0.4105677496292962    0.1835535628148914     H703
    0.1119009445325361    0.4105677496292962    0.5168868961482247     H704
    0.1119009445325361    0.4105677496292962    0.8502202294815581     H705
    0.1119009445325361    0.7439010829626296    0.1835535628148914     H706
    0.1119009445325361    0.7439010829626296    0.5168868961482247     H707
    0.1119009445325361    0.7439010829626296    0.8502202294815581     H708
    0.1119009445325361    0.0772344162959628    0.1835535628148914     H709
    0.1119009445325361    0.0772344162959628    0.5168868961482247     H710
    0.1119009445325361    0.0772344162959628    0.8502202294815581     H711
    0.4452342778658694    0.4105677496292962    0.1835535628148914     H712
    0.4452342778658694    0.4105677496292962    0.5168868961482247     H713
    0.4452342778658694    0.4105677496292962    0.8502202294815581     H714
    0.4452342778658694    0.7439010829626296    0.1835535628148914     H715
    0.4452342778658694    0.7439010829626296    0.5168868961482247     H716
    0.4452342778658694    0.7439010829626296    0.8502202294815581     H717
    0.4452342778658694    0.0772344162959628    0.1835535628148914     H718
    0.4452342778658694    0.0772344162959628    0.5168868961482247     H719
    0.4452342778658694    0.0772344162959628    0.8502202294815581     H720
    0.7785676111992027    0.4105677496292962    0.1835535628148914     H721
    0.7785676111992027    0.4105677496292962    0.5168868961482247     H722
    0.7785676111992027    0.4105677496292962    0.8502202294815581     H723
    0.7785676111992027    0.7439010829626296    0.1835535628148914     H724
    0.7785676111992027    0.7439010829626296    0.5168868961482247     H725
    0.7785676111992027    0.7439010829626296    0.8502202294815581     H726
    0.7785676111992027    0.0772344162959628    0.1835535628148914     H727
    0.7785676111992027    0.0772344162959628    0.5168868961482247     H728
    0.7785676111992027    0.0772344162959628    0.8502202294815581     H729
    0.1970192207411541    0.3058142533402707    0.3553501642147472     H730
    0.1970192207411541    0.3058142533402707    0.6886834975480806     H731
    0.1970192207411541    0.3058142533402707    0.0220168308814139     H732
    0.1970192207411541    0.6391475866736041    0.3553501642147472     H733
    0.1970192207411541    0.6391475866736041    0.6886834975480806     H734
    0.1970192207411541    0.6391475866736041    0.0220168308814139     H735
    0.1970192207411541    0.9724809200069373    0.3553501642147472     H736
    0.1970192207411541    0.9724809200069373    0.6886834975480806     H737
    0.1970192207411541    0.9724809200069373    0.0220168308814139     H738
    0.5303525540744873    0.3058142533402707    0.3553501642147472     H739
    0.5303525540744873    0.3058142533402707    0.6886834975480806     H740
    0.5303525540744873    0.3058142533402707    0.0220168308814139     H741
    0.5303525540744873    0.6391475866736041    0.3553501642147472     H742
    0.5303525540744873    0.6391475866736041    0.6886834975480806     H743
    0.5303525540744873    0.6391475866736041    0.0220168308814139     H744
    0.5303525540744873    0.9724809200069373    0.3553501642147472     H745
    0.5303525540744873    0.9724809200069373    0.6886834975480806     H746
    0.5303525540744873    0.9724809200069373    0.0220168308814139     H747
    0.8636858874078207    0.3058142533402707    0.3553501642147472     H748
    0.8636858874078207    0.3058142533402707    0.6886834975480806     H749
    0.8636858874078207    0.3058142533402707    0.0220168308814139     H750
    0.8636858874078207    0.6391475866736041    0.3553501642147472     H751
    0.8636858874078207    0.6391475866736041    0.6886834975480806     H752
    0.8636858874078207    0.6391475866736041    0.0220168308814139     H753
    0.8636858874078207    0.9724809200069373    0.3553501642147472     H754
    0.8636858874078207    0.9724809200069373    0.6886834975480806     H755
    0.8636858874078207    0.9724809200069373    0.0220168308814139     H756
    0.1416433938437123    0.3758885835291311    0.3604484300513455     H757
    0.1416433938437123    0.3758885835291311    0.6937817633846788     H758
    0.1416433938437123    0.3758885835291311    0.0271150967180121     H759
    0.1416433938437123    0.7092219168624645    0.3604484300513455     H760
    0.1416433938437123    0.7092219168624645    0.6937817633846788     H761
    0.1416433938437123    0.7092219168624645    0.0271150967180121     H762
    0.1416433938437123    0.0425552501957978    0.3604484300513455     H763
    0.1416433938437123    0.0425552501957978    0.6937817633846788     H764
    0.1416433938437123    0.0425552501957978    0.0271150967180121     H765
    0.4749767271770455    0.3758885835291311    0.3604484300513455     H766
    0.4749767271770455    0.3758885835291311    0.6937817633846788     H767
    0.4749767271770455    0.3758885835291311    0.0271150967180121     H768
    0.4749767271770455    0.7092219168624645    0.3604484300513455     H769
    0.4749767271770455    0.7092219168624645    0.6937817633846788     H770
    0.4749767271770455    0.7092219168624645    0.0271150967180121     H771
    0.4749767271770455    0.0425552501957978    0.3604484300513455     H772
    0.4749767271770455    0.0425552501957978    0.6937817633846788     H773
    0.4749767271770455    0.0425552501957978    0.0271150967180121     H774
    0.8083100605103788    0.3758885835291311    0.3604484300513455     H775
    0.8083100605103788    0.3758885835291311    0.6937817633846788     H776
    0.8083100605103788    0.3758885835291311    0.0271150967180121     H777
    0.8083100605103788    0.7092219168624645    0.3604484300513455     H778
    0.8083100605103788    0.7092219168624645    0.6937817633846788     H779
    0.8083100605103788    0.7092219168624645    0.0271150967180121     H780
    0.8083100605103788    0.0425552501957978    0.3604484300513455     H781
    0.8083100605103788    0.0425552501957978    0.6937817633846788     H782
    0.8083100605103788    0.0425552501957978    0.0271150967180121     H783
    0.1385950959124482    0.3172125357386569    0.4518102720773278     H784
    0.1385950959124482    0.3172125357386569    0.7851436054106611     H785
    0.1385950959124482    0.3172125357386569    0.1184769387439944     H786
    0.1385950959124482    0.6505458690719903    0.4518102720773278     H787
    0.1385950959124482    0.6505458690719903    0.7851436054106611     H788
    0.1385950959124482    0.6505458690719903    0.1184769387439944     H789
    0.1385950959124482    0.9838792024053236    0.4518102720773278     H790
    0.1385950959124482    0.9838792024053236    0.7851436054106611     H791
    0.1385950959124482    0.9838792024053236    0.1184769387439944     H792
    0.4719284292457817    0.3172125357386569    0.4518102720773278     H793
    0.4719284292457817    0.3172125357386569    0.7851436054106611     H794
    0.4719284292457817    0.3172125357386569    0.1184769387439944     H795
    0.4719284292457817    0.6505458690719903    0.4518102720773278     H796
    0.4719284292457817    0.6505458690719903    0.7851436054106611     H797
    0.4719284292457817    0.6505458690719903    0.1184769387439944     H798
    0.4719284292457817    0.9838792024053236    0.4518102720773278     H799
    0.4719284292457817    0.9838792024053236    0.7851436054106611     H800
    0.4719284292457817    0.9838792024053236    0.1184769387439944     H801
    0.8052617625791150    0.3172125357386569    0.4518102720773278     H802
    0.8052617625791150    0.3172125357386569    0.7851436054106611     H803
    0.8052617625791150    0.3172125357386569    0.1184769387439944     H804
    0.8052617625791150    0.6505458690719903    0.4518102720773278     H805
    0.8052617625791150    0.6505458690719903    0.7851436054106611     H806
    0.8052617625791150    0.6505458690719903    0.1184769387439944     H807
    0.8052617625791150    0.9838792024053236    0.4518102720773278     H808
    0.8052617625791150    0.9838792024053236    0.7851436054106611     H809
    0.8052617625791150    0.9838792024053236    0.1184769387439944     H810
    0.1716854466970816    0.2513834742706992    0.4714925137115953     H811
    0.1716854466970816    0.2513834742706992    0.8048258470449287     H812
    0.1716854466970816    0.2513834742706992    0.1381591803782619     H813
    0.1716854466970816    0.5847168076040326    0.4714925137115953     H814
    0.1716854466970816    0.5847168076040326    0.8048258470449287     H815
    0.1716854466970816    0.5847168076040326    0.1381591803782619     H816
    0.1716854466970816    0.9180501409373658    0.4714925137115953     H817
    0.1716854466970816    0.9180501409373658    0.8048258470449287     H818
    0.1716854466970816    0.9180501409373658    0.1381591803782619     H819
    0.5050187800304150    0.2513834742706992    0.4714925137115953     H820
    0.5050187800304150    0.2513834742706992    0.8048258470449287     H821
    0.5050187800304150    0.2513834742706992    0.1381591803782619     H822
    0.5050187800304150    0.5847168076040326    0.4714925137115953     H823
    0.5050187800304150    0.5847168076040326    0.8048258470449287     H824
    0.5050187800304150    0.5847168076040326    0.1381591803782619     H825
    0.5050187800304150    0.9180501409373658    0.4714925137115953     H826
    0.5050187800304150    0.9180501409373658    0.8048258470449287     H827
    0.5050187800304150    0.9180501409373658    0.1381591803782619     H828
    0.8383521133637483    0.2513834742706992    0.4714925137115953     H829
    0.8383521133637483    0.2513834742706992    0.8048258470449287     H830
    0.8383521133637483    0.2513834742706992    0.1381591803782619     H831
    0.8383521133637483    0.5847168076040326    0.4714925137115953     H832
    0.8383521133637483    0.5847168076040326    0.8048258470449287     H833
    0.8383521133637483    0.5847168076040326    0.1381591803782619     H834
    0.8383521133637483    0.9180501409373658    0.4714925137115953     H835
    0.8383521133637483    0.9180501409373658    0.8048258470449287     H836
    0.8383521133637483    0.9180501409373658    0.1381591803782619     H837
    0.0972778741787413    0.2533664334746240    0.3952981583803209     H838
    0.0972778741787413    0.2533664334746240    0.7286314917136543     H839
    0.0972778741787413    0.2533664334746240    0.0619648250469875     H840
    0.0972778741787413    0.5866997668079573    0.3952981583803209     H841
    0.0972778741787413    0.5866997668079573    0.7286314917136543     H842
    0.0972778741787413    0.5866997668079573    0.0619648250469875     H843
    0.0972778741787413    0.9200331001412906    0.3952981583803209     H844
    0.0972778741787413    0.9200331001412906    0.7286314917136543     H845
    0.0972778741787413    0.9200331001412906    0.0619648250469875     H846
    0.4306112075120747    0.2533664334746240    0.3952981583803209     H847
    0.4306112075120747    0.2533664334746240    0.7286314917136543     H848
    0.4306112075120747    0.2533664334746240    0.0619648250469875     H849
    0.4306112075120747    0.5866997668079573    0.3952981583803209     H850
    0.4306112075120747    0.5866997668079573    0.7286314917136543     H851
    0.4306112075120747    0.5866997668079573    0.0619648250469875     H852
    0.4306112075120747    0.9200331001412906    0.3952981583803209     H853
    0.4306112075120747    0.9200331001412906    0.7286314917136543     H854
    0.4306112075120747    0.9200331001412906    0.0619648250469875     H855
    0.7639445408454080    0.2533664334746240    0.3952981583803209     H856
    0.7639445408454080    0.2533664334746240    0.7286314917136543     H857
    0.7639445408454080    0.2533664334746240    0.0619648250469875     H858
    0.7639445408454080    0.5866997668079573    0.3952981583803209     H859
    0.7639445408454080    0.5866997668079573    0.7286314917136543     H860
    0.7639445408454080    0.5866997668079573    0.0619648250469875     H861
    0.7639445408454080    0.9200331001412906    0.3952981583803209     H862
    0.7639445408454080    0.9200331001412906    0.7286314917136543     H863
    0.7639445408454080    0.9200331001412906    0.0619648250469875     H864
    0.0519350293138885    0.2725486138991169    0.4012231854055354     H865
    0.0519350293138885    0.2725486138991169    0.7345565187388687     H866
    0.0519350293138885    0.2725486138991169    0.0678898520722020     H867
    0.0519350293138885    0.6058819472324504    0.4012231854055354     H868
    0.0519350293138885    0.6058819472324504    0.7345565187388687     H869
    0.0519350293138885    0.6058819472324504    0.0678898520722020     H870
    0.0519350293138885    0.9392152805657836    0.4012231854055354     H871
    0.0519350293138885    0.9392152805657836    0.7345565187388687     H872
    0.0519350293138885    0.9392152805657836    0.0678898520722020     H873
    0.3852683626472219    0.2725486138991169    0.4012231854055354     H874
    0.3852683626472219    0.2725486138991169    0.7345565187388687     H875
    0.3852683626472219    0.2725486138991169    0.0678898520722020     H876
    0.3852683626472219    0.6058819472324504    0.4012231854055354     H877
    0.3852683626472219    0.6058819472324504    0.7345565187388687     H878
    0.3852683626472219    0.6058819472324504    0.0678898520722020     H879
    0.3852683626472219    0.9392152805657836    0.4012231854055354     H880
    0.3852683626472219    0.9392152805657836    0.7345565187388687     H881
    0.3852683626472219    0.9392152805657836    0.0678898520722020     H882
    0.7186016959805551    0.2725486138991169    0.4012231854055354     H883
    0.7186016959805551    0.2725486138991169    0.7345565187388687     H884
    0.7186016959805551    0.2725486138991169    0.0678898520722020     H885
    0.7186016959805551    0.6058819472324504    0.4012231854055354     H886
    0.7186016959805551    0.6058819472324504    0.7345565187388687     H887
    0.7186016959805551    0.6058819472324504    0.0678898520722020     H888
    0.7186016959805551    0.9392152805657836    0.4012231854055354     H889
    0.7186016959805551    0.9392152805657836    0.7345565187388687     H890
    0.7186016959805551    0.9392152805657836    0.0678898520722020     H891
    0.1698097769418743    0.3656023846413351    0.4903181942800353     H892
    0.1698097769418743    0.3656023846413351    0.8236515276133687     H893
    0.1698097769418743    0.3656023846413351    0.1569848609467019     H894
    0.1698097769418743    0.6989357179746685    0.4903181942800353     H895
    0.1698097769418743    0.6989357179746685    0.8236515276133687     H896
    0.1698097769418743    0.6989357179746685    0.1569848609467019     H897
    0.1698097769418743    0.0322690513080017    0.4903181942800353     H898
    0.1698097769418743    0.0322690513080017    0.8236515276133687     H899
    0.1698097769418743    0.0322690513080017    0.1569848609467019     H900
    0.5031431102752075    0.3656023846413351    0.4903181942800353     H901
    0.5031431102752075    0.3656023846413351    0.8236515276133687     H902
    0.5031431102752075    0.3656023846413351    0.1569848609467019     H903
    0.5031431102752075    0.6989357179746685    0.4903181942800353     H904
    0.5031431102752075    0.6989357179746685    0.8236515276133687     H905
    0.5031431102752075    0.6989357179746685    0.1569848609467019     H906
    0.5031431102752075    0.0322690513080017    0.4903181942800353     H907
    0.5031431102752075    0.0322690513080017    0.8236515276133687     H908
    0.5031431102752075    0.0322690513080017    0.1569848609467019     H909
    0.8364764436085409    0.3656023846413351    0.4903181942800353     H910
    0.8364764436085409    0.3656023846413351    0.8236515276133687     H911
    0.8364764436085409    0.3656023846413351    0.1569848609467019     H912
    0.8364764436085409    0.6989357179746685    0.4903181942800353     H913
    0.8364764436085409    0.6989357179746685    0.8236515276133687     H914
    0.8364764436085409    0.6989357179746685    0.1569848609467019     H915
    0.8364764436085409    0.0322690513080017    0.4903181942800353     H916
    0.8364764436085409    0.0322690513080017    0.8236515276133687     H917
    0.8364764436085409    0.0322690513080017    0.1569848609467019     H918
    0.1184041429451617    0.3362187321540566    0.3280477617654712     H919
    0.1184041429451617    0.3362187321540566    0.6613810950988046     H920
    0.1184041429451617    0.3362187321540566    0.9947144284321379     H921
    0.1184041429451617    0.6695520654873899    0.3280477617654712     H922
    0.1184041429451617    0.6695520654873899    0.6613810950988046     H923
    0.1184041429451617    0.6695520654873899    0.9947144284321379     H924
    0.1184041429451617    0.0028853988207232    0.3280477617654712     H925
    0.1184041429451617    0.0028853988207232    0.6613810950988046     H926
    0.1184041429451617    0.0028853988207232    0.9947144284321379     H927
    0.4517374762784949    0.3362187321540566    0.3280477617654712     H928
    0.4517374762784949    0.3362187321540566    0.6613810950988046     H929
    0.4517374762784949    0.3362187321540566    0.9947144284321379     H930
    0.4517374762784949    0.6695520654873899    0.3280477617654712     H931
    0.4517374762784949    0.6695520654873899    0.6613810950988046     H932
    0.4517374762784949    0.6695520654873899    0.9947144284321379     H933
    0.4517374762784949    0.0028853988207232    0.3280477617654712     H934
    0.4517374762784949    0.0028853988207232    0.6613810950988046     H935
    0.4517374762784949    0.0028853988207232    0.9947144284321379     H936
    0.7850708096118283    0.3362187321540566    0.3280477617654712     H937
    0.7850708096118283    0.3362187321540566    0.6613810950988046     H938
    0.7850708096118283    0.3362187321540566    0.9947144284321379     H939
    0.7850708096118283    0.6695520654873899    0.3280477617654712     H940
    0.7850708096118283    0.6695520654873899    0.6613810950988046     H941
    0.7850708096118283    0.6695520654873899    0.9947144284321379     H942
    0.7850708096118283    0.0028853988207232    0.3280477617654712     H943
    0.7850708096118283    0.0028853988207232    0.6613810950988046     H944
    0.7850708096118283    0.0028853988207232    0.9947144284321379     H945
    0.2049865673725981    0.2638819719372577    0.3246965180957083     H946
    0.2049865673725981    0.2638819719372577    0.6580298514290417     H947
    0.2049865673725981    0.2638819719372577    0.9913631847623749     H948
    0.2049865673725981    0.5972153052705911    0.3246965180957083     H949
    0.2049865673725981    0.5972153052705911    0.6580298514290417     H950
    0.2049865673725981    0.5972153052705911    0.9913631847623749     H951
    0.2049865673725981    0.9305486386039243    0.3246965180957083     H952
    0.2049865673725981    0.9305486386039243    0.6580298514290417     H953
    0.2049865673725981    0.9305486386039243    0.9913631847623749     H954
    0.5383199007059315    0.2638819719372577    0.3246965180957083     H955
    0.5383199007059315    0.2638819719372577    0.6580298514290417     H956
    0.5383199007059315    0.2638819719372577    0.9913631847623749     H957
    0.5383199007059315    0.5972153052705911    0.3246965180957083     H958
    0.5383199007059315    0.5972153052705911    0.6580298514290417     H959
    0.5383199007059315    0.5972153052705911    0.9913631847623749     H960
    0.5383199007059315    0.9305486386039243    0.3246965180957083     H961
    0.5383199007059315    0.9305486386039243    0.6580298514290417     H962
    0.5383199007059315    0.9305486386039243    0.9913631847623749     H963
    0.8716532340392649    0.2638819719372577    0.3246965180957083     H964
    0.8716532340392649    0.2638819719372577    0.6580298514290417     H965
    0.8716532340392649    0.2638819719372577    0.9913631847623749     H966
    0.8716532340392649    0.5972153052705911    0.3246965180957083     H967
    0.8716532340392649    0.5972153052705911    0.6580298514290417     H968
    0.8716532340392649    0.5972153052705911    0.9913631847623749     H969
    0.8716532340392649    0.9305486386039243    0.3246965180957083     H970
    0.8716532340392649    0.9305486386039243    0.6580298514290417     H971
    0.8716532340392649    0.9305486386039243    0.9913631847623749     H972
    0.1558944861962914    0.2552563648127316    0.2958764650017693     H973
    0.1558944861962914    0.2552563648127316    0.6292097983351027     H974
    0.1558944861962914    0.2552563648127316    0.9625431316684361     H975
    0.1558944861962914    0.5885896981460649    0.2958764650017693     H976
    0.1558944861962914    0.5885896981460649    0.6292097983351027     H977
    0.1558944861962914    0.5885896981460649    0.9625431316684361     H978
    0.1558944861962914    0.9219230314793981    0.2958764650017693     H979
    0.1558944861962914    0.9219230314793981    0.6292097983351027     H980
    0.1558944861962914    0.9219230314793981    0.9625431316684361     H981
    0.4892278195296248    0.2552563648127316    0.2958764650017693     H982
    0.4892278195296248    0.2552563648127316    0.6292097983351027     H983
    0.4892278195296248    0.2552563648127316    0.9625431316684361     H984
    0.4892278195296248    0.5885896981460649    0.2958764650017693     H985
    0.4892278195296248    0.5885896981460649    0.6292097983351027     H986
    0.4892278195296248    0.5885896981460649    0.9625431316684361     H987
    0.4892278195296248    0.9219230314793981    0.2958764650017693     H988
    0.4892278195296248    0.9219230314793981    0.6292097983351027     H989
    0.4892278195296248    0.9219230314793981    0.9625431316684361     H990
    0.8225611528629582    0.2552563648127316    0.2958764650017693     H991
    0.8225611528629582    0.2552563648127316    0.6292097983351027     H992
    0.8225611528629582    0.2552563648127316    0.9625431316684361     H993
    0.8225611528629582    0.5885896981460649    0.2958764650017693     H994
    0.8225611528629582    0.5885896981460649    0.6292097983351027     H995
    0.8225611528629582    0.5885896981460649    0.9625431316684361     H996
    0.8225611528629582    0.9219230314793981    0.2958764650017693     H997
    0.8225611528629582    0.9219230314793981    0.6292097983351027     H998
    0.8225611528629582    0.9219230314793981    0.9625431316684361     H999
    0.1580419855770643    0.2990559613566488    0.4097063516839591    H1000
    0.1580419855770643    0.2990559613566488    0.7430396850172925    H1001
    0.1580419855770643    0.2990559613566488    0.0763730183506257    H1002
    0.1580419855770643    0.6323892946899821    0.4097063516839591    H1003
    0.1580419855770643    0.6323892946899821    0.7430396850172925    H1004
    0.1580419855770643    0.6323892946899821    0.0763730183506257    H1005
    0.1580419855770643    0.9657226280233153    0.4097063516839591    H1006
    0.1580419855770643    0.9657226280233153    0.7430396850172925    H1007
    0.1580419855770643    0.9657226280233153    0.0763730183506257    H1008
    0.4913753189103977    0.2990559613566488    0.4097063516839591    H1009
    0.4913753189103977    0.2990559613566488    0.7430396850172925    H1010
    0.4913753189103977    0.2990559613566488    0.0763730183506257    H1011
    0.4913753189103977    0.6323892946899821    0.4097063516839591    H1012
    0.4913753189103977    0.6323892946899821    0.7430396850172925    H1013
    0.4913753189103977    0.6323892946899821    0.0763730183506257    H1014
    0.4913753189103977    0.9657226280233153    0.4097063516839591    H1015
    0.4913753189103977    0.9657226280233153    0.7430396850172925    H1016
    0.4913753189103977    0.9657226280233153    0.0763730183506257    H1017
    0.8247086522437310    0.2990559613566488    0.4097063516839591    H1018
    0.8247086522437310    0.2990559613566488    0.7430396850172925    H1019
    0.8247086522437310    0.2990559613566488    0.0763730183506257    H1020
    0.8247086522437310    0.6323892946899821    0.4097063516839591    H1021
    0.8247086522437310    0.6323892946899821    0.7430396850172925    H1022
    0.8247086522437310    0.6323892946899821    0.0763730183506257    H1023
    0.8247086522437310    0.9657226280233153    0.4097063516839591    H1024
    0.8247086522437310    0.9657226280233153    0.7430396850172925    H1025
    0.8247086522437310    0.9657226280233153    0.0763730183506257    H1026
    0.1246598290453882    0.2780348649842026    0.3733083639008512    H1027
    0.1246598290453882    0.2780348649842026    0.7066416972341846    H1028
    0.1246598290453882    0.2780348649842026    0.0399750305675179    H1029
    0.1246598290453882    0.6113681983175359    0.3733083639008512    H1030
    0.1246598290453882    0.6113681983175359    0.7066416972341846    H1031
    0.1246598290453882    0.6113681983175359    0.0399750305675179    H1032
    0.1246598290453882    0.9447015316508691    0.3733083639008512    H1033
    0.1246598290453882    0.9447015316508691    0.7066416972341846    H1034
    0.1246598290453882    0.9447015316508691    0.0399750305675179    H1035
    0.4579931623787216    0.2780348649842026    0.3733083639008512    H1036
    0.4579931623787216    0.2780348649842026    0.7066416972341846    H1037
    0.4579931623787216    0.2780348649842026    0.0399750305675179    H1038
    0.4579931623787216    0.6113681983175359    0.3733083639008512    H1039
    0.4579931623787216    0.6113681983175359    0.7066416972341846    H1040
    0.4579931623787216    0.6113681983175359    0.0399750305675179    H1041
    0.4579931623787216    0.9447015316508691    0.3733083639008512    H1042
    0.4579931623787216    0.9447015316508691    0.7066416972341846    H1043
    0.4579931623787216    0.9447015316508691    0.0399750305675179    H1044
    0.7913264957120549    0.2780348649842026    0.3733083639008512    H1045
    0.7913264957120549    0.2780348649842026    0.7066416972341846    H1046
    0.7913264957120549    0.2780348649842026    0.0399750305675179    H1047
    0.7913264957120549    0.6113681983175359    0.3733083639008512    H1048
    0.7913264957120549    0.6113681983175359    0.7066416972341846    H1049
    0.7913264957120549    0.6113681983175359    0.0399750305675179    H1050
    0.7913264957120549    0.9447015316508691    0.3733083639008512    H1051
    0.7913264957120549    0.9447015316508691    0.7066416972341846    H1052
    0.7913264957120549    0.9447015316508691    0.0399750305675179    H1053
    0.2056837377657746    0.3842921185540877    0.4869202264955628    H1054
    0.2056837377657746    0.3842921185540877    0.8202535598288961    H1055
    0.2056837377657746    0.3842921185540877    0.1535868931622294    H1056
    0.2056837377657746    0.7176254518874211    0.4869202264955628    H1057
    0.2056837377657746    0.7176254518874211    0.8202535598288961    H1058
    0.2056837377657746    0.7176254518874211    0.1535868931622294    H1059
    0.2056837377657746    0.0509587852207544    0.4869202264955628    H1060
    0.2056837377657746    0.0509587852207544    0.8202535598288961    H1061
    0.2056837377657746    0.0509587852207544    0.1535868931622294    H1062
    0.5390170710991080    0.3842921185540877    0.4869202264955628    H1063
    0.5390170710991080    0.3842921185540877    0.8202535598288961    H1064
    0.5390170710991080    0.3842921185540877    0.1535868931622294    H1065
    0.5390170710991080    0.7176254518874211    0.4869202264955628    H1066
    0.5390170710991080    0.7176254518874211    0.8202535598288961    H1067
    0.5390170710991080    0.7176254518874211    0.1535868931622294    H1068
    0.5390170710991080    0.0509587852207544    0.4869202264955628    H1069
    0.5390170710991080    0.0509587852207544    0.8202535598288961    H1070
    0.5390170710991080    0.0509587852207544    0.1535868931622294    H1071
    0.8723504044324413    0.3842921185540877    0.4869202264955628    H1072
    0.8723504044324413    0.3842921185540877    0.8202535598288961    H1073
    0.8723504044324413    0.3842921185540877    0.1535868931622294    H1074
    0.8723504044324413    0.7176254518874211    0.4869202264955628    H1075
    0.8723504044324413    0.7176254518874211    0.8202535598288961    H1076
    0.8723504044324413    0.7176254518874211    0.1535868931622294    H1077
    0.8723504044324413    0.0509587852207544    0.4869202264955628    H1078
    0.8723504044324413    0.0509587852207544    0.8202535598288961    H1079
    0.8723504044324413    0.0509587852207544    0.1535868931622294    H1080
    0.1248293732910588    0.3094051374441786    0.2729152586234308    H1081
    0.1248293732910588    0.3094051374441786    0.6062485919567642    H1082
    0.1248293732910588    0.3094051374441786    0.9395819252900974    H1083
    0.1248293732910588    0.6427384707775120    0.2729152586234308    H1084
    0.1248293732910588    0.6427384707775120    0.6062485919567642    H1085
    0.1248293732910588    0.6427384707775120    0.9395819252900974    H1086
    0.1248293732910588    0.9760718041108453    0.2729152586234308    H1087
    0.1248293732910588    0.9760718041108453    0.6062485919567642    H1088
    0.1248293732910588    0.9760718041108453    0.9395819252900974    H1089
    0.4581627066243921    0.3094051374441786    0.2729152586234308    H1090
    0.4581627066243921    0.3094051374441786    0.6062485919567642    H1091
    0.4581627066243921    0.3094051374441786    0.9395819252900974    H1092
    0.4581627066243921    0.6427384707775120    0.2729152586234308    H1093
    0.4581627066243921    0.6427384707775120    0.6062485919567642    H1094
    0.4581627066243921    0.6427384707775120    0.9395819252900974    H1095
    0.4581627066243921    0.9760718041108453    0.2729152586234308    H1096
    0.4581627066243921    0.9760718041108453    0.6062485919567642    H1097
    0.4581627066243921    0.9760718041108453    0.9395819252900974    H1098
    0.7914960399577253    0.3094051374441786    0.2729152586234308    H1099
    0.7914960399577253    0.3094051374441786    0.6062485919567642    H1100
    0.7914960399577253    0.3094051374441786    0.9395819252900974    H1101
    0.7914960399577253    0.6427384707775120    0.2729152586234308    H1102
    0.7914960399577253    0.6427384707775120    0.6062485919567642    H1103
    0.7914960399577253    0.6427384707775120    0.9395819252900974    H1104
    0.7914960399577253    0.9760718041108453    0.2729152586234308    H1105
    0.7914960399577253    0.9760718041108453    0.6062485919567642    H1106
    0.7914960399577253    0.9760718041108453    0.9395819252900974    H1107
    0.0649901058644774    0.4213336662631992    0.1602902398694031    H1108
    0.0649901058644774    0.4213336662631992    0.4936235732027363    H1109
    0.0649901058644774    0.4213336662631992    0.8269569065360697    H1110
    0.0649901058644774    0.7546669995965326    0.1602902398694031    H1111
    0.0649901058644774    0.7546669995965326    0.4936235732027363    H1112
    0.0649901058644774    0.7546669995965326    0.8269569065360697    H1113
    0.0649901058644774    0.0880003329298659    0.1602902398694031    H1114
    0.0649901058644774    0.0880003329298659    0.4936235732027363    H1115
    0.0649901058644774    0.0880003329298659    0.8269569065360697    H1116
    0.3983234391978108    0.4213336662631992    0.1602902398694031    H1117
    0.3983234391978108    0.4213336662631992    0.4936235732027363    H1118
    0.3983234391978108    0.4213336662631992    0.8269569065360697    H1119
    0.3983234391978108    0.7546669995965326    0.1602902398694031    H1120
    0.3983234391978108    0.7546669995965326    0.4936235732027363    H1121
    0.3983234391978108    0.7546669995965326    0.8269569065360697    H1122
    0.3983234391978108    0.0880003329298659    0.1602902398694031    H1123
    0.3983234391978108    0.0880003329298659    0.4936235732027363    H1124
    0.3983234391978108    0.0880003329298659    0.8269569065360697    H1125
    0.7316567725311440    0.4213336662631992    0.1602902398694031    H1126
    0.7316567725311440    0.4213336662631992    0.4936235732027363    H1127
    0.7316567725311440    0.4213336662631992    0.8269569065360697    H1128
    0.7316567725311440    0.7546669995965326    0.1602902398694031    H1129
    0.7316567725311440    0.7546669995965326    0.4936235732027363    H1130
    0.7316567725311440    0.7546669995965326    0.8269569065360697    H1131
    0.7316567725311440    0.0880003329298659    0.1602902398694031    H1132
    0.7316567725311440    0.0880003329298659    0.4936235732027363    H1133
    0.7316567725311440    0.0880003329298659    0.8269569065360697    H1134
    0.0657370657762266    0.3707668671199948    0.1955434329465512    H1135
    0.0657370657762266    0.3707668671199948    0.5288767662798846    H1136
    0.0657370657762266    0.3707668671199948    0.8622100996132178    H1137
    0.0657370657762266    0.7041002004533282    0.1955434329465512    H1138
    0.0657370657762266    0.7041002004533282    0.5288767662798846    H1139
    0.0657370657762266    0.7041002004533282    0.8622100996132178    H1140
    0.0657370657762266    0.0374335337866615    0.1955434329465512    H1141
    0.0657370657762266    0.0374335337866615    0.5288767662798846    H1142
    0.0657370657762266    0.0374335337866615    0.8622100996132178    H1143
    0.3990703991095601    0.3707668671199948    0.1955434329465512    H1144
    0.3990703991095601    0.3707668671199948    0.5288767662798846    H1145
    0.3990703991095601    0.3707668671199948    0.8622100996132178    H1146
    0.3990703991095601    0.7041002004533282    0.1955434329465512    H1147
    0.3990703991095601    0.7041002004533282    0.5288767662798846    H1148
    0.3990703991095601    0.7041002004533282    0.8622100996132178    H1149
    0.3990703991095601    0.0374335337866615    0.1955434329465512    H1150
    0.3990703991095601    0.0374335337866615    0.5288767662798846    H1151
    0.3990703991095601    0.0374335337866615    0.8622100996132178    H1152
    0.7324037324428934    0.3707668671199948    0.1955434329465512    H1153
    0.7324037324428934    0.3707668671199948    0.5288767662798846    H1154
    0.7324037324428934    0.3707668671199948    0.8622100996132178    H1155
    0.7324037324428934    0.7041002004533282    0.1955434329465512    H1156
    0.7324037324428934    0.7041002004533282    0.5288767662798846    H1157
    0.7324037324428934    0.7041002004533282    0.8622100996132178    H1158
    0.7324037324428934    0.0374335337866615    0.1955434329465512    H1159
    0.7324037324428934    0.0374335337866615    0.5288767662798846    H1160
    0.7324037324428934    0.0374335337866615    0.8622100996132178    H1161
    0.1571843839314119    0.1488900006624629    0.2907876508727159    H1162
    0.1571843839314119    0.1488900006624629    0.6241209842060491    H1163
    0.1571843839314119    0.1488900006624629    0.9574543175393824    H1164
    0.1571843839314119    0.4822233339957962    0.2907876508727159    H1165
    0.1571843839314119    0.4822233339957962    0.6241209842060491    H1166
    0.1571843839314119    0.4822233339957962    0.9574543175393824    H1167
    0.1571843839314119    0.8155566673291296    0.2907876508727159    H1168
    0.1571843839314119    0.8155566673291296    0.6241209842060491    H1169
    0.1571843839314119    0.8155566673291296    0.9574543175393824    H1170
    0.4905177172647452    0.1488900006624629    0.2907876508727159    H1171
    0.4905177172647452    0.1488900006624629    0.6241209842060491    H1172
    0.4905177172647452    0.1488900006624629    0.9574543175393824    H1173
    0.4905177172647452    0.4822233339957962    0.2907876508727159    H1174
    0.4905177172647452    0.4822233339957962    0.6241209842060491    H1175
    0.4905177172647452    0.4822233339957962    0.9574543175393824    H1176
    0.4905177172647452    0.8155566673291296    0.2907876508727159    H1177
    0.4905177172647452    0.8155566673291296    0.6241209842060491    H1178
    0.4905177172647452    0.8155566673291296    0.9574543175393824    H1179
    0.8238510505980785    0.1488900006624629    0.2907876508727159    H1180
    0.8238510505980785    0.1488900006624629    0.6241209842060491    H1181
    0.8238510505980785    0.1488900006624629    0.9574543175393824    H1182
    0.8238510505980785    0.4822233339957962    0.2907876508727159    H1183
    0.8238510505980785    0.4822233339957962    0.6241209842060491    H1184
    0.8238510505980785    0.4822233339957962    0.9574543175393824    H1185
    0.8238510505980785    0.8155566673291296    0.2907876508727159    H1186
    0.8238510505980785    0.8155566673291296    0.6241209842060491    H1187
    0.8238510505980785    0.8155566673291296    0.9574543175393824    H1188
    0.1404959654052730    0.2479388594564383    0.3429704588359846    H1189
    0.1404959654052730    0.2479388594564383    0.6763037921693180    H1190
    0.1404959654052730    0.2479388594564383    0.0096371255026513    H1191
    0.1404959654052730    0.5812721927897716    0.3429704588359846    H1192
    0.1404959654052730    0.5812721927897716    0.6763037921693180    H1193
    0.1404959654052730    0.5812721927897716    0.0096371255026513    H1194
    0.1404959654052730    0.9146055261231049    0.3429704588359846    H1195
    0.1404959654052730    0.9146055261231049    0.6763037921693180    H1196
    0.1404959654052730    0.9146055261231049    0.0096371255026513    H1197
    0.4738292987386064    0.2479388594564383    0.3429704588359846    H1198
    0.4738292987386064    0.2479388594564383    0.6763037921693180    H1199
    0.4738292987386064    0.2479388594564383    0.0096371255026513    H1200
    0.4738292987386064    0.5812721927897716    0.3429704588359846    H1201
    0.4738292987386064    0.5812721927897716    0.6763037921693180    H1202
    0.4738292987386064    0.5812721927897716    0.0096371255026513    H1203
    0.4738292987386064    0.9146055261231049    0.3429704588359846    H1204
    0.4738292987386064    0.9146055261231049    0.6763037921693180    H1205
    0.4738292987386064    0.9146055261231049    0.0096371255026513    H1206
    0.8071626320719396    0.2479388594564383    0.3429704588359846    H1207
    0.8071626320719396    0.2479388594564383    0.6763037921693180    H1208
    0.8071626320719396    0.2479388594564383    0.0096371255026513    H1209
    0.8071626320719396    0.5812721927897716    0.3429704588359846    H1210
    0.8071626320719396    0.5812721927897716    0.6763037921693180    H1211
    0.8071626320719396    0.5812721927897716    0.0096371255026513    H1212
    0.8071626320719396    0.9146055261231049    0.3429704588359846    H1213
    0.8071626320719396    0.9146055261231049    0.6763037921693180    H1214
    0.8071626320719396    0.9146055261231049    0.0096371255026513    H1215
    0.1545692459119068    0.2893537233943911    0.2529093673919200    H1216
    0.1545692459119068    0.2893537233943911    0.5862427007252533    H1217
    0.1545692459119068    0.2893537233943911    0.9195760340585866    H1218
    0.1545692459119068    0.6226870567277245    0.2529093673919200    H1219
    0.1545692459119068    0.6226870567277245    0.5862427007252533    H1220
    0.1545692459119068    0.6226870567277245    0.9195760340585866    H1221
    0.1545692459119068    0.9560203900610578    0.2529093673919200    H1222
    0.1545692459119068    0.9560203900610578    0.5862427007252533    H1223
    0.1545692459119068    0.9560203900610578    0.9195760340585866    H1224
    0.4879025792452401    0.2893537233943911    0.2529093673919200    H1225
    0.4879025792452401    0.2893537233943911    0.5862427007252533    H1226
    0.4879025792452401    0.2893537233943911    0.9195760340585866    H1227
    0.4879025792452401    0.6226870567277245    0.2529093673919200    H1228
    0.4879025792452401    0.6226870567277245    0.5862427007252533    H1229
    0.4879025792452401    0.6226870567277245    0.9195760340585866    H1230
    0.4879025792452401    0.9560203900610578    0.2529093673919200    H1231
    0.4879025792452401    0.9560203900610578    0.5862427007252533    H1232
    0.4879025792452401    0.9560203900610578    0.9195760340585866    H1233
    0.8212359125785734    0.2893537233943911    0.2529093673919200    H1234
    0.8212359125785734    0.2893537233943911    0.5862427007252533    H1235
    0.8212359125785734    0.2893537233943911    0.9195760340585866    H1236
    0.8212359125785734    0.6226870567277245    0.2529093673919200    H1237
    0.8212359125785734    0.6226870567277245    0.5862427007252533    H1238
    0.8212359125785734    0.6226870567277245    0.9195760340585866    H1239
    0.8212359125785734    0.9560203900610578    0.2529093673919200    H1240
    0.8212359125785734    0.9560203900610578    0.5862427007252533    H1241
    0.8212359125785734    0.9560203900610578    0.9195760340585866    H1242
    0.1939447166906912    0.3248891940947782    0.4603850746582756    H1243
    0.1939447166906912    0.3248891940947782    0.7937184079916089    H1244
    0.1939447166906912    0.3248891940947782    0.1270517413249422    H1245
    0.1939447166906912    0.6582225274281116    0.4603850746582756    H1246
    0.1939447166906912    0.6582225274281116    0.7937184079916089    H1247
    0.1939447166906912    0.6582225274281116    0.1270517413249422    H1248
    0.1939447166906912    0.9915558607614449    0.4603850746582756    H1249
    0.1939447166906912    0.9915558607614449    0.7937184079916089    H1250
    0.1939447166906912    0.9915558607614449    0.1270517413249422    H1251
    0.5272780500240246    0.3248891940947782    0.4603850746582756    H1252
    0.5272780500240246    0.3248891940947782    0.7937184079916089    H1253
    0.5272780500240246    0.3248891940947782    0.1270517413249422    H1254
    0.5272780500240246    0.6582225274281116    0.4603850746582756    H1255
    0.5272780500240246    0.6582225274281116    0.7937184079916089    H1256
    0.5272780500240246    0.6582225274281116    0.1270517413249422    H1257
    0.5272780500240246    0.9915558607614449    0.4603850746582756    H1258
    0.5272780500240246    0.9915558607614449    0.7937184079916089    H1259
    0.5272780500240246    0.9915558607614449    0.1270517413249422    H1260
    0.8606113833573579    0.3248891940947782    0.4603850746582756    H1261
    0.8606113833573579    0.3248891940947782    0.7937184079916089    H1262
    0.8606113833573579    0.3248891940947782    0.1270517413249422    H1263
    0.8606113833573579    0.6582225274281116    0.4603850746582756    H1264
    0.8606113833573579    0.6582225274281116    0.7937184079916089    H1265
    0.8606113833573579    0.6582225274281116    0.1270517413249422    H1266
    0.8606113833573579    0.9915558607614449    0.4603850746582756    H1267
    0.8606113833573579    0.9915558607614449    0.7937184079916089    H1268
    0.8606113833573579    0.9915558607614449    0.1270517413249422    H1269
    0.1451448680248432    0.3714660787142916    0.2951769756437537    H1270
    0.1451448680248432    0.3714660787142916    0.6285103089770869    H1271
    0.1451448680248432    0.3714660787142916    0.9618436423104202    H1272
    0.1451448680248432    0.7047994120476249    0.2951769756437537    H1273
    0.1451448680248432    0.7047994120476249    0.6285103089770869    H1274
    0.1451448680248432    0.7047994120476249    0.9618436423104202    H1275
    0.1451448680248432    0.0381327453809582    0.2951769756437537    H1276
    0.1451448680248432    0.0381327453809582    0.6285103089770869    H1277
    0.1451448680248432    0.0381327453809582    0.9618436423104202    H1278
    0.4784782013581765    0.3714660787142916    0.2951769756437537    H1279
    0.4784782013581765    0.3714660787142916    0.6285103089770869    H1280
    0.4784782013581765    0.3714660787142916    0.9618436423104202    H1281
    0.4784782013581765    0.7047994120476249    0.2951769756437537    H1282
    0.4784782013581765    0.7047994120476249    0.6285103089770869    H1283
    0.4784782013581765    0.7047994120476249    0.9618436423104202    H1284
    0.4784782013581765    0.0381327453809582    0.2951769756437537    H1285
    0.4784782013581765    0.0381327453809582    0.6285103089770869    H1286
    0.4784782013581765    0.0381327453809582    0.9618436423104202    H1287
    0.8118115346915098    0.3714660787142916    0.2951769756437537    H1288
    0.8118115346915098    0.3714660787142916    0.6285103089770869    H1289
    0.8118115346915098    0.3714660787142916    0.9618436423104202    H1290
    0.8118115346915098    0.7047994120476249    0.2951769756437537    H1291
    0.8118115346915098    0.7047994120476249    0.6285103089770869    H1292
    0.8118115346915098    0.7047994120476249    0.9618436423104202    H1293
    0.8118115346915098    0.0381327453809582    0.2951769756437537    H1294
    0.8118115346915098    0.0381327453809582    0.6285103089770869    H1295
    0.8118115346915098    0.0381327453809582    0.9618436423104202    H1296
    0.1256846153634371    0.3910008006639343    0.3966908385450780    H1297
    0.1256846153634371    0.3910008006639343    0.7300241718784113    H1298
    0.1256846153634371    0.3910008006639343    0.0633575052117446    H1299
    0.1256846153634371    0.7243341339972675    0.3966908385450780    H1300
    0.1256846153634371    0.7243341339972675    0.7300241718784113    H1301
    0.1256846153634371    0.7243341339972675    0.0633575052117446    H1302
    0.1256846153634371    0.0576674673306009    0.3966908385450780    H1303
    0.1256846153634371    0.0576674673306009    0.7300241718784113    H1304
    0.1256846153634371    0.0576674673306009    0.0633575052117446    H1305
    0.4590179486967705    0.3910008006639343    0.3966908385450780    H1306
    0.4590179486967705    0.3910008006639343    0.7300241718784113    H1307
    0.4590179486967705    0.3910008006639343    0.0633575052117446    H1308
    0.4590179486967705    0.7243341339972675    0.3966908385450780    H1309
    0.4590179486967705    0.7243341339972675    0.7300241718784113    H1310
    0.4590179486967705    0.7243341339972675    0.0633575052117446    H1311
    0.4590179486967705    0.0576674673306009    0.3966908385450780    H1312
    0.4590179486967705    0.0576674673306009    0.7300241718784113    H1313
    0.4590179486967705    0.0576674673306009    0.0633575052117446    H1314
    0.7923512820301037    0.3910008006639343    0.3966908385450780    H1315
    0.7923512820301037    0.3910008006639343    0.7300241718784113    H1316
    0.7923512820301037    0.3910008006639343    0.0633575052117446    H1317
    0.7923512820301037    0.7243341339972675    0.3966908385450780    H1318
    0.7923512820301037    0.7243341339972675    0.7300241718784113    H1319
    0.7923512820301037    0.7243341339972675    0.0633575052117446    H1320
    0.7923512820301037    0.0576674673306009    0.3966908385450780    H1321
    0.7923512820301037    0.0576674673306009    0.7300241718784113    H1322
    0.7923512820301037    0.0576674673306009    0.0633575052117446    H1323
    0.2861391673276413    0.2951701845753822    0.2721359217425743    H1324
    0.2861391673276413    0.2951701845753822    0.6054692550759077    H1325
    0.2861391673276413    0.2951701845753822    0.9388025884092409    H1326
    0.2861391673276413    0.6285035179087157    0.2721359217425743    H1327
    0.2861391673276413    0.6285035179087157    0.6054692550759077    H1328
    0.2861391673276413    0.6285035179087157    0.9388025884092409    H1329
    0.2861391673276413    0.9618368512420490    0.2721359217425743    H1330
    0.2861391673276413    0.9618368512420490    0.6054692550759077    H1331
    0.2861391673276413    0.9618368512420490    0.9388025884092409    H1332
    0.6194725006609747    0.2951701845753822    0.2721359217425743    H1333
    0.6194725006609747    0.2951701845753822    0.6054692550759077    H1334
    0.6194725006609747    0.2951701845753822    0.9388025884092409    H1335
    0.6194725006609747    0.6285035179087157    0.2721359217425743    H1336
    0.6194725006609747    0.6285035179087157    0.6054692550759077    H1337
    0.6194725006609747    0.6285035179087157    0.9388025884092409    H1338
    0.6194725006609747    0.9618368512420490    0.2721359217425743    H1339
    0.6194725006609747    0.9618368512420490    0.6054692550759077    H1340
    0.6194725006609747    0.9618368512420490    0.9388025884092409    H1341
    0.9528058339943080    0.2951701845753822    0.2721359217425743    H1342
    0.9528058339943080    0.2951701845753822    0.6054692550759077    H1343
    0.9528058339943080    0.2951701845753822    0.9388025884092409    H1344
    0.9528058339943080    0.6285035179087157    0.2721359217425743    H1345
    0.9528058339943080    0.6285035179087157    0.6054692550759077    H1346
    0.9528058339943080    0.6285035179087157    0.9388025884092409    H1347
    0.9528058339943080    0.9618368512420490    0.2721359217425743    H1348
    0.9528058339943080    0.9618368512420490    0.6054692550759077    H1349
    0.9528058339943080    0.9618368512420490    0.9388025884092409    H1350
    0.2757905838796376    0.3010119767838864    0.4232352741938801    H1351
    0.2757905838796376    0.3010119767838864    0.7565686075272133    H1352
    0.2757905838796376    0.3010119767838864    0.0899019408605467    H1353
    0.2757905838796376    0.6343453101172197    0.4232352741938801    H1354
    0.2757905838796376    0.6343453101172197    0.7565686075272133    H1355
    0.2757905838796376    0.6343453101172197    0.0899019408605467    H1356
    0.2757905838796376    0.9676786434505530    0.4232352741938801    H1357
    0.2757905838796376    0.9676786434505530    0.7565686075272133    H1358
    0.2757905838796376    0.9676786434505530    0.0899019408605467    H1359
    0.6091239172129710    0.3010119767838864    0.4232352741938801    H1360
    0.6091239172129710    0.3010119767838864    0.7565686075272133    H1361
    0.6091239172129710    0.3010119767838864    0.0899019408605467    H1362
    0.6091239172129710    0.6343453101172197    0.4232352741938801    H1363
    0.6091239172129710    0.6343453101172197    0.7565686075272133    H1364
    0.6091239172129710    0.6343453101172197    0.0899019408605467    H1365
    0.6091239172129710    0.9676786434505530    0.4232352741938801    H1366
    0.6091239172129710    0.9676786434505530    0.7565686075272133    H1367
    0.6091239172129710    0.9676786434505530    0.0899019408605467    H1368
    0.9424572505463042    0.3010119767838864    0.4232352741938801    H1369
    0.9424572505463042    0.3010119767838864    0.7565686075272133    H1370
    0.9424572505463042    0.3010119767838864    0.0899019408605467    H1371
    0.9424572505463042    0.6343453101172197    0.4232352741938801    H1372
    0.9424572505463042    0.6343453101172197    0.7565686075272133    H1373
    0.9424572505463042    0.6343453101172197    0.0899019408605467    H1374
    0.9424572505463042    0.9676786434505530    0.4232352741938801    H1375
    0.9424572505463042    0.9676786434505530    0.7565686075272133    H1376
    0.9424572505463042    0.9676786434505530    0.0899019408605467    H1377
    0.1829474945374931    0.1925213478268832    0.3431289287295716    H1378
    0.1829474945374931    0.1925213478268832    0.6764622620629049    H1379
    0.1829474945374931    0.1925213478268832    0.0097955953962382    H1380
    0.1829474945374931    0.5258546811602165    0.3431289287295716    H1381
    0.1829474945374931    0.5258546811602165    0.6764622620629049    H1382
    0.1829474945374931    0.5258546811602165    0.0097955953962382    H1383
    0.1829474945374931    0.8591880144935499    0.3431289287295716    H1384
    0.1829474945374931    0.8591880144935499    0.6764622620629049    H1385
    0.1829474945374931    0.8591880144935499    0.0097955953962382    H1386
    0.5162808278708265    0.1925213478268832    0.3431289287295716    H1387
    0.5162808278708265    0.1925213478268832    0.6764622620629049    H1388
    0.5162808278708265    0.1925213478268832    0.0097955953962382    H1389
    0.5162808278708265    0.5258546811602165    0.3431289287295716    H1390
    0.5162808278708265    0.5258546811602165    0.6764622620629049    H1391
    0.5162808278708265    0.5258546811602165    0.0097955953962382    H1392
    0.5162808278708265    0.8591880144935499    0.3431289287295716    H1393
    0.5162808278708265    0.8591880144935499    0.6764622620629049    H1394
    0.5162808278708265    0.8591880144935499    0.0097955953962382    H1395
    0.8496141612041599    0.1925213478268832    0.3431289287295716    H1396
    0.8496141612041599    0.1925213478268832    0.6764622620629049    H1397
    0.8496141612041599    0.1925213478268832    0.0097955953962382    H1398
    0.8496141612041599    0.5258546811602165    0.3431289287295716    H1399
    0.8496141612041599    0.5258546811602165    0.6764622620629049    H1400
    0.8496141612041599    0.5258546811602165    0.0097955953962382    H1401
    0.8496141612041599    0.8591880144935499    0.3431289287295716    H1402
    0.8496141612041599    0.8591880144935499    0.6764622620629049    H1403
    0.8496141612041599    0.8591880144935499    0.0097955953962382    H1404
    0.1846464342173956    0.3469653185795554    0.3155991039844497    H1405
    0.1846464342173956    0.3469653185795554    0.6489324373177831    H1406
    0.1846464342173956    0.3469653185795554    0.9822657706511164    H1407
    0.1846464342173956    0.6802986519128887    0.3155991039844497    H1408
    0.1846464342173956    0.6802986519128887    0.6489324373177831    H1409
    0.1846464342173956    0.6802986519128887    0.9822657706511164    H1410
    0.1846464342173956    0.0136319852462220    0.3155991039844497    H1411
    0.1846464342173956    0.0136319852462220    0.6489324373177831    H1412
    0.1846464342173956    0.0136319852462220    0.9822657706511164    H1413
    0.5179797675507288    0.3469653185795554    0.3155991039844497    H1414
    0.5179797675507288    0.3469653185795554    0.6489324373177831    H1415
    0.5179797675507288    0.3469653185795554    0.9822657706511164    H1416
    0.5179797675507288    0.6802986519128887    0.3155991039844497    H1417
    0.5179797675507288    0.6802986519128887    0.6489324373177831    H1418
    0.5179797675507288    0.6802986519128887    0.9822657706511164    H1419
    0.5179797675507288    0.0136319852462220    0.3155991039844497    H1420
    0.5179797675507288    0.0136319852462220    0.6489324373177831    H1421
    0.5179797675507288    0.0136319852462220    0.9822657706511164    H1422
    0.8513131008840622    0.3469653185795554    0.3155991039844497    H1423
    0.8513131008840622    0.3469653185795554    0.6489324373177831    H1424
    0.8513131008840622    0.3469653185795554    0.9822657706511164    H1425
    0.8513131008840622    0.6802986519128887    0.3155991039844497    H1426
    0.8513131008840622    0.6802986519128887    0.6489324373177831    H1427
    0.8513131008840622    0.6802986519128887    0.9822657706511164    H1428
    0.8513131008840622    0.0136319852462220    0.3155991039844497    H1429
    0.8513131008840622    0.0136319852462220    0.6489324373177831    H1430
    0.8513131008840622    0.0136319852462220    0.9822657706511164    H1431
    0.1129392825536364    0.2928826260065485    0.3200951979226525    H1432
    0.1129392825536364    0.2928826260065485    0.6534285312559858    H1433
    0.1129392825536364    0.2928826260065485    0.9867618645893190    H1434
    0.1129392825536364    0.6262159593398818    0.3200951979226525    H1435
    0.1129392825536364    0.6262159593398818    0.6534285312559858    H1436
    0.1129392825536364    0.6262159593398818    0.9867618645893190    H1437
    0.1129392825536364    0.9595492926732151    0.3200951979226525    H1438
    0.1129392825536364    0.9595492926732151    0.6534285312559858    H1439
    0.1129392825536364    0.9595492926732151    0.9867618645893190    H1440
    0.4462726158869696    0.2928826260065485    0.3200951979226525    H1441
    0.4462726158869696    0.2928826260065485    0.6534285312559858    H1442
    0.4462726158869696    0.2928826260065485    0.9867618645893190    H1443
    0.4462726158869696    0.6262159593398818    0.3200951979226525    H1444
    0.4462726158869696    0.6262159593398818    0.6534285312559858    H1445
    0.4462726158869696    0.6262159593398818    0.9867618645893190    H1446
    0.4462726158869696    0.9595492926732151    0.3200951979226525    H1447
    0.4462726158869696    0.9595492926732151    0.6534285312559858    H1448
    0.4462726158869696    0.9595492926732151    0.9867618645893190    H1449
    0.7796059492203030    0.2928826260065485    0.3200951979226525    H1450
    0.7796059492203030    0.2928826260065485    0.6534285312559858    H1451
    0.7796059492203030    0.2928826260065485    0.9867618645893190    H1452
    0.7796059492203030    0.6262159593398818    0.3200951979226525    H1453
    0.7796059492203030    0.6262159593398818    0.6534285312559858    H1454
    0.7796059492203030    0.6262159593398818    0.9867618645893190    H1455
    0.7796059492203030    0.9595492926732151    0.3200951979226525    H1456
    0.7796059492203030    0.9595492926732151    0.6534285312559858    H1457
    0.7796059492203030    0.9595492926732151    0.9867618645893190    H1458
    0.2393539197052890    0.3725343641071378    0.5491491646582427    H1459
    0.2393539197052890    0.3725343641071378    0.8824824979915761    H1460
    0.2393539197052890    0.3725343641071378    0.2158158313249094    H1461
    0.2393539197052890    0.7058676974404712    0.5491491646582427    H1462
    0.2393539197052890    0.7058676974404712    0.8824824979915761    H1463
    0.2393539197052890    0.7058676974404712    0.2158158313249094    H1464
    0.2393539197052890    0.0392010307738044    0.5491491646582427    H1465
    0.2393539197052890    0.0392010307738044    0.8824824979915761    H1466
    0.2393539197052890    0.0392010307738044    0.2158158313249094    H1467
    0.5726872530386222    0.3725343641071378    0.5491491646582427    H1468
    0.5726872530386222    0.3725343641071378    0.8824824979915761    H1469
    0.5726872530386222    0.3725343641071378    0.2158158313249094    H1470
    0.5726872530386222    0.7058676974404712    0.5491491646582427    H1471
    0.5726872530386222    0.7058676974404712    0.8824824979915761    H1472
    0.5726872530386222    0.7058676974404712    0.2158158313249094    H1473
    0.5726872530386222    0.0392010307738044    0.5491491646582427    H1474
    0.5726872530386222    0.0392010307738044    0.8824824979915761    H1475
    0.5726872530386222    0.0392010307738044    0.2158158313249094    H1476
    0.9060205863719555    0.3725343641071378    0.5491491646582427    H1477
    0.9060205863719555    0.3725343641071378    0.8824824979915761    H1478
    0.9060205863719555    0.3725343641071378    0.2158158313249094    H1479
    0.9060205863719555    0.7058676974404712    0.5491491646582427    H1480
    0.9060205863719555    0.7058676974404712    0.8824824979915761    H1481
    0.9060205863719555    0.7058676974404712    0.2158158313249094    H1482
    0.9060205863719555    0.0392010307738044    0.5491491646582427    H1483
    0.9060205863719555    0.0392010307738044    0.8824824979915761    H1484
    0.9060205863719555    0.0392010307738044    0.2158158313249094    H1485
    0.2838734903710594    0.3336268730837507    0.2793591054438502    H1486
    0.2838734903710594    0.3336268730837507    0.6126924387771835    H1487
    0.2838734903710594    0.3336268730837507    0.9460257721105169    H1488
    0.2838734903710594    0.6669602064170841    0.2793591054438502    H1489
    0.2838734903710594    0.6669602064170841    0.6126924387771835    H1490
    0.2838734903710594    0.6669602064170841    0.9460257721105169    H1491
    0.2838734903710594    0.0002935397504173    0.2793591054438502    H1492
    0.2838734903710594    0.0002935397504173    0.6126924387771835    H1493
    0.2838734903710594    0.0002935397504173    0.9460257721105169    H1494
    0.6172068237043926    0.3336268730837507    0.2793591054438502    H1495
    0.6172068237043926    0.3336268730837507    0.6126924387771835    H1496
    0.6172068237043926    0.3336268730837507    0.9460257721105169    H1497
    0.6172068237043926    0.6669602064170841    0.2793591054438502    H1498
    0.6172068237043926    0.6669602064170841    0.6126924387771835    H1499
    0.6172068237043926    0.6669602064170841    0.9460257721105169    H1500
    0.6172068237043926    0.0002935397504173    0.2793591054438502    H1501
    0.6172068237043926    0.0002935397504173    0.6126924387771835    H1502
    0.6172068237043926    0.0002935397504173    0.9460257721105169    H1503
    0.9505401570377259    0.3336268730837507    0.2793591054438502    H1504
    0.9505401570377259    0.3336268730837507    0.6126924387771835    H1505
    0.9505401570377259    0.3336268730837507    0.9460257721105169    H1506
    0.9505401570377259    0.6669602064170841    0.2793591054438502    H1507
    0.9505401570377259    0.6669602064170841    0.6126924387771835    H1508
    0.9505401570377259    0.6669602064170841    0.9460257721105169    H1509
    0.9505401570377259    0.0002935397504173    0.2793591054438502    H1510
    0.9505401570377259    0.0002935397504173    0.6126924387771835    H1511
    0.9505401570377259    0.0002935397504173    0.9460257721105169    H1512
    0.1706799197712940    0.4134766321893161    0.2979150677301297    H1513
    0.1706799197712940    0.4134766321893161    0.6312484010634630    H1514
    0.1706799197712940    0.4134766321893161    0.9645817343967963    H1515
    0.1706799197712940    0.7468099655226494    0.2979150677301297    H1516
    0.1706799197712940    0.7468099655226494    0.6312484010634630    H1517
    0.1706799197712940    0.7468099655226494    0.9645817343967963    H1518
    0.1706799197712940    0.0801432988559827    0.2979150677301297    H1519
    0.1706799197712940    0.0801432988559827    0.6312484010634630    H1520
    0.1706799197712940    0.0801432988559827    0.9645817343967963    H1521
    0.5040132531046274    0.4134766321893161    0.2979150677301297    H1522
    0.5040132531046274    0.4134766321893161    0.6312484010634630    H1523
    0.5040132531046274    0.4134766321893161    0.9645817343967963    H1524
    0.5040132531046274    0.7468099655226494    0.2979150677301297    H1525
    0.5040132531046274    0.7468099655226494    0.6312484010634630    H1526
    0.5040132531046274    0.7468099655226494    0.9645817343967963    H1527
    0.5040132531046274    0.0801432988559827    0.2979150677301297    H1528
    0.5040132531046274    0.0801432988559827    0.6312484010634630    H1529
    0.5040132531046274    0.0801432988559827    0.9645817343967963    H1530
    0.8373465864379608    0.4134766321893161    0.2979150677301297    H1531
    0.8373465864379608    0.4134766321893161    0.6312484010634630    H1532
    0.8373465864379608    0.4134766321893161    0.9645817343967963    H1533
    0.8373465864379608    0.7468099655226494    0.2979150677301297    H1534
    0.8373465864379608    0.7468099655226494    0.6312484010634630    H1535
    0.8373465864379608    0.7468099655226494    0.9645817343967963    H1536
    0.8373465864379608    0.0801432988559827    0.2979150677301297    H1537
    0.8373465864379608    0.0801432988559827    0.6312484010634630    H1538
    0.8373465864379608    0.0801432988559827    0.9645817343967963    H1539
    0.0598421666407651    0.2165500545789680    0.1199707043702256    H1540
    0.0598421666407651    0.2165500545789680    0.4533040377035591    H1541
    0.0598421666407651    0.2165500545789680    0.7866373710368924    H1542
    0.0598421666407651    0.5498833879123013    0.1199707043702256    H1543
    0.0598421666407651    0.5498833879123013    0.4533040377035591    H1544
    0.0598421666407651    0.5498833879123013    0.7866373710368924    H1545
    0.0598421666407651    0.8832167212456346    0.1199707043702256    H1546
    0.0598421666407651    0.8832167212456346    0.4533040377035591    H1547
    0.0598421666407651    0.8832167212456346    0.7866373710368924    H1548
    0.3931754999740984    0.2165500545789680    0.1199707043702256    H1549
    0.3931754999740984    0.2165500545789680    0.4533040377035591    H1550
    0.3931754999740984    0.2165500545789680    0.7866373710368924    H1551
    0.3931754999740984    0.5498833879123013    0.1199707043702256    H1552
    0.3931754999740984    0.5498833879123013    0.4533040377035591    H1553
    0.3931754999740984    0.5498833879123013    0.7866373710368924    H1554
    0.3931754999740984    0.8832167212456346    0.1199707043702256    H1555
    0.3931754999740984    0.8832167212456346    0.4533040377035591    H1556
    0.3931754999740984    0.8832167212456346    0.7866373710368924    H1557
    0.7265088333074318    0.2165500545789680    0.1199707043702256    H1558
    0.7265088333074318    0.2165500545789680    0.4533040377035591    H1559
    0.7265088333074318    0.2165500545789680    0.7866373710368924    H1560
    0.7265088333074318    0.5498833879123013    0.1199707043702256    H1561
    0.7265088333074318    0.5498833879123013    0.4533040377035591    H1562
    0.7265088333074318    0.5498833879123013    0.7866373710368924    H1563
    0.7265088333074318    0.8832167212456346    0.1199707043702256    H1564
    0.7265088333074318    0.8832167212456346    0.4533040377035591    H1565
    0.7265088333074318    0.8832167212456346    0.7866373710368924    H1566
    0.9952531838617182    0.2979959588209632    0.3978990240645821    H1567
    0.9952531838617182    0.2979959588209632    0.7312323573979154    H1568
    0.9952531838617182    0.2979959588209632    0.0645656907312487    H1569
    0.9952531838617182    0.6313292921542966    0.3978990240645821    H1570
    0.9952531838617182    0.6313292921542966    0.7312323573979154    H1571
    0.9952531838617182    0.6313292921542966    0.0645656907312487    H1572
    0.9952531838617182    0.9646626254876298    0.3978990240645821    H1573
    0.9952531838617182    0.9646626254876298    0.7312323573979154    H1574
    0.9952531838617182    0.9646626254876298    0.0645656907312487    H1575
    0.3285865171950516    0.2979959588209632    0.3978990240645821    H1576
    0.3285865171950516    0.2979959588209632    0.7312323573979154    H1577
    0.3285865171950516    0.2979959588209632    0.0645656907312487    H1578
    0.3285865171950516    0.6313292921542966    0.3978990240645821    H1579
    0.3285865171950516    0.6313292921542966    0.7312323573979154    H1580
    0.3285865171950516    0.6313292921542966    0.0645656907312487    H1581
    0.3285865171950516    0.9646626254876298    0.3978990240645821    H1582
    0.3285865171950516    0.9646626254876298    0.7312323573979154    H1583
    0.3285865171950516    0.9646626254876298    0.0645656907312487    H1584
    0.6619198505283850    0.2979959588209632    0.3978990240645821    H1585
    0.6619198505283850    0.2979959588209632    0.7312323573979154    H1586
    0.6619198505283850    0.2979959588209632    0.0645656907312487    H1587
    0.6619198505283850    0.6313292921542966    0.3978990240645821    H1588
    0.6619198505283850    0.6313292921542966    0.7312323573979154    H1589
    0.6619198505283850    0.6313292921542966    0.0645656907312487    H1590
    0.6619198505283850    0.9646626254876298    0.3978990240645821    H1591
    0.6619198505283850    0.9646626254876298    0.7312323573979154    H1592
    0.6619198505283850    0.9646626254876298    0.0645656907312487    H1593
    0.1477116957253747    0.2236744632497557    0.4750958657302640    H1594
    0.1477116957253747    0.2236744632497557    0.8084291990635973    H1595
    0.1477116957253747    0.2236744632497557    0.1417625323969306    H1596
    0.1477116957253747    0.5570077965830891    0.4750958657302640    H1597
    0.1477116957253747    0.5570077965830891    0.8084291990635973    H1598
    0.1477116957253747    0.5570077965830891    0.1417625323969306    H1599
    0.1477116957253747    0.8903411299164223    0.4750958657302640    H1600
    0.1477116957253747    0.8903411299164223    0.8084291990635973    H1601
    0.1477116957253747    0.8903411299164223    0.1417625323969306    H1602
    0.4810450290587081    0.2236744632497557    0.4750958657302640    H1603
    0.4810450290587081    0.2236744632497557    0.8084291990635973    H1604
    0.4810450290587081    0.2236744632497557    0.1417625323969306    H1605
    0.4810450290587081    0.5570077965830891    0.4750958657302640    H1606
    0.4810450290587081    0.5570077965830891    0.8084291990635973    H1607
    0.4810450290587081    0.5570077965830891    0.1417625323969306    H1608
    0.4810450290587081    0.8903411299164223    0.4750958657302640    H1609
    0.4810450290587081    0.8903411299164223    0.8084291990635973    H1610
    0.4810450290587081    0.8903411299164223    0.1417625323969306    H1611
    0.8143783623920413    0.2236744632497557    0.4750958657302640    H1612
    0.8143783623920413    0.2236744632497557    0.8084291990635973    H1613
    0.8143783623920413    0.2236744632497557    0.1417625323969306    H1614
    0.8143783623920413    0.5570077965830891    0.4750958657302640    H1615
    0.8143783623920413    0.5570077965830891    0.8084291990635973    H1616
    0.8143783623920413    0.5570077965830891    0.1417625323969306    H1617
    0.8143783623920413    0.8903411299164223    0.4750958657302640    H1618
    0.8143783623920413    0.8903411299164223    0.8084291990635973    H1619
    0.8143783623920413    0.8903411299164223    0.1417625323969306    H1620
    0.0256958422369968    0.1461455117278996    0.2310906963249268    H1621
    0.0256958422369968    0.1461455117278996    0.5644240296582601    H1622
    0.0256958422369968    0.1461455117278996    0.8977573629915935    H1623
    0.0256958422369968    0.4794788450612330    0.2310906963249268    H1624
    0.0256958422369968    0.4794788450612330    0.5644240296582601    H1625
    0.0256958422369968    0.4794788450612330    0.8977573629915935    H1626
    0.0256958422369968    0.8128121783945663    0.2310906963249268    H1627
    0.0256958422369968    0.8128121783945663    0.5644240296582601    H1628
    0.0256958422369968    0.8128121783945663    0.8977573629915935    H1629
    0.3590291755703302    0.1461455117278996    0.2310906963249268    H1630
    0.3590291755703302    0.1461455117278996    0.5644240296582601    H1631
    0.3590291755703302    0.1461455117278996    0.8977573629915935    H1632
    0.3590291755703302    0.4794788450612330    0.2310906963249268    H1633
    0.3590291755703302    0.4794788450612330    0.5644240296582601    H1634
    0.3590291755703302    0.4794788450612330    0.8977573629915935    H1635
    0.3590291755703302    0.8128121783945663    0.2310906963249268    H1636
    0.3590291755703302    0.8128121783945663    0.5644240296582601    H1637
    0.3590291755703302    0.8128121783945663    0.8977573629915935    H1638
    0.6923625089036636    0.1461455117278996    0.2310906963249268    H1639
    0.6923625089036636    0.1461455117278996    0.5644240296582601    H1640
    0.6923625089036636    0.1461455117278996    0.8977573629915935    H1641
    0.6923625089036636    0.4794788450612330    0.2310906963249268    H1642
    0.6923625089036636    0.4794788450612330    0.5644240296582601    H1643
    0.6923625089036636    0.4794788450612330    0.8977573629915935    H1644
    0.6923625089036636    0.8128121783945663    0.2310906963249268    H1645
    0.6923625089036636    0.8128121783945663    0.5644240296582601    H1646
    0.6923625089036636    0.8128121783945663    0.8977573629915935    H1647
    0.0548306839190070    0.1926320194518193    0.2710767955502130    H1648
    0.0548306839190070    0.1926320194518193    0.6044101288835464    H1649
    0.0548306839190070    0.1926320194518193    0.9377434622168797    H1650
    0.0548306839190070    0.5259653527851527    0.2710767955502130    H1651
    0.0548306839190070    0.5259653527851527    0.6044101288835464    H1652
    0.0548306839190070    0.5259653527851527    0.9377434622168797    H1653
    0.0548306839190070    0.8592986861184859    0.2710767955502130    H1654
    0.0548306839190070    0.8592986861184859    0.6044101288835464    H1655
    0.0548306839190070    0.8592986861184859    0.9377434622168797    H1656
    0.3881640172523404    0.1926320194518193    0.2710767955502130    H1657
    0.3881640172523404    0.1926320194518193    0.6044101288835464    H1658
    0.3881640172523404    0.1926320194518193    0.9377434622168797    H1659
    0.3881640172523404    0.5259653527851527    0.2710767955502130    H1660
    0.3881640172523404    0.5259653527851527    0.6044101288835464    H1661
    0.3881640172523404    0.5259653527851527    0.9377434622168797    H1662
    0.3881640172523404    0.8592986861184859    0.2710767955502130    H1663
    0.3881640172523404    0.8592986861184859    0.6044101288835464    H1664
    0.3881640172523404    0.8592986861184859    0.9377434622168797    H1665
    0.7214973505856737    0.1926320194518193    0.2710767955502130    H1666
    0.7214973505856737    0.1926320194518193    0.6044101288835464    H1667
    0.7214973505856737    0.1926320194518193    0.9377434622168797    H1668
    0.7214973505856737    0.5259653527851527    0.2710767955502130    H1669
    0.7214973505856737    0.5259653527851527    0.6044101288835464    H1670
    0.7214973505856737    0.5259653527851527    0.9377434622168797    H1671
    0.7214973505856737    0.8592986861184859    0.2710767955502130    H1672
    0.7214973505856737    0.8592986861184859    0.6044101288835464    H1673
    0.7214973505856737    0.8592986861184859    0.9377434622168797    H1674
    0.0193960586810276    0.1734584192276554    0.3414546635172108    H1675
    0.0193960586810276    0.1734584192276554    0.6747879968505441    H1676
    0.0193960586810276    0.1734584192276554    0.0081213301838774    H1677
    0.0193960586810276    0.5067917525609887    0.3414546635172108    H1678
    0.0193960586810276    0.5067917525609887    0.6747879968505441    H1679
    0.0193960586810276    0.5067917525609887    0.0081213301838774    H1680
    0.0193960586810276    0.8401250858943220    0.3414546635172108    H1681
    0.0193960586810276    0.8401250858943220    0.6747879968505441    H1682
    0.0193960586810276    0.8401250858943220    0.0081213301838774    H1683
    0.3527293920143609    0.1734584192276554    0.3414546635172108    H1684
    0.3527293920143609    0.1734584192276554    0.6747879968505441    H1685
    0.3527293920143609    0.1734584192276554    0.0081213301838774    H1686
    0.3527293920143609    0.5067917525609887    0.3414546635172108    H1687
    0.3527293920143609    0.5067917525609887    0.6747879968505441    H1688
    0.3527293920143609    0.5067917525609887    0.0081213301838774    H1689
    0.3527293920143609    0.8401250858943220    0.3414546635172108    H1690
    0.3527293920143609    0.8401250858943220    0.6747879968505441    H1691
    0.3527293920143609    0.8401250858943220    0.0081213301838774    H1692
    0.6860627253476943    0.1734584192276554    0.3414546635172108    H1693
    0.6860627253476943    0.1734584192276554    0.6747879968505441    H1694
    0.6860627253476943    0.1734584192276554    0.0081213301838774    H1695
    0.6860627253476943    0.5067917525609887    0.3414546635172108    H1696
    0.6860627253476943    0.5067917525609887    0.6747879968505441    H1697
    0.6860627253476943    0.5067917525609887    0.0081213301838774    H1698
    0.6860627253476943    0.8401250858943220    0.3414546635172108    H1699
    0.6860627253476943    0.8401250858943220    0.6747879968505441    H1700
    0.6860627253476943    0.8401250858943220    0.0081213301838774    H1701
    0.1163016901241266    0.8914471907036514    0.6023760516461970    H1702
    0.1163016901241266    0.8914471907036514    0.9357093849795303    H1703
    0.1163016901241266    0.8914471907036514    0.2690427183128636    H1704
    0.1163016901241266    0.2247805240369848    0.6023760516461970    H1705
    0.1163016901241266    0.2247805240369848    0.9357093849795303    H1706
    0.1163016901241266    0.2247805240369848    0.2690427183128636    H1707
    0.1163016901241266    0.5581138573703180    0.6023760516461970    H1708
    0.1163016901241266    0.5581138573703180    0.9357093849795303    H1709
    0.1163016901241266    0.5581138573703180    0.2690427183128636    H1710
    0.4496350234574600    0.8914471907036514    0.6023760516461970    H1711
    0.4496350234574600    0.8914471907036514    0.9357093849795303    H1712
    0.4496350234574600    0.8914471907036514    0.2690427183128636    H1713
    0.4496350234574600    0.2247805240369848    0.6023760516461970    H1714
    0.4496350234574600    0.2247805240369848    0.9357093849795303    H1715
    0.4496350234574600    0.2247805240369848    0.2690427183128636    H1716
    0.4496350234574600    0.5581138573703180    0.6023760516461970    H1717
    0.4496350234574600    0.5581138573703180    0.9357093849795303    H1718
    0.4496350234574600    0.5581138573703180    0.2690427183128636    H1719
    0.7829683567907932    0.8914471907036514    0.6023760516461970    H1720
    0.7829683567907932    0.8914471907036514    0.9357093849795303    H1721
    0.7829683567907932    0.8914471907036514    0.2690427183128636    H1722
    0.7829683567907932    0.2247805240369848    0.6023760516461970    H1723
    0.7829683567907932    0.2247805240369848    0.9357093849795303    H1724
    0.7829683567907932    0.2247805240369848    0.2690427183128636    H1725
    0.7829683567907932    0.5581138573703180    0.6023760516461970    H1726
    0.7829683567907932    0.5581138573703180    0.9357093849795303    H1727
    0.7829683567907932    0.5581138573703180    0.2690427183128636    H1728
    0.8925845720365118    0.2195670328361796    0.3250608112603257    H1729
    0.8925845720365118    0.2195670328361796    0.6583941445936591    H1730
    0.8925845720365118    0.2195670328361796    0.9917274779269925    H1731
    0.8925845720365118    0.5529003661695130    0.3250608112603257    H1732
    0.8925845720365118    0.5529003661695130    0.6583941445936591    H1733
    0.8925845720365118    0.5529003661695130    0.9917274779269925    H1734
    0.8925845720365118    0.8862336995028463    0.3250608112603257    H1735
    0.8925845720365118    0.8862336995028463    0.6583941445936591    H1736
    0.8925845720365118    0.8862336995028463    0.9917274779269925    H1737
    0.2259179053698450    0.2195670328361796    0.3250608112603257    H1738
    0.2259179053698450    0.2195670328361796    0.6583941445936591    H1739
    0.2259179053698450    0.2195670328361796    0.9917274779269925    H1740
    0.2259179053698450    0.5529003661695130    0.3250608112603257    H1741
    0.2259179053698450    0.5529003661695130    0.6583941445936591    H1742
    0.2259179053698450    0.5529003661695130    0.9917274779269925    H1743
    0.2259179053698450    0.8862336995028463    0.3250608112603257    H1744
    0.2259179053698450    0.8862336995028463    0.6583941445936591    H1745
    0.2259179053698450    0.8862336995028463    0.9917274779269925    H1746
    0.5592512387031783    0.2195670328361796    0.3250608112603257    H1747
    0.5592512387031783    0.2195670328361796    0.6583941445936591    H1748
    0.5592512387031783    0.2195670328361796    0.9917274779269925    H1749
    0.5592512387031783    0.5529003661695130    0.3250608112603257    H1750
    0.5592512387031783    0.5529003661695130    0.6583941445936591    H1751
    0.5592512387031783    0.5529003661695130    0.9917274779269925    H1752
    0.5592512387031783    0.8862336995028463    0.3250608112603257    H1753
    0.5592512387031783    0.8862336995028463    0.6583941445936591    H1754
    0.5592512387031783    0.8862336995028463    0.9917274779269925    H1755
    0.0409871263676036    0.2072742339996114    0.3680503598500882    H1756
    0.0409871263676036    0.2072742339996114    0.7013836931834214    H1757
    0.0409871263676036    0.2072742339996114    0.0347170265167547    H1758
    0.0409871263676036    0.5406075673329447    0.3680503598500882    H1759
    0.0409871263676036    0.5406075673329447    0.7013836931834214    H1760
    0.0409871263676036    0.5406075673329447    0.0347170265167547    H1761
    0.0409871263676036    0.8739409006662781    0.3680503598500882    H1762
    0.0409871263676036    0.8739409006662781    0.7013836931834214    H1763
    0.0409871263676036    0.8739409006662781    0.0347170265167547    H1764
    0.3743204597009370    0.2072742339996114    0.3680503598500882    H1765
    0.3743204597009370    0.2072742339996114    0.7013836931834214    H1766
    0.3743204597009370    0.2072742339996114    0.0347170265167547    H1767
    0.3743204597009370    0.5406075673329447    0.3680503598500882    H1768
    0.3743204597009370    0.5406075673329447    0.7013836931834214    H1769
    0.3743204597009370    0.5406075673329447    0.0347170265167547    H1770
    0.3743204597009370    0.8739409006662781    0.3680503598500882    H1771
    0.3743204597009370    0.8739409006662781    0.7013836931834214    H1772
    0.3743204597009370    0.8739409006662781    0.0347170265167547    H1773
    0.7076537930342702    0.2072742339996114    0.3680503598500882    H1774
    0.7076537930342702    0.2072742339996114    0.7013836931834214    H1775
    0.7076537930342702    0.2072742339996114    0.0347170265167547    H1776
    0.7076537930342702    0.5406075673329447    0.3680503598500882    H1777
    0.7076537930342702    0.5406075673329447    0.7013836931834214    H1778
    0.7076537930342702    0.5406075673329447    0.0347170265167547    H1779
    0.7076537930342702    0.8739409006662781    0.3680503598500882    H1780
    0.7076537930342702    0.8739409006662781    0.7013836931834214    H1781
    0.7076537930342702    0.8739409006662781    0.0347170265167547    H1782
    0.9974150843637604    0.0914979873120114    0.2427458295282625    H1783
    0.9974150843637604    0.0914979873120114    0.5760791628615958    H1784
    0.9974150843637604    0.0914979873120114    0.9094124961949291    H1785
    0.9974150843637604    0.4248313206453447    0.2427458295282625    H1786
    0.9974150843637604    0.4248313206453447    0.5760791628615958    H1787
    0.9974150843637604    0.4248313206453447    0.9094124961949291    H1788
    0.9974150843637604    0.7581646539786780    0.2427458295282625    H1789
    0.9974150843637604    0.7581646539786780    0.5760791628615958    H1790
    0.9974150843637604    0.7581646539786780    0.9094124961949291    H1791
    0.3307484176970936    0.0914979873120114    0.2427458295282625    H1792
    0.3307484176970936    0.0914979873120114    0.5760791628615958    H1793
    0.3307484176970936    0.0914979873120114    0.9094124961949291    H1794
    0.3307484176970936    0.4248313206453447    0.2427458295282625    H1795
    0.3307484176970936    0.4248313206453447    0.5760791628615958    H1796
    0.3307484176970936    0.4248313206453447    0.9094124961949291    H1797
    0.3307484176970936    0.7581646539786780    0.2427458295282625    H1798
    0.3307484176970936    0.7581646539786780    0.5760791628615958    H1799
    0.3307484176970936    0.7581646539786780    0.9094124961949291    H1800
    0.6640817510304271    0.0914979873120114    0.2427458295282625    H1801
    0.6640817510304271    0.0914979873120114    0.5760791628615958    H1802
    0.6640817510304271    0.0914979873120114    0.9094124961949291    H1803
    0.6640817510304271    0.4248313206453447    0.2427458295282625    H1804
    0.6640817510304271    0.4248313206453447    0.5760791628615958    H1805
    0.6640817510304271    0.4248313206453447    0.9094124961949291    H1806
    0.6640817510304271    0.7581646539786780    0.2427458295282625    H1807
    0.6640817510304271    0.7581646539786780    0.5760791628615958    H1808
    0.6640817510304271    0.7581646539786780    0.9094124961949291    H1809
    0.0028182600577166    0.2089866107574534    0.3036978359193777    H1810
    0.0028182600577166    0.2089866107574534    0.6370311692527111    H1811
    0.0028182600577166    0.2089866107574534    0.9703645025860443    H1812
    0.0028182600577166    0.5423199440907868    0.3036978359193777    H1813
    0.0028182600577166    0.5423199440907868    0.6370311692527111    H1814
    0.0028182600577166    0.5423199440907868    0.9703645025860443    H1815
    0.0028182600577166    0.8756532774241200    0.3036978359193777    H1816
    0.0028182600577166    0.8756532774241200    0.6370311692527111    H1817
    0.0028182600577166    0.8756532774241200    0.9703645025860443    H1818
    0.3361515933910499    0.2089866107574534    0.3036978359193777    H1819
    0.3361515933910499    0.2089866107574534    0.6370311692527111    H1820
    0.3361515933910499    0.2089866107574534    0.9703645025860443    H1821
    0.3361515933910499    0.5423199440907868    0.3036978359193777    H1822
    0.3361515933910499    0.5423199440907868    0.6370311692527111    H1823
    0.3361515933910499    0.5423199440907868    0.9703645025860443    H1824
    0.3361515933910499    0.8756532774241200    0.3036978359193777    H1825
    0.3361515933910499    0.8756532774241200    0.6370311692527111    H1826
    0.3361515933910499    0.8756532774241200    0.9703645025860443    H1827
    0.6694849267243832    0.2089866107574534    0.3036978359193777    H1828
    0.6694849267243832    0.2089866107574534    0.6370311692527111    H1829
    0.6694849267243832    0.2089866107574534    0.9703645025860443    H1830
    0.6694849267243832    0.5423199440907868    0.3036978359193777    H1831
    0.6694849267243832    0.5423199440907868    0.6370311692527111    H1832
    0.6694849267243832    0.5423199440907868    0.9703645025860443    H1833
    0.6694849267243832    0.8756532774241200    0.3036978359193777    H1834
    0.6694849267243832    0.8756532774241200    0.6370311692527111    H1835
    0.6694849267243832    0.8756532774241200    0.9703645025860443    H1836
    0.9899758251304682    0.1652696117819484    0.2490358590170920    H1837
    0.9899758251304682    0.1652696117819484    0.5823691923504253    H1838
    0.9899758251304682    0.1652696117819484    0.9157025256837587    H1839
    0.9899758251304682    0.4986029451152818    0.2490358590170920    H1840
    0.9899758251304682    0.4986029451152818    0.5823691923504253    H1841
    0.9899758251304682    0.4986029451152818    0.9157025256837587    H1842
    0.9899758251304682    0.8319362784486152    0.2490358590170920    H1843
    0.9899758251304682    0.8319362784486152    0.5823691923504253    H1844
    0.9899758251304682    0.8319362784486152    0.9157025256837587    H1845
    0.3233091584638015    0.1652696117819484    0.2490358590170920    H1846
    0.3233091584638015    0.1652696117819484    0.5823691923504253    H1847
    0.3233091584638015    0.1652696117819484    0.9157025256837587    H1848
    0.3233091584638015    0.4986029451152818    0.2490358590170920    H1849
    0.3233091584638015    0.4986029451152818    0.5823691923504253    H1850
    0.3233091584638015    0.4986029451152818    0.9157025256837587    H1851
    0.3233091584638015    0.8319362784486152    0.2490358590170920    H1852
    0.3233091584638015    0.8319362784486152    0.5823691923504253    H1853
    0.3233091584638015    0.8319362784486152    0.9157025256837587    H1854
    0.6566424917971349    0.1652696117819484    0.2490358590170920    H1855
    0.6566424917971349    0.1652696117819484    0.5823691923504253    H1856
    0.6566424917971349    0.1652696117819484    0.9157025256837587    H1857
    0.6566424917971349    0.4986029451152818    0.2490358590170920    H1858
    0.6566424917971349    0.4986029451152818    0.5823691923504253    H1859
    0.6566424917971349    0.4986029451152818    0.9157025256837587    H1860
    0.6566424917971349    0.8319362784486152    0.2490358590170920    H1861
    0.6566424917971349    0.8319362784486152    0.5823691923504253    H1862
    0.6566424917971349    0.8319362784486152    0.9157025256837587    H1863
    0.1244331723652810    0.9060920759448521    0.5725821698618275    H1864
    0.1244331723652810    0.9060920759448521    0.9059155031951608    H1865
    0.1244331723652810    0.9060920759448521    0.2392488365284942    H1866
    0.1244331723652810    0.2394254092781853    0.5725821698618275    H1867
    0.1244331723652810    0.2394254092781853    0.9059155031951608    H1868
    0.1244331723652810    0.2394254092781853    0.2392488365284942    H1869
    0.1244331723652810    0.5727587426115187    0.5725821698618275    H1870
    0.1244331723652810    0.5727587426115187    0.9059155031951608    H1871
    0.1244331723652810    0.5727587426115187    0.2392488365284942    H1872
    0.4577665056986143    0.9060920759448521    0.5725821698618275    H1873
    0.4577665056986143    0.9060920759448521    0.9059155031951608    H1874
    0.4577665056986143    0.9060920759448521    0.2392488365284942    H1875
    0.4577665056986143    0.2394254092781853    0.5725821698618275    H1876
    0.4577665056986143    0.2394254092781853    0.9059155031951608    H1877
    0.4577665056986143    0.2394254092781853    0.2392488365284942    H1878
    0.4577665056986143    0.5727587426115187    0.5725821698618275    H1879
    0.4577665056986143    0.5727587426115187    0.9059155031951608    H1880
    0.4577665056986143    0.5727587426115187    0.2392488365284942    H1881
    0.7910998390319477    0.9060920759448521    0.5725821698618275    H1882
    0.7910998390319477    0.9060920759448521    0.9059155031951608    H1883
    0.7910998390319477    0.9060920759448521    0.2392488365284942    H1884
    0.7910998390319477    0.2394254092781853    0.5725821698618275    H1885
    0.7910998390319477    0.2394254092781853    0.9059155031951608    H1886
    0.7910998390319477    0.2394254092781853    0.2392488365284942    H1887
    0.7910998390319477    0.5727587426115187    0.5725821698618275    H1888
    0.7910998390319477    0.5727587426115187    0.9059155031951608    H1889
    0.7910998390319477    0.5727587426115187    0.2392488365284942    H1890
    0.0640673815967835    0.1314408008348255    0.2769538390819050    H1891
    0.0640673815967835    0.1314408008348255    0.6102871724152383    H1892
    0.0640673815967835    0.1314408008348255    0.9436205057485716    H1893
    0.0640673815967835    0.4647741341681588    0.2769538390819050    H1894
    0.0640673815967835    0.4647741341681588    0.6102871724152383    H1895
    0.0640673815967835    0.4647741341681588    0.9436205057485716    H1896
    0.0640673815967835    0.7981074675014921    0.2769538390819050    H1897
    0.0640673815967835    0.7981074675014921    0.6102871724152383    H1898
    0.0640673815967835    0.7981074675014921    0.9436205057485716    H1899
    0.3974007149301167    0.1314408008348255    0.2769538390819050    H1900
    0.3974007149301167    0.1314408008348255    0.6102871724152383    H1901
    0.3974007149301167    0.1314408008348255    0.9436205057485716    H1902
    0.3974007149301167    0.4647741341681588    0.2769538390819050    H1903
    0.3974007149301167    0.4647741341681588    0.6102871724152383    H1904
    0.3974007149301167    0.4647741341681588    0.9436205057485716    H1905
    0.3974007149301167    0.7981074675014921    0.2769538390819050    H1906
    0.3974007149301167    0.7981074675014921    0.6102871724152383    H1907
    0.3974007149301167    0.7981074675014921    0.9436205057485716    H1908
    0.7307340482634501    0.1314408008348255    0.2769538390819050    H1909
    0.7307340482634501    0.1314408008348255    0.6102871724152383    H1910
    0.7307340482634501    0.1314408008348255    0.9436205057485716    H1911
    0.7307340482634501    0.4647741341681588    0.2769538390819050    H1912
    0.7307340482634501    0.4647741341681588    0.6102871724152383    H1913
    0.7307340482634501    0.4647741341681588    0.9436205057485716    H1914
    0.7307340482634501    0.7981074675014921    0.2769538390819050    H1915
    0.7307340482634501    0.7981074675014921    0.6102871724152383    H1916
    0.7307340482634501    0.7981074675014921    0.9436205057485716    H1917
    0.0941069285506033    0.8737787612607659    0.5623604333003139    H1918
    0.0941069285506033    0.8737787612607659    0.8956937666336472    H1919
    0.0941069285506033    0.8737787612607659    0.2290270999669806    H1920
    0.0941069285506033    0.2071120945940992    0.5623604333003139    H1921
    0.0941069285506033    0.2071120945940992    0.8956937666336472    H1922
    0.0941069285506033    0.2071120945940992    0.2290270999669806    H1923
    0.0941069285506033    0.5404454279274326    0.5623604333003139    H1924
    0.0941069285506033    0.5404454279274326    0.8956937666336472    H1925
    0.0941069285506033    0.5404454279274326    0.2290270999669806    H1926
    0.4274402618839366    0.8737787612607659    0.5623604333003139    H1927
    0.4274402618839366    0.8737787612607659    0.8956937666336472    H1928
    0.4274402618839366    0.8737787612607659    0.2290270999669806    H1929
    0.4274402618839366    0.2071120945940992    0.5623604333003139    H1930
    0.4274402618839366    0.2071120945940992    0.8956937666336472    H1931
    0.4274402618839366    0.2071120945940992    0.2290270999669806    H1932
    0.4274402618839366    0.5404454279274326    0.5623604333003139    H1933
    0.4274402618839366    0.5404454279274326    0.8956937666336472    H1934
    0.4274402618839366    0.5404454279274326    0.2290270999669806    H1935
    0.7607735952172698    0.8737787612607659    0.5623604333003139    H1936
    0.7607735952172698    0.8737787612607659    0.8956937666336472    H1937
    0.7607735952172698    0.8737787612607659    0.2290270999669806    H1938
    0.7607735952172698    0.2071120945940992    0.5623604333003139    H1939
    0.7607735952172698    0.2071120945940992    0.8956937666336472    H1940
    0.7607735952172698    0.2071120945940992    0.2290270999669806    H1941
    0.7607735952172698    0.5404454279274326    0.5623604333003139    H1942
    0.7607735952172698    0.5404454279274326    0.8956937666336472    H1943
    0.7607735952172698    0.5404454279274326    0.2290270999669806    H1944
    0.0382435330887673    0.3799759520311300    0.1566070321404798    H1945
    0.0382435330887673    0.3799759520311300    0.4899403654738131    H1946
    0.0382435330887673    0.3799759520311300    0.8232736988071464    H1947
    0.0382435330887673    0.7133092853644634    0.1566070321404798    H1948
    0.0382435330887673    0.7133092853644634    0.4899403654738131    H1949
    0.0382435330887673    0.7133092853644634    0.8232736988071464    H1950
    0.0382435330887673    0.0466426186977966    0.1566070321404798    H1951
    0.0382435330887673    0.0466426186977966    0.4899403654738131    H1952
    0.0382435330887673    0.0466426186977966    0.8232736988071464    H1953
    0.3715768664221005    0.3799759520311300    0.1566070321404798    H1954
    0.3715768664221005    0.3799759520311300    0.4899403654738131    H1955
    0.3715768664221005    0.3799759520311300    0.8232736988071464    H1956
    0.3715768664221005    0.7133092853644634    0.1566070321404798    H1957
    0.3715768664221005    0.7133092853644634    0.4899403654738131    H1958
    0.3715768664221005    0.7133092853644634    0.8232736988071464    H1959
    0.3715768664221005    0.0466426186977966    0.1566070321404798    H1960
    0.3715768664221005    0.0466426186977966    0.4899403654738131    H1961
    0.3715768664221005    0.0466426186977966    0.8232736988071464    H1962
    0.7049101997554339    0.3799759520311300    0.1566070321404798    H1963
    0.7049101997554339    0.3799759520311300    0.4899403654738131    H1964
    0.7049101997554339    0.3799759520311300    0.8232736988071464    H1965
    0.7049101997554339    0.7133092853644634    0.1566070321404798    H1966
    0.7049101997554339    0.7133092853644634    0.4899403654738131    H1967
    0.7049101997554339    0.7133092853644634    0.8232736988071464    H1968
    0.7049101997554339    0.0466426186977966    0.1566070321404798    H1969
    0.7049101997554339    0.0466426186977966    0.4899403654738131    H1970
    0.7049101997554339    0.0466426186977966    0.8232736988071464    H1971
    0.9782045898149718    0.2612337997258506    0.2477125231550270    H1972
    0.9782045898149718    0.2612337997258506    0.5810458564883603    H1973
    0.9782045898149718    0.2612337997258506    0.9143791898216936    H1974
    0.9782045898149718    0.5945671330591840    0.2477125231550270    H1975
    0.9782045898149718    0.5945671330591840    0.5810458564883603    H1976
    0.9782045898149718    0.5945671330591840    0.9143791898216936    H1977
    0.9782045898149718    0.9279004663925172    0.2477125231550270    H1978
    0.9782045898149718    0.9279004663925172    0.5810458564883603    H1979
    0.9782045898149718    0.9279004663925172    0.9143791898216936    H1980
    0.3115379231483052    0.2612337997258506    0.2477125231550270    H1981
    0.3115379231483052    0.2612337997258506    0.5810458564883603    H1982
    0.3115379231483052    0.2612337997258506    0.9143791898216936    H1983
    0.3115379231483052    0.5945671330591840    0.2477125231550270    H1984
    0.3115379231483052    0.5945671330591840    0.5810458564883603    H1985
    0.3115379231483052    0.5945671330591840    0.9143791898216936    H1986
    0.3115379231483052    0.9279004663925172    0.2477125231550270    H1987
    0.3115379231483052    0.9279004663925172    0.5810458564883603    H1988
    0.3115379231483052    0.9279004663925172    0.9143791898216936    H1989
    0.6448712564816385    0.2612337997258506    0.2477125231550270    H1990
    0.6448712564816385    0.2612337997258506    0.5810458564883603    H1991
    0.6448712564816385    0.2612337997258506    0.9143791898216936    H1992
    0.6448712564816385    0.5945671330591840    0.2477125231550270    H1993
    0.6448712564816385    0.5945671330591840    0.5810458564883603    H1994
    0.6448712564816385    0.5945671330591840    0.9143791898216936    H1995
    0.6448712564816385    0.9279004663925172    0.2477125231550270    H1996
    0.6448712564816385    0.9279004663925172    0.5810458564883603    H1997
    0.6448712564816385    0.9279004663925172    0.9143791898216936    H1998
    0.0036520106444844    0.3567993130922519    0.4212171867628892    H1999
    0.0036520106444844    0.3567993130922519    0.7545505200962226    H2000
    0.0036520106444844    0.3567993130922519    0.0878838534295558    H2001
    0.0036520106444844    0.6901326464255852    0.4212171867628892    H2002
    0.0036520106444844    0.6901326464255852    0.7545505200962226    H2003
    0.0036520106444844    0.6901326464255852    0.0878838534295558    H2004
    0.0036520106444844    0.0234659797589185    0.4212171867628892    H2005
    0.0036520106444844    0.0234659797589185    0.7545505200962226    H2006
    0.0036520106444844    0.0234659797589185    0.0878838534295558    H2007
    0.3369853439778177    0.3567993130922519    0.4212171867628892    H2008
    0.3369853439778177    0.3567993130922519    0.7545505200962226    H2009
    0.3369853439778177    0.3567993130922519    0.0878838534295558    H2010
    0.3369853439778177    0.6901326464255852    0.4212171867628892    H2011
    0.3369853439778177    0.6901326464255852    0.7545505200962226    H2012
    0.3369853439778177    0.6901326464255852    0.0878838534295558    H2013
    0.3369853439778177    0.0234659797589185    0.4212171867628892    H2014
    0.3369853439778177    0.0234659797589185    0.7545505200962226    H2015
    0.3369853439778177    0.0234659797589185    0.0878838534295558    H2016
    0.6703186773111510    0.3567993130922519    0.4212171867628892    H2017
    0.6703186773111510    0.3567993130922519    0.7545505200962226    H2018
    0.6703186773111510    0.3567993130922519    0.0878838534295558    H2019
    0.6703186773111510    0.6901326464255852    0.4212171867628892    H2020
    0.6703186773111510    0.6901326464255852    0.7545505200962226    H2021
    0.6703186773111510    0.6901326464255852    0.0878838534295558    H2022
    0.6703186773111510    0.0234659797589185    0.4212171867628892    H2023
    0.6703186773111510    0.0234659797589185    0.7545505200962226    H2024
    0.6703186773111510    0.0234659797589185    0.0878838534295558    H2025
    0.9759088141790757    0.3730358523769608    0.3769983230343661    H2026
    0.9759088141790757    0.3730358523769608    0.7103316563676993    H2027
    0.9759088141790757    0.3730358523769608    0.0436649897010327    H2028
    0.9759088141790757    0.7063691857102941    0.3769983230343661    H2029
    0.9759088141790757    0.7063691857102941    0.7103316563676993    H2030
    0.9759088141790757    0.7063691857102941    0.0436649897010327    H2031
    0.9759088141790757    0.0397025190436274    0.3769983230343661    H2032
    0.9759088141790757    0.0397025190436274    0.7103316563676993    H2033
    0.9759088141790757    0.0397025190436274    0.0436649897010327    H2034
    0.3092421475124091    0.3730358523769608    0.3769983230343661    H2035
    0.3092421475124091    0.3730358523769608    0.7103316563676993    H2036
    0.3092421475124091    0.3730358523769608    0.0436649897010327    H2037
    0.3092421475124091    0.7063691857102941    0.3769983230343661    H2038
    0.3092421475124091    0.7063691857102941    0.7103316563676993    H2039
    0.3092421475124091    0.7063691857102941    0.0436649897010327    H2040
    0.3092421475124091    0.0397025190436274    0.3769983230343661    H2041
    0.3092421475124091    0.0397025190436274    0.7103316563676993    H2042
    0.3092421475124091    0.0397025190436274    0.0436649897010327    H2043
    0.6425754808457423    0.3730358523769608    0.3769983230343661    H2044
    0.6425754808457423    0.3730358523769608    0.7103316563676993    H2045
    0.6425754808457423    0.3730358523769608    0.0436649897010327    H2046
    0.6425754808457423    0.7063691857102941    0.3769983230343661    H2047
    0.6425754808457423    0.7063691857102941    0.7103316563676993    H2048
    0.6425754808457423    0.7063691857102941    0.0436649897010327    H2049
    0.6425754808457423    0.0397025190436274    0.3769983230343661    H2050
    0.6425754808457423    0.0397025190436274    0.7103316563676993    H2051
    0.6425754808457423    0.0397025190436274    0.0436649897010327    H2052
    0.9939007372264286    0.2089471314871110    0.2155276449261647    H2053
    0.9939007372264286    0.2089471314871110    0.5488609782594982    H2054
    0.9939007372264286    0.2089471314871110    0.8821943115928315    H2055
    0.9939007372264286    0.5422804648204442    0.2155276449261647    H2056
    0.9939007372264286    0.5422804648204442    0.5488609782594982    H2057
    0.9939007372264286    0.5422804648204442    0.8821943115928315    H2058
    0.9939007372264286    0.8756137981537776    0.2155276449261647    H2059
    0.9939007372264286    0.8756137981537776    0.5488609782594982    H2060
    0.9939007372264286    0.8756137981537776    0.8821943115928315    H2061
    0.3272340705597618    0.2089471314871110    0.2155276449261647    H2062
    0.3272340705597618    0.2089471314871110    0.5488609782594982    H2063
    0.3272340705597618    0.2089471314871110    0.8821943115928315    H2064
    0.3272340705597618    0.5422804648204442    0.2155276449261647    H2065
    0.3272340705597618    0.5422804648204442    0.5488609782594982    H2066
    0.3272340705597618    0.5422804648204442    0.8821943115928315    H2067
    0.3272340705597618    0.8756137981537776    0.2155276449261647    H2068
    0.3272340705597618    0.8756137981537776    0.5488609782594982    H2069
    0.3272340705597618    0.8756137981537776    0.8821943115928315    H2070
    0.6605674038930951    0.2089471314871110    0.2155276449261647    H2071
    0.6605674038930951    0.2089471314871110    0.5488609782594982    H2072
    0.6605674038930951    0.2089471314871110    0.8821943115928315    H2073
    0.6605674038930951    0.5422804648204442    0.2155276449261647    H2074
    0.6605674038930951    0.5422804648204442    0.5488609782594982    H2075
    0.6605674038930951    0.5422804648204442    0.8821943115928315    H2076
    0.6605674038930951    0.8756137981537776    0.2155276449261647    H2077
    0.6605674038930951    0.8756137981537776    0.5488609782594982    H2078
    0.6605674038930951    0.8756137981537776    0.8821943115928315    H2079
    0.9413499745497931    0.3305962876051635    0.4110187166018278    H2080
    0.9413499745497931    0.3305962876051635    0.7443520499351610    H2081
    0.9413499745497931    0.3305962876051635    0.0776853832684943    H2082
    0.9413499745497931    0.6639296209384968    0.4110187166018278    H2083
    0.9413499745497931    0.6639296209384968    0.7443520499351610    H2084
    0.9413499745497931    0.6639296209384968    0.0776853832684943    H2085
    0.9413499745497931    0.9972629542718301    0.4110187166018278    H2086
    0.9413499745497931    0.9972629542718301    0.7443520499351610    H2087
    0.9413499745497931    0.9972629542718301    0.0776853832684943    H2088
    0.2746833078831263    0.3305962876051635    0.4110187166018278    H2089
    0.2746833078831263    0.3305962876051635    0.7443520499351610    H2090
    0.2746833078831263    0.3305962876051635    0.0776853832684943    H2091
    0.2746833078831263    0.6639296209384968    0.4110187166018278    H2092
    0.2746833078831263    0.6639296209384968    0.7443520499351610    H2093
    0.2746833078831263    0.6639296209384968    0.0776853832684943    H2094
    0.2746833078831263    0.9972629542718301    0.4110187166018278    H2095
    0.2746833078831263    0.9972629542718301    0.7443520499351610    H2096
    0.2746833078831263    0.9972629542718301    0.0776853832684943    H2097
    0.6080166412164596    0.3305962876051635    0.4110187166018278    H2098
    0.6080166412164596    0.3305962876051635    0.7443520499351610    H2099
    0.6080166412164596    0.3305962876051635    0.0776853832684943    H2100
    0.6080166412164596    0.6639296209384968    0.4110187166018278    H2101
    0.6080166412164596    0.6639296209384968    0.7443520499351610    H2102
    0.6080166412164596    0.6639296209384968    0.0776853832684943    H2103
    0.6080166412164596    0.9972629542718301    0.4110187166018278    H2104
    0.6080166412164596    0.9972629542718301    0.7443520499351610    H2105
    0.6080166412164596    0.9972629542718301    0.0776853832684943    H2106
    0.0867945158334299    0.1830905383741571    0.3098160190849508    H2107
    0.0867945158334299    0.1830905383741571    0.6431493524182841    H2108
    0.0867945158334299    0.1830905383741571    0.9764826857516173    H2109
    0.0867945158334299    0.5164238717074905    0.3098160190849508    H2110
    0.0867945158334299    0.5164238717074905    0.6431493524182841    H2111
    0.0867945158334299    0.5164238717074905    0.9764826857516173    H2112
    0.0867945158334299    0.8497572050408237    0.3098160190849508    H2113
    0.0867945158334299    0.8497572050408237    0.6431493524182841    H2114
    0.0867945158334299    0.8497572050408237    0.9764826857516173    H2115
    0.4201278491667633    0.1830905383741571    0.3098160190849508    H2116
    0.4201278491667633    0.1830905383741571    0.6431493524182841    H2117
    0.4201278491667633    0.1830905383741571    0.9764826857516173    H2118
    0.4201278491667633    0.5164238717074905    0.3098160190849508    H2119
    0.4201278491667633    0.5164238717074905    0.6431493524182841    H2120
    0.4201278491667633    0.5164238717074905    0.9764826857516173    H2121
    0.4201278491667633    0.8497572050408237    0.3098160190849508    H2122
    0.4201278491667633    0.8497572050408237    0.6431493524182841    H2123
    0.4201278491667633    0.8497572050408237    0.9764826857516173    H2124
    0.7534611825000965    0.1830905383741571    0.3098160190849508    H2125
    0.7534611825000965    0.1830905383741571    0.6431493524182841    H2126
    0.7534611825000965    0.1830905383741571    0.9764826857516173    H2127
    0.7534611825000965    0.5164238717074905    0.3098160190849508    H2128
    0.7534611825000965    0.5164238717074905    0.6431493524182841    H2129
    0.7534611825000965    0.5164238717074905    0.9764826857516173    H2130
    0.7534611825000965    0.8497572050408237    0.3098160190849508    H2131
    0.7534611825000965    0.8497572050408237    0.6431493524182841    H2132
    0.7534611825000965    0.8497572050408237    0.9764826857516173    H2133
    0.9436141569372305    0.2427206275207838    0.2188083502245942    H2134
    0.9436141569372305    0.2427206275207838    0.5521416835579276    H2135
    0.9436141569372305    0.2427206275207838    0.8854750168912608    H2136
    0.9436141569372305    0.5760539608541171    0.2188083502245942    H2137
    0.9436141569372305    0.5760539608541171    0.5521416835579276    H2138
    0.9436141569372305    0.5760539608541171    0.8854750168912608    H2139
    0.9436141569372305    0.9093872941874503    0.2188083502245942    H2140
    0.9436141569372305    0.9093872941874503    0.5521416835579276    H2141
    0.9436141569372305    0.9093872941874503    0.8854750168912608    H2142
    0.2769474902705638    0.2427206275207838    0.2188083502245942    H2143
    0.2769474902705638    0.2427206275207838    0.5521416835579276    H2144
    0.2769474902705638    0.2427206275207838    0.8854750168912608    H2145
    0.2769474902705638    0.5760539608541171    0.2188083502245942    H2146
    0.2769474902705638    0.5760539608541171    0.5521416835579276    H2147
    0.2769474902705638    0.5760539608541171    0.8854750168912608    H2148
    0.2769474902705638    0.9093872941874503    0.2188083502245942    H2149
    0.2769474902705638    0.9093872941874503    0.5521416835579276    H2150
    0.2769474902705638    0.9093872941874503    0.8854750168912608    H2151
    0.6102808236038970    0.2427206275207838    0.2188083502245942    H2152
    0.6102808236038970    0.2427206275207838    0.5521416835579276    H2153
    0.6102808236038970    0.2427206275207838    0.8854750168912608    H2154
    0.6102808236038970    0.5760539608541171    0.2188083502245942    H2155
    0.6102808236038970    0.5760539608541171    0.5521416835579276    H2156
    0.6102808236038970    0.5760539608541171    0.8854750168912608    H2157
    0.6102808236038970    0.9093872941874503    0.2188083502245942    H2158
    0.6102808236038970    0.9093872941874503    0.5521416835579276    H2159
    0.6102808236038970    0.9093872941874503    0.8854750168912608    H2160
    0.9166632922043632    0.2062573924537334    0.4005444284303707    H2161
    0.9166632922043632    0.2062573924537334    0.7338777617637041    H2162
    0.9166632922043632    0.2062573924537334    0.0672110950970374    H2163
    0.9166632922043632    0.5395907257870668    0.4005444284303707    H2164
    0.9166632922043632    0.5395907257870668    0.7338777617637041    H2165
    0.9166632922043632    0.5395907257870668    0.0672110950970374    H2166
    0.9166632922043632    0.8729240591204002    0.4005444284303707    H2167
    0.9166632922043632    0.8729240591204002    0.7338777617637041    H2168
    0.9166632922043632    0.8729240591204002    0.0672110950970374    H2169
    0.2499966255376964    0.2062573924537334    0.4005444284303707    H2170
    0.2499966255376964    0.2062573924537334    0.7338777617637041    H2171
    0.2499966255376964    0.2062573924537334    0.0672110950970374    H2172
    0.2499966255376964    0.5395907257870668    0.4005444284303707    H2173
    0.2499966255376964    0.5395907257870668    0.7338777617637041    H2174
    0.2499966255376964    0.5395907257870668    0.0672110950970374    H2175
    0.2499966255376964    0.8729240591204002    0.4005444284303707    H2176
    0.2499966255376964    0.8729240591204002    0.7338777617637041    H2177
    0.2499966255376964    0.8729240591204002    0.0672110950970374    H2178
    0.5833299588710297    0.2062573924537334    0.4005444284303707    H2179
    0.5833299588710297    0.2062573924537334    0.7338777617637041    H2180
    0.5833299588710297    0.2062573924537334    0.0672110950970374    H2181
    0.5833299588710297    0.5395907257870668    0.4005444284303707    H2182
    0.5833299588710297    0.5395907257870668    0.7338777617637041    H2183
    0.5833299588710297    0.5395907257870668    0.0672110950970374    H2184
    0.5833299588710297    0.8729240591204002    0.4005444284303707    H2185
    0.5833299588710297    0.8729240591204002    0.7338777617637041    H2186
    0.5833299588710297    0.8729240591204002    0.0672110950970374    H2187
    0.0663610494174421    0.2831529138137876    0.3462500871159154    H2188
    0.0663610494174421    0.2831529138137876    0.6795834204492488    H2189
    0.0663610494174421    0.2831529138137876    0.0129167537825821    H2190
    0.0663610494174421    0.6164862471471211    0.3462500871159154    H2191
    0.0663610494174421    0.6164862471471211    0.6795834204492488    H2192
    0.0663610494174421    0.6164862471471211    0.0129167537825821    H2193
    0.0663610494174421    0.9498195804804543    0.3462500871159154    H2194
    0.0663610494174421    0.9498195804804543    0.6795834204492488    H2195
    0.0663610494174421    0.9498195804804543    0.0129167537825821    H2196
    0.3996943827507755    0.2831529138137876    0.3462500871159154    H2197
    0.3996943827507755    0.2831529138137876    0.6795834204492488    H2198
    0.3996943827507755    0.2831529138137876    0.0129167537825821    H2199
    0.3996943827507755    0.6164862471471211    0.3462500871159154    H2200
    0.3996943827507755    0.6164862471471211    0.6795834204492488    H2201
    0.3996943827507755    0.6164862471471211    0.0129167537825821    H2202
    0.3996943827507755    0.9498195804804543    0.3462500871159154    H2203
    0.3996943827507755    0.9498195804804543    0.6795834204492488    H2204
    0.3996943827507755    0.9498195804804543    0.0129167537825821    H2205
    0.7330277160841089    0.2831529138137876    0.3462500871159154    H2206
    0.7330277160841089    0.2831529138137876    0.6795834204492488    H2207
    0.7330277160841089    0.2831529138137876    0.0129167537825821    H2208
    0.7330277160841089    0.6164862471471211    0.3462500871159154    H2209
    0.7330277160841089    0.6164862471471211    0.6795834204492488    H2210
    0.7330277160841089    0.6164862471471211    0.0129167537825821    H2211
    0.7330277160841089    0.9498195804804543    0.3462500871159154    H2212
    0.7330277160841089    0.9498195804804543    0.6795834204492488    H2213
    0.7330277160841089    0.9498195804804543    0.0129167537825821    H2214
    0.0817904752008770    0.1511539443659226    0.1292014157859345    H2215
    0.0817904752008770    0.1511539443659226    0.4625347491192677    H2216
    0.0817904752008770    0.1511539443659226    0.7958680824526011    H2217
    0.0817904752008770    0.4844872776992559    0.1292014157859345    H2218
    0.0817904752008770    0.4844872776992559    0.4625347491192677    H2219
    0.0817904752008770    0.4844872776992559    0.7958680824526011    H2220
    0.0817904752008770    0.8178206110325893    0.1292014157859345    H2221
    0.0817904752008770    0.8178206110325893    0.4625347491192677    H2222
    0.0817904752008770    0.8178206110325893    0.7958680824526011    H2223
    0.4151238085342104    0.1511539443659226    0.1292014157859345    H2224
    0.4151238085342104    0.1511539443659226    0.4625347491192677    H2225
    0.4151238085342104    0.1511539443659226    0.7958680824526011    H2226
    0.4151238085342104    0.4844872776992559    0.1292014157859345    H2227
    0.4151238085342104    0.4844872776992559    0.4625347491192677    H2228
    0.4151238085342104    0.4844872776992559    0.7958680824526011    H2229
    0.4151238085342104    0.8178206110325893    0.1292014157859345    H2230
    0.4151238085342104    0.8178206110325893    0.4625347491192677    H2231
    0.4151238085342104    0.8178206110325893    0.7958680824526011    H2232
    0.7484571418675436    0.1511539443659226    0.1292014157859345    H2233
    0.7484571418675436    0.1511539443659226    0.4625347491192677    H2234
    0.7484571418675436    0.1511539443659226    0.7958680824526011    H2235
    0.7484571418675436    0.4844872776992559    0.1292014157859345    H2236
    0.7484571418675436    0.4844872776992559    0.4625347491192677    H2237
    0.7484571418675436    0.4844872776992559    0.7958680824526011    H2238
    0.7484571418675436    0.8178206110325893    0.1292014157859345    H2239
    0.7484571418675436    0.8178206110325893    0.4625347491192677    H2240
    0.7484571418675436    0.8178206110325893    0.7958680824526011    H2241
    0.9511183818390203    0.1159400249831073    0.1773187057750855    H2242
    0.9511183818390203    0.1159400249831073    0.5106520391084187    H2243
    0.9511183818390203    0.1159400249831073    0.8439853724417521    H2244
    0.9511183818390203    0.4492733583164407    0.1773187057750855    H2245
    0.9511183818390203    0.4492733583164407    0.5106520391084187    H2246
    0.9511183818390203    0.4492733583164407    0.8439853724417521    H2247
    0.9511183818390203    0.7826066916497740    0.1773187057750855    H2248
    0.9511183818390203    0.7826066916497740    0.5106520391084187    H2249
    0.9511183818390203    0.7826066916497740    0.8439853724417521    H2250
    0.2844517151723536    0.1159400249831073    0.1773187057750855    H2251
    0.2844517151723536    0.1159400249831073    0.5106520391084187    H2252
    0.2844517151723536    0.1159400249831073    0.8439853724417521    H2253
    0.2844517151723536    0.4492733583164407    0.1773187057750855    H2254
    0.2844517151723536    0.4492733583164407    0.5106520391084187    H2255
    0.2844517151723536    0.4492733583164407    0.8439853724417521    H2256
    0.2844517151723536    0.7826066916497740    0.1773187057750855    H2257
    0.2844517151723536    0.7826066916497740    0.5106520391084187    H2258
    0.2844517151723536    0.7826066916497740    0.8439853724417521    H2259
    0.6177850485056869    0.1159400249831073    0.1773187057750855    H2260
    0.6177850485056869    0.1159400249831073    0.5106520391084187    H2261
    0.6177850485056869    0.1159400249831073    0.8439853724417521    H2262
    0.6177850485056869    0.4492733583164407    0.1773187057750855    H2263
    0.6177850485056869    0.4492733583164407    0.5106520391084187    H2264
    0.6177850485056869    0.4492733583164407    0.8439853724417521    H2265
    0.6177850485056869    0.7826066916497740    0.1773187057750855    H2266
    0.6177850485056869    0.7826066916497740    0.5106520391084187    H2267
    0.6177850485056869    0.7826066916497740    0.8439853724417521    H2268
    0.0680307539572420    0.1885014166367615    0.0886894401794101    H2269
    0.0680307539572420    0.1885014166367615    0.4220227735127433    H2270
    0.0680307539572420    0.1885014166367615    0.7553561068460767    H2271
    0.0680307539572420    0.5218347499700947    0.0886894401794101    H2272
    0.0680307539572420    0.5218347499700947    0.4220227735127433    H2273
    0.0680307539572420    0.5218347499700947    0.7553561068460767    H2274
    0.0680307539572420    0.8551680833034281    0.0886894401794101    H2275
    0.0680307539572420    0.8551680833034281    0.4220227735127433    H2276
    0.0680307539572420    0.8551680833034281    0.7553561068460767    H2277
    0.4013640872905754    0.1885014166367615    0.0886894401794101    H2278
    0.4013640872905754    0.1885014166367615    0.4220227735127433    H2279
    0.4013640872905754    0.1885014166367615    0.7553561068460767    H2280
    0.4013640872905754    0.5218347499700947    0.0886894401794101    H2281
    0.4013640872905754    0.5218347499700947    0.4220227735127433    H2282
    0.4013640872905754    0.5218347499700947    0.7553561068460767    H2283
    0.4013640872905754    0.8551680833034281    0.0886894401794101    H2284
    0.4013640872905754    0.8551680833034281    0.4220227735127433    H2285
    0.4013640872905754    0.8551680833034281    0.7553561068460767    H2286
    0.7346974206239087    0.1885014166367615    0.0886894401794101    H2287
    0.7346974206239087    0.1885014166367615    0.4220227735127433    H2288
    0.7346974206239087    0.1885014166367615    0.7553561068460767    H2289
    0.7346974206239087    0.5218347499700947    0.0886894401794101    H2290
    0.7346974206239087    0.5218347499700947    0.4220227735127433    H2291
    0.7346974206239087    0.5218347499700947    0.7553561068460767    H2292
    0.7346974206239087    0.8551680833034281    0.0886894401794101    H2293
    0.7346974206239087    0.8551680833034281    0.4220227735127433    H2294
    0.7346974206239087    0.8551680833034281    0.7553561068460767    H2295
    0.0471206271228909    0.9047719233790523    0.2577313436165921    H2296
    0.0471206271228909    0.9047719233790523    0.5910646769499254    H2297
    0.0471206271228909    0.9047719233790523    0.9243980102832586    H2298
    0.0471206271228909    0.2381052567123856    0.2577313436165921    H2299
    0.0471206271228909    0.2381052567123856    0.5910646769499254    H2300
    0.0471206271228909    0.2381052567123856    0.9243980102832586    H2301
    0.0471206271228909    0.5714385900457190    0.2577313436165921    H2302
    0.0471206271228909    0.5714385900457190    0.5910646769499254    H2303
    0.0471206271228909    0.5714385900457190    0.9243980102832586    H2304
    0.3804539604562241    0.9047719233790523    0.2577313436165921    H2305
    0.3804539604562241    0.9047719233790523    0.5910646769499254    H2306
    0.3804539604562241    0.9047719233790523    0.9243980102832586    H2307
    0.3804539604562241    0.2381052567123856    0.2577313436165921    H2308
    0.3804539604562241    0.2381052567123856    0.5910646769499254    H2309
    0.3804539604562241    0.2381052567123856    0.9243980102832586    H2310
    0.3804539604562241    0.5714385900457190    0.2577313436165921    H2311
    0.3804539604562241    0.5714385900457190    0.5910646769499254    H2312
    0.3804539604562241    0.5714385900457190    0.9243980102832586    H2313
    0.7137872937895575    0.9047719233790523    0.2577313436165921    H2314
    0.7137872937895575    0.9047719233790523    0.5910646769499254    H2315
    0.7137872937895575    0.9047719233790523    0.9243980102832586    H2316
    0.7137872937895575    0.2381052567123856    0.2577313436165921    H2317
    0.7137872937895575    0.2381052567123856    0.5910646769499254    H2318
    0.7137872937895575    0.2381052567123856    0.9243980102832586    H2319
    0.7137872937895575    0.5714385900457190    0.2577313436165921    H2320
    0.7137872937895575    0.5714385900457190    0.5910646769499254    H2321
    0.7137872937895575    0.5714385900457190    0.9243980102832586    H2322
    0.0604435553545931    0.9400269323628088    0.2531274525928895    H2323
    0.0604435553545931    0.9400269323628088    0.5864607859262229    H2324
    0.0604435553545931    0.9400269323628088    0.9197941192595561    H2325
    0.0604435553545931    0.2733602656961421    0.2531274525928895    H2326
    0.0604435553545931    0.2733602656961421    0.5864607859262229    H2327
    0.0604435553545931    0.2733602656961421    0.9197941192595561    H2328
    0.0604435553545931    0.6066935990294755    0.2531274525928895    H2329
    0.0604435553545931    0.6066935990294755    0.5864607859262229    H2330
    0.0604435553545931    0.6066935990294755    0.9197941192595561    H2331
    0.3937768886879265    0.9400269323628088    0.2531274525928895    H2332
    0.3937768886879265    0.9400269323628088    0.5864607859262229    H2333
    0.3937768886879265    0.9400269323628088    0.9197941192595561    H2334
    0.3937768886879265    0.2733602656961421    0.2531274525928895    H2335
    0.3937768886879265    0.2733602656961421    0.5864607859262229    H2336
    0.3937768886879265    0.2733602656961421    0.9197941192595561    H2337
    0.3937768886879265    0.6066935990294755    0.2531274525928895    H2338
    0.3937768886879265    0.6066935990294755    0.5864607859262229    H2339
    0.3937768886879265    0.6066935990294755    0.9197941192595561    H2340
    0.7271102220212597    0.9400269323628088    0.2531274525928895    H2341
    0.7271102220212597    0.9400269323628088    0.5864607859262229    H2342
    0.7271102220212597    0.9400269323628088    0.9197941192595561    H2343
    0.7271102220212597    0.2733602656961421    0.2531274525928895    H2344
    0.7271102220212597    0.2733602656961421    0.5864607859262229    H2345
    0.7271102220212597    0.2733602656961421    0.9197941192595561    H2346
    0.7271102220212597    0.6066935990294755    0.2531274525928895    H2347
    0.7271102220212597    0.6066935990294755    0.5864607859262229    H2348
    0.7271102220212597    0.6066935990294755    0.9197941192595561    H2349
    0.8030479128967389    0.1670039534044049    0.2389225876186802    H2350
    0.8030479128967389    0.1670039534044049    0.5722559209520136    H2351
    0.8030479128967389    0.1670039534044049    0.9055892542853469    H2352
    0.8030479128967389    0.5003372867377383    0.2389225876186802    H2353
    0.8030479128967389    0.5003372867377383    0.5722559209520136    H2354
    0.8030479128967389    0.5003372867377383    0.9055892542853469    H2355
    0.8030479128967389    0.8336706200710715    0.2389225876186802    H2356
    0.8030479128967389    0.8336706200710715    0.5722559209520136    H2357
    0.8030479128967389    0.8336706200710715    0.9055892542853469    H2358
    0.1363812462300723    0.1670039534044049    0.2389225876186802    H2359
    0.1363812462300723    0.1670039534044049    0.5722559209520136    H2360
    0.1363812462300723    0.1670039534044049    0.9055892542853469    H2361
    0.1363812462300723    0.5003372867377383    0.2389225876186802    H2362
    0.1363812462300723    0.5003372867377383    0.5722559209520136    H2363
    0.1363812462300723    0.5003372867377383    0.9055892542853469    H2364
    0.1363812462300723    0.8336706200710715    0.2389225876186802    H2365
    0.1363812462300723    0.8336706200710715    0.5722559209520136    H2366
    0.1363812462300723    0.8336706200710715    0.9055892542853469    H2367
    0.4697145795634057    0.1670039534044049    0.2389225876186802    H2368
    0.4697145795634057    0.1670039534044049    0.5722559209520136    H2369
    0.4697145795634057    0.1670039534044049    0.9055892542853469    H2370
    0.4697145795634057    0.5003372867377383    0.2389225876186802    H2371
    0.4697145795634057    0.5003372867377383    0.5722559209520136    H2372
    0.4697145795634057    0.5003372867377383    0.9055892542853469    H2373
    0.4697145795634057    0.8336706200710715    0.2389225876186802    H2374
    0.4697145795634057    0.8336706200710715    0.5722559209520136    H2375
    0.4697145795634057    0.8336706200710715    0.9055892542853469    H2376
    0.1063860591406325    0.1835902891715093    0.1471862002985518    H2377
    0.1063860591406325    0.1835902891715093    0.4805195336318852    H2378
    0.1063860591406325    0.1835902891715093    0.8138528669652185    H2379
    0.1063860591406325    0.5169236225048426    0.1471862002985518    H2380
    0.1063860591406325    0.5169236225048426    0.4805195336318852    H2381
    0.1063860591406325    0.5169236225048426    0.8138528669652185    H2382
    0.1063860591406325    0.8502569558381758    0.1471862002985518    H2383
    0.1063860591406325    0.8502569558381758    0.4805195336318852    H2384
    0.1063860591406325    0.8502569558381758    0.8138528669652185    H2385
    0.4397193924739660    0.1835902891715093    0.1471862002985518    H2386
    0.4397193924739660    0.1835902891715093    0.4805195336318852    H2387
    0.4397193924739660    0.1835902891715093    0.8138528669652185    H2388
    0.4397193924739660    0.5169236225048426    0.1471862002985518    H2389
    0.4397193924739660    0.5169236225048426    0.4805195336318852    H2390
    0.4397193924739660    0.5169236225048426    0.8138528669652185    H2391
    0.4397193924739660    0.8502569558381758    0.1471862002985518    H2392
    0.4397193924739660    0.8502569558381758    0.4805195336318852    H2393
    0.4397193924739660    0.8502569558381758    0.8138528669652185    H2394
    0.7730527258072992    0.1835902891715093    0.1471862002985518    H2395
    0.7730527258072992    0.1835902891715093    0.4805195336318852    H2396
    0.7730527258072992    0.1835902891715093    0.8138528669652185    H2397
    0.7730527258072992    0.5169236225048426    0.1471862002985518    H2398
    0.7730527258072992    0.5169236225048426    0.4805195336318852    H2399
    0.7730527258072992    0.5169236225048426    0.8138528669652185    H2400
    0.7730527258072992    0.8502569558381758    0.1471862002985518    H2401
    0.7730527258072992    0.8502569558381758    0.4805195336318852    H2402
    0.7730527258072992    0.8502569558381758    0.8138528669652185    H2403
    0.9004136698983687    0.1575672431558572    0.3134047963053525    H2404
    0.9004136698983687    0.1575672431558572    0.6467381296386858    H2405
    0.9004136698983687    0.1575672431558572    0.9800714629720191    H2406
    0.9004136698983687    0.4909005764891905    0.3134047963053525    H2407
    0.9004136698983687    0.4909005764891905    0.6467381296386858    H2408
    0.9004136698983687    0.4909005764891905    0.9800714629720191    H2409
    0.9004136698983687    0.8242339098225239    0.3134047963053525    H2410
    0.9004136698983687    0.8242339098225239    0.6467381296386858    H2411
    0.9004136698983687    0.8242339098225239    0.9800714629720191    H2412
    0.2337470032317019    0.1575672431558572    0.3134047963053525    H2413
    0.2337470032317019    0.1575672431558572    0.6467381296386858    H2414
    0.2337470032317019    0.1575672431558572    0.9800714629720191    H2415
    0.2337470032317019    0.4909005764891905    0.3134047963053525    H2416
    0.2337470032317019    0.4909005764891905    0.6467381296386858    H2417
    0.2337470032317019    0.4909005764891905    0.9800714629720191    H2418
    0.2337470032317019    0.8242339098225239    0.3134047963053525    H2419
    0.2337470032317019    0.8242339098225239    0.6467381296386858    H2420
    0.2337470032317019    0.8242339098225239    0.9800714629720191    H2421
    0.5670803365650352    0.1575672431558572    0.3134047963053525    H2422
    0.5670803365650352    0.1575672431558572    0.6467381296386858    H2423
    0.5670803365650352    0.1575672431558572    0.9800714629720191    H2424
    0.5670803365650352    0.4909005764891905    0.3134047963053525    H2425
    0.5670803365650352    0.4909005764891905    0.6467381296386858    H2426
    0.5670803365650352    0.4909005764891905    0.9800714629720191    H2427
    0.5670803365650352    0.8242339098225239    0.3134047963053525    H2428
    0.5670803365650352    0.8242339098225239    0.6467381296386858    H2429
    0.5670803365650352    0.8242339098225239    0.9800714629720191    H2430
    0.9334681145459207    0.1316166005079176    0.2126257544343643    H2431
    0.9334681145459207    0.1316166005079176    0.5459590877676976    H2432
    0.9334681145459207    0.1316166005079176    0.8792924211010309    H2433
    0.9334681145459207    0.4649499338412508    0.2126257544343643    H2434
    0.9334681145459207    0.4649499338412508    0.5459590877676976    H2435
    0.9334681145459207    0.4649499338412508    0.8792924211010309    H2436
    0.9334681145459207    0.7982832671745842    0.2126257544343643    H2437
    0.9334681145459207    0.7982832671745842    0.5459590877676976    H2438
    0.9334681145459207    0.7982832671745842    0.8792924211010309    H2439
    0.2668014478792541    0.1316166005079176    0.2126257544343643    H2440
    0.2668014478792541    0.1316166005079176    0.5459590877676976    H2441
    0.2668014478792541    0.1316166005079176    0.8792924211010309    H2442
    0.2668014478792541    0.4649499338412508    0.2126257544343643    H2443
    0.2668014478792541    0.4649499338412508    0.5459590877676976    H2444
    0.2668014478792541    0.4649499338412508    0.8792924211010309    H2445
    0.2668014478792541    0.7982832671745842    0.2126257544343643    H2446
    0.2668014478792541    0.7982832671745842    0.5459590877676976    H2447
    0.2668014478792541    0.7982832671745842    0.8792924211010309    H2448
    0.6001347812125873    0.1316166005079176    0.2126257544343643    H2449
    0.6001347812125873    0.1316166005079176    0.5459590877676976    H2450
    0.6001347812125873    0.1316166005079176    0.8792924211010309    H2451
    0.6001347812125873    0.4649499338412508    0.2126257544343643    H2452
    0.6001347812125873    0.4649499338412508    0.5459590877676976    H2453
    0.6001347812125873    0.4649499338412508    0.8792924211010309    H2454
    0.6001347812125873    0.7982832671745842    0.2126257544343643    H2455
    0.6001347812125873    0.7982832671745842    0.5459590877676976    H2456
    0.6001347812125873    0.7982832671745842    0.8792924211010309    H2457
    0.1843372651966683    0.1229344190839077    0.4062832817594049    H2458
    0.1843372651966683    0.1229344190839077    0.7396166150927381    H2459
    0.1843372651966683    0.1229344190839077    0.0729499484260715    H2460
    0.1843372651966683    0.4562677524172409    0.4062832817594049    H2461
    0.1843372651966683    0.4562677524172409    0.7396166150927381    H2462
    0.1843372651966683    0.4562677524172409    0.0729499484260715    H2463
    0.1843372651966683    0.7896010857505743    0.4062832817594049    H2464
    0.1843372651966683    0.7896010857505743    0.7396166150927381    H2465
    0.1843372651966683    0.7896010857505743    0.0729499484260715    H2466
    0.5176705985300016    0.1229344190839077    0.4062832817594049    H2467
    0.5176705985300016    0.1229344190839077    0.7396166150927381    H2468
    0.5176705985300016    0.1229344190839077    0.0729499484260715    H2469
    0.5176705985300016    0.4562677524172409    0.4062832817594049    H2470
    0.5176705985300016    0.4562677524172409    0.7396166150927381    H2471
    0.5176705985300016    0.4562677524172409    0.0729499484260715    H2472
    0.5176705985300016    0.7896010857505743    0.4062832817594049    H2473
    0.5176705985300016    0.7896010857505743    0.7396166150927381    H2474
    0.5176705985300016    0.7896010857505743    0.0729499484260715    H2475
    0.8510039318633349    0.1229344190839077    0.4062832817594049    H2476
    0.8510039318633349    0.1229344190839077    0.7396166150927381    H2477
    0.8510039318633349    0.1229344190839077    0.0729499484260715    H2478
    0.8510039318633349    0.4562677524172409    0.4062832817594049    H2479
    0.8510039318633349    0.4562677524172409    0.7396166150927381    H2480
    0.8510039318633349    0.4562677524172409    0.0729499484260715    H2481
    0.8510039318633349    0.7896010857505743    0.4062832817594049    H2482
    0.8510039318633349    0.7896010857505743    0.7396166150927381    H2483
    0.8510039318633349    0.7896010857505743    0.0729499484260715    H2484
    0.0062018788090356    0.1814484964165718    0.1179438779037606    H2485
    0.0062018788090356    0.1814484964165718    0.4512772112370940    H2486
    0.0062018788090356    0.1814484964165718    0.7846105445704272    H2487
    0.0062018788090356    0.5147818297499052    0.1179438779037606    H2488
    0.0062018788090356    0.5147818297499052    0.4512772112370940    H2489
    0.0062018788090356    0.5147818297499052    0.7846105445704272    H2490
    0.0062018788090356    0.8481151630832385    0.1179438779037606    H2491
    0.0062018788090356    0.8481151630832385    0.4512772112370940    H2492
    0.0062018788090356    0.8481151630832385    0.7846105445704272    H2493
    0.3395352121423689    0.1814484964165718    0.1179438779037606    H2494
    0.3395352121423689    0.1814484964165718    0.4512772112370940    H2495
    0.3395352121423689    0.1814484964165718    0.7846105445704272    H2496
    0.3395352121423689    0.5147818297499052    0.1179438779037606    H2497
    0.3395352121423689    0.5147818297499052    0.4512772112370940    H2498
    0.3395352121423689    0.5147818297499052    0.7846105445704272    H2499
    0.3395352121423689    0.8481151630832385    0.1179438779037606    H2500
    0.3395352121423689    0.8481151630832385    0.4512772112370940    H2501
    0.3395352121423689    0.8481151630832385    0.7846105445704272    H2502
    0.6728685454757022    0.1814484964165718    0.1179438779037606    H2503
    0.6728685454757022    0.1814484964165718    0.4512772112370940    H2504
    0.6728685454757022    0.1814484964165718    0.7846105445704272    H2505
    0.6728685454757022    0.5147818297499052    0.1179438779037606    H2506
    0.6728685454757022    0.5147818297499052    0.4512772112370940    H2507
    0.6728685454757022    0.5147818297499052    0.7846105445704272    H2508
    0.6728685454757022    0.8481151630832385    0.1179438779037606    H2509
    0.6728685454757022    0.8481151630832385    0.4512772112370940    H2510
    0.6728685454757022    0.8481151630832385    0.7846105445704272    H2511
    0.9583474876311910    0.1933164832127886    0.0786689872111478    H2512
    0.9583474876311910    0.1933164832127886    0.4120023205444812    H2513
    0.9583474876311910    0.1933164832127886    0.7453356538778144    H2514
    0.9583474876311910    0.5266498165461219    0.0786689872111478    H2515
    0.9583474876311910    0.5266498165461219    0.4120023205444812    H2516
    0.9583474876311910    0.5266498165461219    0.7453356538778144    H2517
    0.9583474876311910    0.8599831498794552    0.0786689872111478    H2518
    0.9583474876311910    0.8599831498794552    0.4120023205444812    H2519
    0.9583474876311910    0.8599831498794552    0.7453356538778144    H2520
    0.2916808209645243    0.1933164832127886    0.0786689872111478    H2521
    0.2916808209645243    0.1933164832127886    0.4120023205444812    H2522
    0.2916808209645243    0.1933164832127886    0.7453356538778144    H2523
    0.2916808209645243    0.5266498165461219    0.0786689872111478    H2524
    0.2916808209645243    0.5266498165461219    0.4120023205444812    H2525
    0.2916808209645243    0.5266498165461219    0.7453356538778144    H2526
    0.2916808209645243    0.8599831498794552    0.0786689872111478    H2527
    0.2916808209645243    0.8599831498794552    0.4120023205444812    H2528
    0.2916808209645243    0.8599831498794552    0.7453356538778144    H2529
    0.6250141542978578    0.1933164832127886    0.0786689872111478    H2530
    0.6250141542978578    0.1933164832127886    0.4120023205444812    H2531
    0.6250141542978578    0.1933164832127886    0.7453356538778144    H2532
    0.6250141542978578    0.5266498165461219    0.0786689872111478    H2533
    0.6250141542978578    0.5266498165461219    0.4120023205444812    H2534
    0.6250141542978578    0.5266498165461219    0.7453356538778144    H2535
    0.6250141542978578    0.8599831498794552    0.0786689872111478    H2536
    0.6250141542978578    0.8599831498794552    0.4120023205444812    H2537
    0.6250141542978578    0.8599831498794552    0.7453356538778144    H2538
    0.2102129001100694    0.1313563562756979    0.4695246621981135    H2539
    0.2102129001100694    0.1313563562756979    0.8028579955314468    H2540
    0.2102129001100694    0.1313563562756979    0.1361913288647801    H2541
    0.2102129001100694    0.4646896896090311    0.4695246621981135    H2542
    0.2102129001100694    0.4646896896090311    0.8028579955314468    H2543
    0.2102129001100694    0.4646896896090311    0.1361913288647801    H2544
    0.2102129001100694    0.7980230229423645    0.4695246621981135    H2545
    0.2102129001100694    0.7980230229423645    0.8028579955314468    H2546
    0.2102129001100694    0.7980230229423645    0.1361913288647801    H2547
    0.5435462334434029    0.1313563562756979    0.4695246621981135    H2548
    0.5435462334434029    0.1313563562756979    0.8028579955314468    H2549
    0.5435462334434029    0.1313563562756979    0.1361913288647801    H2550
    0.5435462334434029    0.4646896896090311    0.4695246621981135    H2551
    0.5435462334434029    0.4646896896090311    0.8028579955314468    H2552
    0.5435462334434029    0.4646896896090311    0.1361913288647801    H2553
    0.5435462334434029    0.7980230229423645    0.4695246621981135    H2554
    0.5435462334434029    0.7980230229423645    0.8028579955314468    H2555
    0.5435462334434029    0.7980230229423645    0.1361913288647801    H2556
    0.8768795667767362    0.1313563562756979    0.4695246621981135    H2557
    0.8768795667767362    0.1313563562756979    0.8028579955314468    H2558
    0.8768795667767362    0.1313563562756979    0.1361913288647801    H2559
    0.8768795667767362    0.4646896896090311    0.4695246621981135    H2560
    0.8768795667767362    0.4646896896090311    0.8028579955314468    H2561
    0.8768795667767362    0.4646896896090311    0.1361913288647801    H2562
    0.8768795667767362    0.7980230229423645    0.4695246621981135    H2563
    0.8768795667767362    0.7980230229423645    0.8028579955314468    H2564
    0.8768795667767362    0.7980230229423645    0.1361913288647801    H2565
    0.0137626355714677    0.0963135879855832    0.2162224128603638    H2566
    0.0137626355714677    0.0963135879855832    0.5495557461936973    H2567
    0.0137626355714677    0.0963135879855832    0.8828890795270306    H2568
    0.0137626355714677    0.4296469213189166    0.2162224128603638    H2569
    0.0137626355714677    0.4296469213189166    0.5495557461936973    H2570
    0.0137626355714677    0.4296469213189166    0.8828890795270306    H2571
    0.0137626355714677    0.7629802546522499    0.2162224128603638    H2572
    0.0137626355714677    0.7629802546522499    0.5495557461936973    H2573
    0.0137626355714677    0.7629802546522499    0.8828890795270306    H2574
    0.3470959689048011    0.0963135879855832    0.2162224128603638    H2575
    0.3470959689048011    0.0963135879855832    0.5495557461936973    H2576
    0.3470959689048011    0.0963135879855832    0.8828890795270306    H2577
    0.3470959689048011    0.4296469213189166    0.2162224128603638    H2578
    0.3470959689048011    0.4296469213189166    0.5495557461936973    H2579
    0.3470959689048011    0.4296469213189166    0.8828890795270306    H2580
    0.3470959689048011    0.7629802546522499    0.2162224128603638    H2581
    0.3470959689048011    0.7629802546522499    0.5495557461936973    H2582
    0.3470959689048011    0.7629802546522499    0.8828890795270306    H2583
    0.6804293022381345    0.0963135879855832    0.2162224128603638    H2584
    0.6804293022381345    0.0963135879855832    0.5495557461936973    H2585
    0.6804293022381345    0.0963135879855832    0.8828890795270306    H2586
    0.6804293022381345    0.4296469213189166    0.2162224128603638    H2587
    0.6804293022381345    0.4296469213189166    0.5495557461936973    H2588
    0.6804293022381345    0.4296469213189166    0.8828890795270306    H2589
    0.6804293022381345    0.7629802546522499    0.2162224128603638    H2590
    0.6804293022381345    0.7629802546522499    0.5495557461936973    H2591
    0.6804293022381345    0.7629802546522499    0.8828890795270306    H2592
    0.9419317509870178    0.0927441840784641    0.2012605248231564    H2593
    0.9419317509870178    0.0927441840784641    0.5345938581564897    H2594
    0.9419317509870178    0.0927441840784641    0.8679271914898231    H2595
    0.9419317509870178    0.4260775174117974    0.2012605248231564    H2596
    0.9419317509870178    0.4260775174117974    0.5345938581564897    H2597
    0.9419317509870178    0.4260775174117974    0.8679271914898231    H2598
    0.9419317509870178    0.7594108507451307    0.2012605248231564    H2599
    0.9419317509870178    0.7594108507451307    0.5345938581564897    H2600
    0.9419317509870178    0.7594108507451307    0.8679271914898231    H2601
    0.2752650843203510    0.0927441840784641    0.2012605248231564    H2602
    0.2752650843203510    0.0927441840784641    0.5345938581564897    H2603
    0.2752650843203510    0.0927441840784641    0.8679271914898231    H2604
    0.2752650843203510    0.4260775174117974    0.2012605248231564    H2605
    0.2752650843203510    0.4260775174117974    0.5345938581564897    H2606
    0.2752650843203510    0.4260775174117974    0.8679271914898231    H2607
    0.2752650843203510    0.7594108507451307    0.2012605248231564    H2608
    0.2752650843203510    0.7594108507451307    0.5345938581564897    H2609
    0.2752650843203510    0.7594108507451307    0.8679271914898231    H2610
    0.6085984176536843    0.0927441840784641    0.2012605248231564    H2611
    0.6085984176536843    0.0927441840784641    0.5345938581564897    H2612
    0.6085984176536843    0.0927441840784641    0.8679271914898231    H2613
    0.6085984176536843    0.4260775174117974    0.2012605248231564    H2614
    0.6085984176536843    0.4260775174117974    0.5345938581564897    H2615
    0.6085984176536843    0.4260775174117974    0.8679271914898231    H2616
    0.6085984176536843    0.7594108507451307    0.2012605248231564    H2617
    0.6085984176536843    0.7594108507451307    0.5345938581564897    H2618
    0.6085984176536843    0.7594108507451307    0.8679271914898231    H2619
    0.9834134929894056    0.2076222473031230    0.0546507728764281    H2620
    0.9834134929894056    0.2076222473031230    0.3879841062097613    H2621
    0.9834134929894056    0.2076222473031230    0.7213174395430947    H2622
    0.9834134929894056    0.5409555806364563    0.0546507728764281    H2623
    0.9834134929894056    0.5409555806364563    0.3879841062097613    H2624
    0.9834134929894056    0.5409555806364563    0.7213174395430947    H2625
    0.9834134929894056    0.8742889139697896    0.0546507728764281    H2626
    0.9834134929894056    0.8742889139697896    0.3879841062097613    H2627
    0.9834134929894056    0.8742889139697896    0.7213174395430947    H2628
    0.3167468263227389    0.2076222473031230    0.0546507728764281    H2629
    0.3167468263227389    0.2076222473031230    0.3879841062097613    H2630
    0.3167468263227389    0.2076222473031230    0.7213174395430947    H2631
    0.3167468263227389    0.5409555806364563    0.0546507728764281    H2632
    0.3167468263227389    0.5409555806364563    0.3879841062097613    H2633
    0.3167468263227389    0.5409555806364563    0.7213174395430947    H2634
    0.3167468263227389    0.8742889139697896    0.0546507728764281    H2635
    0.3167468263227389    0.8742889139697896    0.3879841062097613    H2636
    0.3167468263227389    0.8742889139697896    0.7213174395430947    H2637
    0.6500801596560722    0.2076222473031230    0.0546507728764281    H2638
    0.6500801596560722    0.2076222473031230    0.3879841062097613    H2639
    0.6500801596560722    0.2076222473031230    0.7213174395430947    H2640
    0.6500801596560722    0.5409555806364563    0.0546507728764281    H2641
    0.6500801596560722    0.5409555806364563    0.3879841062097613    H2642
    0.6500801596560722    0.5409555806364563    0.7213174395430947    H2643
    0.6500801596560722    0.8742889139697896    0.0546507728764281    H2644
    0.6500801596560722    0.8742889139697896    0.3879841062097613    H2645
    0.6500801596560722    0.8742889139697896    0.7213174395430947    H2646
    0.0225822033625435    0.1442686787370991    0.2978022730540481    H2647
    0.0225822033625435    0.1442686787370991    0.6311356063873814    H2648
    0.0225822033625435    0.1442686787370991    0.9644689397207148    H2649
    0.0225822033625435    0.4776020120704325    0.2978022730540481    H2650
    0.0225822033625435    0.4776020120704325    0.6311356063873814    H2651
    0.0225822033625435    0.4776020120704325    0.9644689397207148    H2652
    0.0225822033625435    0.8109353454037659    0.2978022730540481    H2653
    0.0225822033625435    0.8109353454037659    0.6311356063873814    H2654
    0.0225822033625435    0.8109353454037659    0.9644689397207148    H2655
    0.3559155366958767    0.1442686787370991    0.2978022730540481    H2656
    0.3559155366958767    0.1442686787370991    0.6311356063873814    H2657
    0.3559155366958767    0.1442686787370991    0.9644689397207148    H2658
    0.3559155366958767    0.4776020120704325    0.2978022730540481    H2659
    0.3559155366958767    0.4776020120704325    0.6311356063873814    H2660
    0.3559155366958767    0.4776020120704325    0.9644689397207148    H2661
    0.3559155366958767    0.8109353454037659    0.2978022730540481    H2662
    0.3559155366958767    0.8109353454037659    0.6311356063873814    H2663
    0.3559155366958767    0.8109353454037659    0.9644689397207148    H2664
    0.6892488700292101    0.1442686787370991    0.2978022730540481    H2665
    0.6892488700292101    0.1442686787370991    0.6311356063873814    H2666
    0.6892488700292101    0.1442686787370991    0.9644689397207148    H2667
    0.6892488700292101    0.4776020120704325    0.2978022730540481    H2668
    0.6892488700292101    0.4776020120704325    0.6311356063873814    H2669
    0.6892488700292101    0.4776020120704325    0.9644689397207148    H2670
    0.6892488700292101    0.8109353454037659    0.2978022730540481    H2671
    0.6892488700292101    0.8109353454037659    0.6311356063873814    H2672
    0.6892488700292101    0.8109353454037659    0.9644689397207148    H2673
    0.9128448050077034    0.2182839135291936    0.4462054731551441    H2674
    0.9128448050077034    0.2182839135291936    0.7795388064884775    H2675
    0.9128448050077034    0.2182839135291936    0.1128721398218108    H2676
    0.9128448050077034    0.5516172468625270    0.4462054731551441    H2677
    0.9128448050077034    0.5516172468625270    0.7795388064884775    H2678
    0.9128448050077034    0.5516172468625270    0.1128721398218108    H2679
    0.9128448050077034    0.8849505801958603    0.4462054731551441    H2680
    0.9128448050077034    0.8849505801958603    0.7795388064884775    H2681
    0.9128448050077034    0.8849505801958603    0.1128721398218108    H2682
    0.2461781383410366    0.2182839135291936    0.4462054731551441    H2683
    0.2461781383410366    0.2182839135291936    0.7795388064884775    H2684
    0.2461781383410366    0.2182839135291936    0.1128721398218108    H2685
    0.2461781383410366    0.5516172468625270    0.4462054731551441    H2686
    0.2461781383410366    0.5516172468625270    0.7795388064884775    H2687
    0.2461781383410366    0.5516172468625270    0.1128721398218108    H2688
    0.2461781383410366    0.8849505801958603    0.4462054731551441    H2689
    0.2461781383410366    0.8849505801958603    0.7795388064884775    H2690
    0.2461781383410366    0.8849505801958603    0.1128721398218108    H2691
    0.5795114716743699    0.2182839135291936    0.4462054731551441    H2692
    0.5795114716743699    0.2182839135291936    0.7795388064884775    H2693
    0.5795114716743699    0.2182839135291936    0.1128721398218108    H2694
    0.5795114716743699    0.5516172468625270    0.4462054731551441    H2695
    0.5795114716743699    0.5516172468625270    0.7795388064884775    H2696
    0.5795114716743699    0.5516172468625270    0.1128721398218108    H2697
    0.5795114716743699    0.8849505801958603    0.4462054731551441    H2698
    0.5795114716743699    0.8849505801958603    0.7795388064884775    H2699
    0.5795114716743699    0.8849505801958603    0.1128721398218108    H2700
    0.0695291683949766    0.1771449280238215    0.1589872458474501    H2701
    0.0695291683949766    0.1771449280238215    0.4923205791807834    H2702
    0.0695291683949766    0.1771449280238215    0.8256539125141168    H2703
    0.0695291683949766    0.5104782613571549    0.1589872458474501    H2704
    0.0695291683949766    0.5104782613571549    0.4923205791807834    H2705
    0.0695291683949766    0.5104782613571549    0.8256539125141168    H2706
    0.0695291683949766    0.8438115946904883    0.1589872458474501    H2707
    0.0695291683949766    0.8438115946904883    0.4923205791807834    H2708
    0.0695291683949766    0.8438115946904883    0.8256539125141168    H2709
    0.4028625017283098    0.1771449280238215    0.1589872458474501    H2710
    0.4028625017283098    0.1771449280238215    0.4923205791807834    H2711
    0.4028625017283098    0.1771449280238215    0.8256539125141168    H2712
    0.4028625017283098    0.5104782613571549    0.1589872458474501    H2713
    0.4028625017283098    0.5104782613571549    0.4923205791807834    H2714
    0.4028625017283098    0.5104782613571549    0.8256539125141168    H2715
    0.4028625017283098    0.8438115946904883    0.1589872458474501    H2716
    0.4028625017283098    0.8438115946904883    0.4923205791807834    H2717
    0.4028625017283098    0.8438115946904883    0.8256539125141168    H2718
    0.7361958350616431    0.1771449280238215    0.1589872458474501    H2719
    0.7361958350616431    0.1771449280238215    0.4923205791807834    H2720
    0.7361958350616431    0.1771449280238215    0.8256539125141168    H2721
    0.7361958350616431    0.5104782613571549    0.1589872458474501    H2722
    0.7361958350616431    0.5104782613571549    0.4923205791807834    H2723
    0.7361958350616431    0.5104782613571549    0.8256539125141168    H2724
    0.7361958350616431    0.8438115946904883    0.1589872458474501    H2725
    0.7361958350616431    0.8438115946904883    0.4923205791807834    H2726
    0.7361958350616431    0.8438115946904883    0.8256539125141168    H2727
    0.1638226390767906    0.2014753794215606    0.5256007423524967    H2728
    0.1638226390767906    0.2014753794215606    0.8589340756858300    H2729
    0.1638226390767906    0.2014753794215606    0.1922674090191633    H2730
    0.1638226390767906    0.5348087127548938    0.5256007423524967    H2731
    0.1638226390767906    0.5348087127548938    0.8589340756858300    H2732
    0.1638226390767906    0.5348087127548938    0.1922674090191633    H2733
    0.1638226390767906    0.8681420460882272    0.5256007423524967    H2734
    0.1638226390767906    0.8681420460882272    0.8589340756858300    H2735
    0.1638226390767906    0.8681420460882272    0.1922674090191633    H2736
    0.4971559724101240    0.2014753794215606    0.5256007423524967    H2737
    0.4971559724101240    0.2014753794215606    0.8589340756858300    H2738
    0.4971559724101240    0.2014753794215606    0.1922674090191633    H2739
    0.4971559724101240    0.5348087127548938    0.5256007423524967    H2740
    0.4971559724101240    0.5348087127548938    0.8589340756858300    H2741
    0.4971559724101240    0.5348087127548938    0.1922674090191633    H2742
    0.4971559724101240    0.8681420460882272    0.5256007423524967    H2743
    0.4971559724101240    0.8681420460882272    0.8589340756858300    H2744
    0.4971559724101240    0.8681420460882272    0.1922674090191633    H2745
    0.8304893057434574    0.2014753794215606    0.5256007423524967    H2746
    0.8304893057434574    0.2014753794215606    0.8589340756858300    H2747
    0.8304893057434574    0.2014753794215606    0.1922674090191633    H2748
    0.8304893057434574    0.5348087127548938    0.5256007423524967    H2749
    0.8304893057434574    0.5348087127548938    0.8589340756858300    H2750
    0.8304893057434574    0.5348087127548938    0.1922674090191633    H2751
    0.8304893057434574    0.8681420460882272    0.5256007423524967    H2752
    0.8304893057434574    0.8681420460882272    0.8589340756858300    H2753
    0.8304893057434574    0.8681420460882272    0.1922674090191633    H2754
    0.0315532585609428    0.2603798656278790    0.1933171941641361    H2755
    0.0315532585609428    0.2603798656278790    0.5266505274974693    H2756
    0.0315532585609428    0.2603798656278790    0.8599838608308027    H2757
    0.0315532585609428    0.5937131989612123    0.1933171941641361    H2758
    0.0315532585609428    0.5937131989612123    0.5266505274974693    H2759
    0.0315532585609428    0.5937131989612123    0.8599838608308027    H2760
    0.0315532585609428    0.9270465322945456    0.1933171941641361    H2761
    0.0315532585609428    0.9270465322945456    0.5266505274974693    H2762
    0.0315532585609428    0.9270465322945456    0.8599838608308027    H2763
    0.3648865918942761    0.2603798656278790    0.1933171941641361    H2764
    0.3648865918942761    0.2603798656278790    0.5266505274974693    H2765
    0.3648865918942761    0.2603798656278790    0.8599838608308027    H2766
    0.3648865918942761    0.5937131989612123    0.1933171941641361    H2767
    0.3648865918942761    0.5937131989612123    0.5266505274974693    H2768
    0.3648865918942761    0.5937131989612123    0.8599838608308027    H2769
    0.3648865918942761    0.9270465322945456    0.1933171941641361    H2770
    0.3648865918942761    0.9270465322945456    0.5266505274974693    H2771
    0.3648865918942761    0.9270465322945456    0.8599838608308027    H2772
    0.6982199252276095    0.2603798656278790    0.1933171941641361    H2773
    0.6982199252276095    0.2603798656278790    0.5266505274974693    H2774
    0.6982199252276095    0.2603798656278790    0.8599838608308027    H2775
    0.6982199252276095    0.5937131989612123    0.1933171941641361    H2776
    0.6982199252276095    0.5937131989612123    0.5266505274974693    H2777
    0.6982199252276095    0.5937131989612123    0.8599838608308027    H2778
    0.6982199252276095    0.9270465322945456    0.1933171941641361    H2779
    0.6982199252276095    0.9270465322945456    0.5266505274974693    H2780
    0.6982199252276095    0.9270465322945456    0.8599838608308027    H2781
    0.9747397986206630    0.2203660845196154    0.1822155358044499    H2782
    0.9747397986206630    0.2203660845196154    0.5155488691377834    H2783
    0.9747397986206630    0.2203660845196154    0.8488822024711167    H2784
    0.9747397986206630    0.5536994178529487    0.1822155358044499    H2785
    0.9747397986206630    0.5536994178529487    0.5155488691377834    H2786
    0.9747397986206630    0.5536994178529487    0.8488822024711167    H2787
    0.9747397986206630    0.8870327511862820    0.1822155358044499    H2788
    0.9747397986206630    0.8870327511862820    0.5155488691377834    H2789
    0.9747397986206630    0.8870327511862820    0.8488822024711167    H2790
    0.3080731319539963    0.2203660845196154    0.1822155358044499    H2791
    0.3080731319539963    0.2203660845196154    0.5155488691377834    H2792
    0.3080731319539963    0.2203660845196154    0.8488822024711167    H2793
    0.3080731319539963    0.5536994178529487    0.1822155358044499    H2794
    0.3080731319539963    0.5536994178529487    0.5155488691377834    H2795
    0.3080731319539963    0.5536994178529487    0.8488822024711167    H2796
    0.3080731319539963    0.8870327511862820    0.1822155358044499    H2797
    0.3080731319539963    0.8870327511862820    0.5155488691377834    H2798
    0.3080731319539963    0.8870327511862820    0.8488822024711167    H2799
    0.6414064652873297    0.2203660845196154    0.1822155358044499    H2800
    0.6414064652873297    0.2203660845196154    0.5155488691377834    H2801
    0.6414064652873297    0.2203660845196154    0.8488822024711167    H2802
    0.6414064652873297    0.5536994178529487    0.1822155358044499    H2803
    0.6414064652873297    0.5536994178529487    0.5155488691377834    H2804
    0.6414064652873297    0.5536994178529487    0.8488822024711167    H2805
    0.6414064652873297    0.8870327511862820    0.1822155358044499    H2806
    0.6414064652873297    0.8870327511862820    0.5155488691377834    H2807
    0.6414064652873297    0.8870327511862820    0.8488822024711167    H2808
    0.9975252194606865    0.2706844247337016    0.3245270709709147    H2809
    0.9975252194606865    0.2706844247337016    0.6578604043042481    H2810
    0.9975252194606865    0.2706844247337016    0.9911937376375813    H2811
    0.9975252194606865    0.6040177580670349    0.3245270709709147    H2812
    0.9975252194606865    0.6040177580670349    0.6578604043042481    H2813
    0.9975252194606865    0.6040177580670349    0.9911937376375813    H2814
    0.9975252194606865    0.9373510914003682    0.3245270709709147    H2815
    0.9975252194606865    0.9373510914003682    0.6578604043042481    H2816
    0.9975252194606865    0.9373510914003682    0.9911937376375813    H2817
    0.3308585527940199    0.2706844247337016    0.3245270709709147    H2818
    0.3308585527940199    0.2706844247337016    0.6578604043042481    H2819
    0.3308585527940199    0.2706844247337016    0.9911937376375813    H2820
    0.3308585527940199    0.6040177580670349    0.3245270709709147    H2821
    0.3308585527940199    0.6040177580670349    0.6578604043042481    H2822
    0.3308585527940199    0.6040177580670349    0.9911937376375813    H2823
    0.3308585527940199    0.9373510914003682    0.3245270709709147    H2824
    0.3308585527940199    0.9373510914003682    0.6578604043042481    H2825
    0.3308585527940199    0.9373510914003682    0.9911937376375813    H2826
    0.6641918861273531    0.2706844247337016    0.3245270709709147    H2827
    0.6641918861273531    0.2706844247337016    0.6578604043042481    H2828
    0.6641918861273531    0.2706844247337016    0.9911937376375813    H2829
    0.6641918861273531    0.6040177580670349    0.3245270709709147    H2830
    0.6641918861273531    0.6040177580670349    0.6578604043042481    H2831
    0.6641918861273531    0.6040177580670349    0.9911937376375813    H2832
    0.6641918861273531    0.9373510914003682    0.3245270709709147    H2833
    0.6641918861273531    0.9373510914003682    0.6578604043042481    H2834
    0.6641918861273531    0.9373510914003682    0.9911937376375813    H2835
    0.9322344646519649    0.2969116621137766    0.3503573645463176    H2836
    0.9322344646519649    0.2969116621137766    0.6836906978796509    H2837
    0.9322344646519649    0.2969116621137766    0.0170240312129842    H2838
    0.9322344646519649    0.6302449954471099    0.3503573645463176    H2839
    0.9322344646519649    0.6302449954471099    0.6836906978796509    H2840
    0.9322344646519649    0.6302449954471099    0.0170240312129842    H2841
    0.9322344646519649    0.9635783287804432    0.3503573645463176    H2842
    0.9322344646519649    0.9635783287804432    0.6836906978796509    H2843
    0.9322344646519649    0.9635783287804432    0.0170240312129842    H2844
    0.2655677979852982    0.2969116621137766    0.3503573645463176    H2845
    0.2655677979852982    0.2969116621137766    0.6836906978796509    H2846
    0.2655677979852982    0.2969116621137766    0.0170240312129842    H2847
    0.2655677979852982    0.6302449954471099    0.3503573645463176    H2848
    0.2655677979852982    0.6302449954471099    0.6836906978796509    H2849
    0.2655677979852982    0.6302449954471099    0.0170240312129842    H2850
    0.2655677979852982    0.9635783287804432    0.3503573645463176    H2851
    0.2655677979852982    0.9635783287804432    0.6836906978796509    H2852
    0.2655677979852982    0.9635783287804432    0.0170240312129842    H2853
    0.5989011313186314    0.2969116621137766    0.3503573645463176    H2854
    0.5989011313186314    0.2969116621137766    0.6836906978796509    H2855
    0.5989011313186314    0.2969116621137766    0.0170240312129842    H2856
    0.5989011313186314    0.6302449954471099    0.3503573645463176    H2857
    0.5989011313186314    0.6302449954471099    0.6836906978796509    H2858
    0.5989011313186314    0.6302449954471099    0.0170240312129842    H2859
    0.5989011313186314    0.9635783287804432    0.3503573645463176    H2860
    0.5989011313186314    0.9635783287804432    0.6836906978796509    H2861
    0.5989011313186314    0.9635783287804432    0.0170240312129842    H2862
    0.8590852478488662    0.2769999116622115    0.3810471042735489    H2863
    0.8590852478488662    0.2769999116622115    0.7143804376068823    H2864
    0.8590852478488662    0.2769999116622115    0.0477137709402156    H2865
    0.8590852478488662    0.6103332449955449    0.3810471042735489    H2866
    0.8590852478488662    0.6103332449955449    0.7143804376068823    H2867
    0.8590852478488662    0.6103332449955449    0.0477137709402156    H2868
    0.8590852478488662    0.9436665783288782    0.3810471042735489    H2869
    0.8590852478488662    0.9436665783288782    0.7143804376068823    H2870
    0.8590852478488662    0.9436665783288782    0.0477137709402156    H2871
    0.1924185811821996    0.2769999116622115    0.3810471042735489    H2872
    0.1924185811821996    0.2769999116622115    0.7143804376068823    H2873
    0.1924185811821996    0.2769999116622115    0.0477137709402156    H2874
    0.1924185811821996    0.6103332449955449    0.3810471042735489    H2875
    0.1924185811821996    0.6103332449955449    0.7143804376068823    H2876
    0.1924185811821996    0.6103332449955449    0.0477137709402156    H2877
    0.1924185811821996    0.9436665783288782    0.3810471042735489    H2878
    0.1924185811821996    0.9436665783288782    0.7143804376068823    H2879
    0.1924185811821996    0.9436665783288782    0.0477137709402156    H2880
    0.5257519145155329    0.2769999116622115    0.3810471042735489    H2881
    0.5257519145155329    0.2769999116622115    0.7143804376068823    H2882
    0.5257519145155329    0.2769999116622115    0.0477137709402156    H2883
    0.5257519145155329    0.6103332449955449    0.3810471042735489    H2884
    0.5257519145155329    0.6103332449955449    0.7143804376068823    H2885
    0.5257519145155329    0.6103332449955449    0.0477137709402156    H2886
    0.5257519145155329    0.9436665783288782    0.3810471042735489    H2887
    0.5257519145155329    0.9436665783288782    0.7143804376068823    H2888
    0.5257519145155329    0.9436665783288782    0.0477137709402156    H2889
    0.0762027685870836    0.2355574885649488    0.3125643205448894    H2890
    0.0762027685870836    0.2355574885649488    0.6458976538782227    H2891
    0.0762027685870836    0.2355574885649488    0.9792309872115560    H2892
    0.0762027685870836    0.5688908218982822    0.3125643205448894    H2893
    0.0762027685870836    0.5688908218982822    0.6458976538782227    H2894
    0.0762027685870836    0.5688908218982822    0.9792309872115560    H2895
    0.0762027685870836    0.9022241552316155    0.3125643205448894    H2896
    0.0762027685870836    0.9022241552316155    0.6458976538782227    H2897
    0.0762027685870836    0.9022241552316155    0.9792309872115560    H2898
    0.4095361019204170    0.2355574885649488    0.3125643205448894    H2899
    0.4095361019204170    0.2355574885649488    0.6458976538782227    H2900
    0.4095361019204170    0.2355574885649488    0.9792309872115560    H2901
    0.4095361019204170    0.5688908218982822    0.3125643205448894    H2902
    0.4095361019204170    0.5688908218982822    0.6458976538782227    H2903
    0.4095361019204170    0.5688908218982822    0.9792309872115560    H2904
    0.4095361019204170    0.9022241552316155    0.3125643205448894    H2905
    0.4095361019204170    0.9022241552316155    0.6458976538782227    H2906
    0.4095361019204170    0.9022241552316155    0.9792309872115560    H2907
    0.7428694352537504    0.2355574885649488    0.3125643205448894    H2908
    0.7428694352537504    0.2355574885649488    0.6458976538782227    H2909
    0.7428694352537504    0.2355574885649488    0.9792309872115560    H2910
    0.7428694352537504    0.5688908218982822    0.3125643205448894    H2911
    0.7428694352537504    0.5688908218982822    0.6458976538782227    H2912
    0.7428694352537504    0.5688908218982822    0.9792309872115560    H2913
    0.7428694352537504    0.9022241552316155    0.3125643205448894    H2914
    0.7428694352537504    0.9022241552316155    0.6458976538782227    H2915
    0.7428694352537504    0.9022241552316155    0.9792309872115560    H2916
    0.0720122592549547    0.3204028673380674    0.3895584403313869    H2917
    0.0720122592549547    0.3204028673380674    0.7228917736647202    H2918
    0.0720122592549547    0.3204028673380674    0.0562251069980535    H2919
    0.0720122592549547    0.6537362006714007    0.3895584403313869    H2920
    0.0720122592549547    0.6537362006714007    0.7228917736647202    H2921
    0.0720122592549547    0.6537362006714007    0.0562251069980535    H2922
    0.0720122592549547    0.9870695340047341    0.3895584403313869    H2923
    0.0720122592549547    0.9870695340047341    0.7228917736647202    H2924
    0.0720122592549547    0.9870695340047341    0.0562251069980535    H2925
    0.4053455925882881    0.3204028673380674    0.3895584403313869    H2926
    0.4053455925882881    0.3204028673380674    0.7228917736647202    H2927
    0.4053455925882881    0.3204028673380674    0.0562251069980535    H2928
    0.4053455925882881    0.6537362006714007    0.3895584403313869    H2929
    0.4053455925882881    0.6537362006714007    0.7228917736647202    H2930
    0.4053455925882881    0.6537362006714007    0.0562251069980535    H2931
    0.4053455925882881    0.9870695340047341    0.3895584403313869    H2932
    0.4053455925882881    0.9870695340047341    0.7228917736647202    H2933
    0.4053455925882881    0.9870695340047341    0.0562251069980535    H2934
    0.7386789259216213    0.3204028673380674    0.3895584403313869    H2935
    0.7386789259216213    0.3204028673380674    0.7228917736647202    H2936
    0.7386789259216213    0.3204028673380674    0.0562251069980535    H2937
    0.7386789259216213    0.6537362006714007    0.3895584403313869    H2938
    0.7386789259216213    0.6537362006714007    0.7228917736647202    H2939
    0.7386789259216213    0.6537362006714007    0.0562251069980535    H2940
    0.7386789259216213    0.9870695340047341    0.3895584403313869    H2941
    0.7386789259216213    0.9870695340047341    0.7228917736647202    H2942
    0.7386789259216213    0.9870695340047341    0.0562251069980535    H2943
    0.0961558773273919    0.3043736435188726    0.4562827889734468    H2944
    0.0961558773273919    0.3043736435188726    0.7896161223067801    H2945
    0.0961558773273919    0.3043736435188726    0.1229494556401134    H2946
    0.0961558773273919    0.6377069768522059    0.4562827889734468    H2947
    0.0961558773273919    0.6377069768522059    0.7896161223067801    H2948
    0.0961558773273919    0.6377069768522059    0.1229494556401134    H2949
    0.0961558773273919    0.9710403101855393    0.4562827889734468    H2950
    0.0961558773273919    0.9710403101855393    0.7896161223067801    H2951
    0.0961558773273919    0.9710403101855393    0.1229494556401134    H2952
    0.4294892106607253    0.3043736435188726    0.4562827889734468    H2953
    0.4294892106607253    0.3043736435188726    0.7896161223067801    H2954
    0.4294892106607253    0.3043736435188726    0.1229494556401134    H2955
    0.4294892106607253    0.6377069768522059    0.4562827889734468    H2956
    0.4294892106607253    0.6377069768522059    0.7896161223067801    H2957
    0.4294892106607253    0.6377069768522059    0.1229494556401134    H2958
    0.4294892106607253    0.9710403101855393    0.4562827889734468    H2959
    0.4294892106607253    0.9710403101855393    0.7896161223067801    H2960
    0.4294892106607253    0.9710403101855393    0.1229494556401134    H2961
    0.7628225439940586    0.3043736435188726    0.4562827889734468    H2962
    0.7628225439940586    0.3043736435188726    0.7896161223067801    H2963
    0.7628225439940586    0.3043736435188726    0.1229494556401134    H2964
    0.7628225439940586    0.6377069768522059    0.4562827889734468    H2965
    0.7628225439940586    0.6377069768522059    0.7896161223067801    H2966
    0.7628225439940586    0.6377069768522059    0.1229494556401134    H2967
    0.7628225439940586    0.9710403101855393    0.4562827889734468    H2968
    0.7628225439940586    0.9710403101855393    0.7896161223067801    H2969
    0.7628225439940586    0.9710403101855393    0.1229494556401134    H2970
    0.0897209318609049    0.2178806441104466    0.3479444089665941    H2971
    0.0897209318609049    0.2178806441104466    0.6812777422999274    H2972
    0.0897209318609049    0.2178806441104466    0.0146110756332607    H2973
    0.0897209318609049    0.5512139774437799    0.3479444089665941    H2974
    0.0897209318609049    0.5512139774437799    0.6812777422999274    H2975
    0.0897209318609049    0.5512139774437799    0.0146110756332607    H2976
    0.0897209318609049    0.8845473107771132    0.3479444089665941    H2977
    0.0897209318609049    0.8845473107771132    0.6812777422999274    H2978
    0.0897209318609049    0.8845473107771132    0.0146110756332607    H2979
    0.4230542651942382    0.2178806441104466    0.3479444089665941    H2980
    0.4230542651942382    0.2178806441104466    0.6812777422999274    H2981
    0.4230542651942382    0.2178806441104466    0.0146110756332607    H2982
    0.4230542651942382    0.5512139774437799    0.3479444089665941    H2983
    0.4230542651942382    0.5512139774437799    0.6812777422999274    H2984
    0.4230542651942382    0.5512139774437799    0.0146110756332607    H2985
    0.4230542651942382    0.8845473107771132    0.3479444089665941    H2986
    0.4230542651942382    0.8845473107771132    0.6812777422999274    H2987
    0.4230542651942382    0.8845473107771132    0.0146110756332607    H2988
    0.7563875985275714    0.2178806441104466    0.3479444089665941    H2989
    0.7563875985275714    0.2178806441104466    0.6812777422999274    H2990
    0.7563875985275714    0.2178806441104466    0.0146110756332607    H2991
    0.7563875985275714    0.5512139774437799    0.3479444089665941    H2992
    0.7563875985275714    0.5512139774437799    0.6812777422999274    H2993
    0.7563875985275714    0.5512139774437799    0.0146110756332607    H2994
    0.7563875985275714    0.8845473107771132    0.3479444089665941    H2995
    0.7563875985275714    0.8845473107771132    0.6812777422999274    H2996
    0.7563875985275714    0.8845473107771132    0.0146110756332607    H2997
    0.8951956085920869    0.2514371979788325    0.3709406303258480    H2998
    0.8951956085920869    0.2514371979788325    0.7042739636591814    H2999
    0.8951956085920869    0.2514371979788325    0.0376072969925147    H3000
    0.8951956085920869    0.5847705313121658    0.3709406303258480    H3001
    0.8951956085920869    0.5847705313121658    0.7042739636591814    H3002
    0.8951956085920869    0.5847705313121658    0.0376072969925147    H3003
    0.8951956085920869    0.9181038646454991    0.3709406303258480    H3004
    0.8951956085920869    0.9181038646454991    0.7042739636591814    H3005
    0.8951956085920869    0.9181038646454991    0.0376072969925147    H3006
    0.2285289419254202    0.2514371979788325    0.3709406303258480    H3007
    0.2285289419254202    0.2514371979788325    0.7042739636591814    H3008
    0.2285289419254202    0.2514371979788325    0.0376072969925147    H3009
    0.2285289419254202    0.5847705313121658    0.3709406303258480    H3010
    0.2285289419254202    0.5847705313121658    0.7042739636591814    H3011
    0.2285289419254202    0.5847705313121658    0.0376072969925147    H3012
    0.2285289419254202    0.9181038646454991    0.3709406303258480    H3013
    0.2285289419254202    0.9181038646454991    0.7042739636591814    H3014
    0.2285289419254202    0.9181038646454991    0.0376072969925147    H3015
    0.5618622752587535    0.2514371979788325    0.3709406303258480    H3016
    0.5618622752587535    0.2514371979788325    0.7042739636591814    H3017
    0.5618622752587535    0.2514371979788325    0.0376072969925147    H3018
    0.5618622752587535    0.5847705313121658    0.3709406303258480    H3019
    0.5618622752587535    0.5847705313121658    0.7042739636591814    H3020
    0.5618622752587535    0.5847705313121658    0.0376072969925147    H3021
    0.5618622752587535    0.9181038646454991    0.3709406303258480    H3022
    0.5618622752587535    0.9181038646454991    0.7042739636591814    H3023
    0.5618622752587535    0.9181038646454991    0.0376072969925147    H3024
    0.0392701583593279    0.2212125034681152    0.5238102906326841    H3025
    0.0392701583593279    0.2212125034681152    0.8571436239660175    H3026
    0.0392701583593279    0.2212125034681152    0.1904769572993508    H3027
    0.0392701583593279    0.5545458368014485    0.5238102906326841    H3028
    0.0392701583593279    0.5545458368014485    0.8571436239660175    H3029
    0.0392701583593279    0.5545458368014485    0.1904769572993508    H3030
    0.0392701583593279    0.8878791701347818    0.5238102906326841    H3031
    0.0392701583593279    0.8878791701347818    0.8571436239660175    H3032
    0.0392701583593279    0.8878791701347818    0.1904769572993508    H3033
    0.3726034916926613    0.2212125034681152    0.5238102906326841    H3034
    0.3726034916926613    0.2212125034681152    0.8571436239660175    H3035
    0.3726034916926613    0.2212125034681152    0.1904769572993508    H3036
    0.3726034916926613    0.5545458368014485    0.5238102906326841    H3037
    0.3726034916926613    0.5545458368014485    0.8571436239660175    H3038
    0.3726034916926613    0.5545458368014485    0.1904769572993508    H3039
    0.3726034916926613    0.8878791701347818    0.5238102906326841    H3040
    0.3726034916926613    0.8878791701347818    0.8571436239660175    H3041
    0.3726034916926613    0.8878791701347818    0.1904769572993508    H3042
    0.7059368250259946    0.2212125034681152    0.5238102906326841    H3043
    0.7059368250259946    0.2212125034681152    0.8571436239660175    H3044
    0.7059368250259946    0.2212125034681152    0.1904769572993508    H3045
    0.7059368250259946    0.5545458368014485    0.5238102906326841    H3046
    0.7059368250259946    0.5545458368014485    0.8571436239660175    H3047
    0.7059368250259946    0.5545458368014485    0.1904769572993508    H3048
    0.7059368250259946    0.8878791701347818    0.5238102906326841    H3049
    0.7059368250259946    0.8878791701347818    0.8571436239660175    H3050
    0.7059368250259946    0.8878791701347818    0.1904769572993508    H3051
    0.1793035309789757    0.1487127443546891    0.2328246215994858    H3052
    0.1793035309789757    0.1487127443546891    0.5661579549328191    H3053
    0.1793035309789757    0.1487127443546891    0.8994912882661523    H3054
    0.1793035309789757    0.4820460776880224    0.2328246215994858    H3055
    0.1793035309789757    0.4820460776880224    0.5661579549328191    H3056
    0.1793035309789757    0.4820460776880224    0.8994912882661523    H3057
    0.1793035309789757    0.8153794110213557    0.2328246215994858    H3058
    0.1793035309789757    0.8153794110213557    0.5661579549328191    H3059
    0.1793035309789757    0.8153794110213557    0.8994912882661523    H3060
    0.5126368643123089    0.1487127443546891    0.2328246215994858    H3061
    0.5126368643123089    0.1487127443546891    0.5661579549328191    H3062
    0.5126368643123089    0.1487127443546891    0.8994912882661523    H3063
    0.5126368643123089    0.4820460776880224    0.2328246215994858    H3064
    0.5126368643123089    0.4820460776880224    0.5661579549328191    H3065
    0.5126368643123089    0.4820460776880224    0.8994912882661523    H3066
    0.5126368643123089    0.8153794110213557    0.2328246215994858    H3067
    0.5126368643123089    0.8153794110213557    0.5661579549328191    H3068
    0.5126368643123089    0.8153794110213557    0.8994912882661523    H3069
    0.8459701976456423    0.1487127443546891    0.2328246215994858    H3070
    0.8459701976456423    0.1487127443546891    0.5661579549328191    H3071
    0.8459701976456423    0.1487127443546891    0.8994912882661523    H3072
    0.8459701976456423    0.4820460776880224    0.2328246215994858    H3073
    0.8459701976456423    0.4820460776880224    0.5661579549328191    H3074
    0.8459701976456423    0.4820460776880224    0.8994912882661523    H3075
    0.8459701976456423    0.8153794110213557    0.2328246215994858    H3076
    0.8459701976456423    0.8153794110213557    0.5661579549328191    H3077
    0.8459701976456423    0.8153794110213557    0.8994912882661523    H3078
    0.1428063980308707    0.1050309905001556    0.4083682257055101    H3079
    0.1428063980308707    0.1050309905001556    0.7417015590388434    H3080
    0.1428063980308707    0.1050309905001556    0.0750348923721767    H3081
    0.1428063980308707    0.4383643238334889    0.4083682257055101    H3082
    0.1428063980308707    0.4383643238334889    0.7417015590388434    H3083
    0.1428063980308707    0.4383643238334889    0.0750348923721767    H3084
    0.1428063980308707    0.7716976571668223    0.4083682257055101    H3085
    0.1428063980308707    0.7716976571668223    0.7417015590388434    H3086
    0.1428063980308707    0.7716976571668223    0.0750348923721767    H3087
    0.4761397313642041    0.1050309905001556    0.4083682257055101    H3088
    0.4761397313642041    0.1050309905001556    0.7417015590388434    H3089
    0.4761397313642041    0.1050309905001556    0.0750348923721767    H3090
    0.4761397313642041    0.4383643238334889    0.4083682257055101    H3091
    0.4761397313642041    0.4383643238334889    0.7417015590388434    H3092
    0.4761397313642041    0.4383643238334889    0.0750348923721767    H3093
    0.4761397313642041    0.7716976571668223    0.4083682257055101    H3094
    0.4761397313642041    0.7716976571668223    0.7417015590388434    H3095
    0.4761397313642041    0.7716976571668223    0.0750348923721767    H3096
    0.8094730646975373    0.1050309905001556    0.4083682257055101    H3097
    0.8094730646975373    0.1050309905001556    0.7417015590388434    H3098
    0.8094730646975373    0.1050309905001556    0.0750348923721767    H3099
    0.8094730646975373    0.4383643238334889    0.4083682257055101    H3100
    0.8094730646975373    0.4383643238334889    0.7417015590388434    H3101
    0.8094730646975373    0.4383643238334889    0.0750348923721767    H3102
    0.8094730646975373    0.7716976571668223    0.4083682257055101    H3103
    0.8094730646975373    0.7716976571668223    0.7417015590388434    H3104
    0.8094730646975373    0.7716976571668223    0.0750348923721767    H3105
    0.1916694732052336    0.1216742079970476    0.2838065026887422    H3106
    0.1916694732052336    0.1216742079970476    0.6171398360220754    H3107
    0.1916694732052336    0.1216742079970476    0.9504731693554088    H3108
    0.1916694732052336    0.4550075413303810    0.2838065026887422    H3109
    0.1916694732052336    0.4550075413303810    0.6171398360220754    H3110
    0.1916694732052336    0.4550075413303810    0.9504731693554088    H3111
    0.1916694732052336    0.7883408746637143    0.2838065026887422    H3112
    0.1916694732052336    0.7883408746637143    0.6171398360220754    H3113
    0.1916694732052336    0.7883408746637143    0.9504731693554088    H3114
    0.5250028065385670    0.1216742079970476    0.2838065026887422    H3115
    0.5250028065385670    0.1216742079970476    0.6171398360220754    H3116
    0.5250028065385670    0.1216742079970476    0.9504731693554088    H3117
    0.5250028065385670    0.4550075413303810    0.2838065026887422    H3118
    0.5250028065385670    0.4550075413303810    0.6171398360220754    H3119
    0.5250028065385670    0.4550075413303810    0.9504731693554088    H3120
    0.5250028065385670    0.7883408746637143    0.2838065026887422    H3121
    0.5250028065385670    0.7883408746637143    0.6171398360220754    H3122
    0.5250028065385670    0.7883408746637143    0.9504731693554088    H3123
    0.8583361398719003    0.1216742079970476    0.2838065026887422    H3124
    0.8583361398719003    0.1216742079970476    0.6171398360220754    H3125
    0.8583361398719003    0.1216742079970476    0.9504731693554088    H3126
    0.8583361398719003    0.4550075413303810    0.2838065026887422    H3127
    0.8583361398719003    0.4550075413303810    0.6171398360220754    H3128
    0.8583361398719003    0.4550075413303810    0.9504731693554088    H3129
    0.8583361398719003    0.7883408746637143    0.2838065026887422    H3130
    0.8583361398719003    0.7883408746637143    0.6171398360220754    H3131
    0.8583361398719003    0.7883408746637143    0.9504731693554088    H3132
    0.1503394559657352    0.4127106466618450    0.2513440495803401    H3133
    0.1503394559657352    0.4127106466618450    0.5846773829136733    H3134
    0.1503394559657352    0.4127106466618450    0.9180107162470066    H3135
    0.1503394559657352    0.7460439799951784    0.2513440495803401    H3136
    0.1503394559657352    0.7460439799951784    0.5846773829136733    H3137
    0.1503394559657352    0.7460439799951784    0.9180107162470066    H3138
    0.1503394559657352    0.0793773133285116    0.2513440495803401    H3139
    0.1503394559657352    0.0793773133285116    0.5846773829136733    H3140
    0.1503394559657352    0.0793773133285116    0.9180107162470066    H3141
    0.4836727892990685    0.4127106466618450    0.2513440495803401    H3142
    0.4836727892990685    0.4127106466618450    0.5846773829136733    H3143
    0.4836727892990685    0.4127106466618450    0.9180107162470066    H3144
    0.4836727892990685    0.7460439799951784    0.2513440495803401    H3145
    0.4836727892990685    0.7460439799951784    0.5846773829136733    H3146
    0.4836727892990685    0.7460439799951784    0.9180107162470066    H3147
    0.4836727892990685    0.0793773133285116    0.2513440495803401    H3148
    0.4836727892990685    0.0793773133285116    0.5846773829136733    H3149
    0.4836727892990685    0.0793773133285116    0.9180107162470066    H3150
    0.8170061226324019    0.4127106466618450    0.2513440495803401    H3151
    0.8170061226324019    0.4127106466618450    0.5846773829136733    H3152
    0.8170061226324019    0.4127106466618450    0.9180107162470066    H3153
    0.8170061226324019    0.7460439799951784    0.2513440495803401    H3154
    0.8170061226324019    0.7460439799951784    0.5846773829136733    H3155
    0.8170061226324019    0.7460439799951784    0.9180107162470066    H3156
    0.8170061226324019    0.0793773133285116    0.2513440495803401    H3157
    0.8170061226324019    0.0793773133285116    0.5846773829136733    H3158
    0.8170061226324019    0.0793773133285116    0.9180107162470066    H3159
    0.1758594772763818    0.3410166975977557    0.2477388098522268    H3160
    0.1758594772763818    0.3410166975977557    0.5810721431855601    H3161
    0.1758594772763818    0.3410166975977557    0.9144054765188934    H3162
    0.1758594772763818    0.6743500309310890    0.2477388098522268    H3163
    0.1758594772763818    0.6743500309310890    0.5810721431855601    H3164
    0.1758594772763818    0.6743500309310890    0.9144054765188934    H3165
    0.1758594772763818    0.0076833642644223    0.2477388098522268    H3166
    0.1758594772763818    0.0076833642644223    0.5810721431855601    H3167
    0.1758594772763818    0.0076833642644223    0.9144054765188934    H3168
    0.5091928106097152    0.3410166975977557    0.2477388098522268    H3169
    0.5091928106097152    0.3410166975977557    0.5810721431855601    H3170
    0.5091928106097152    0.3410166975977557    0.9144054765188934    H3171
    0.5091928106097152    0.6743500309310890    0.2477388098522268    H3172
    0.5091928106097152    0.6743500309310890    0.5810721431855601    H3173
    0.5091928106097152    0.6743500309310890    0.9144054765188934    H3174
    0.5091928106097152    0.0076833642644223    0.2477388098522268    H3175
    0.5091928106097152    0.0076833642644223    0.5810721431855601    H3176
    0.5091928106097152    0.0076833642644223    0.9144054765188934    H3177
    0.8425261439430485    0.3410166975977557    0.2477388098522268    H3178
    0.8425261439430485    0.3410166975977557    0.5810721431855601    H3179
    0.8425261439430485    0.3410166975977557    0.9144054765188934    H3180
    0.8425261439430485    0.6743500309310890    0.2477388098522268    H3181
    0.8425261439430485    0.6743500309310890    0.5810721431855601    H3182
    0.8425261439430485    0.6743500309310890    0.9144054765188934    H3183
    0.8425261439430485    0.0076833642644223    0.2477388098522268    H3184
    0.8425261439430485    0.0076833642644223    0.5810721431855601    H3185
    0.8425261439430485    0.0076833642644223    0.9144054765188934    H3186
    0.2286450457790090    0.2288617975522522    0.5043014570660032    H3187
    0.2286450457790090    0.2288617975522522    0.8376347903993365    H3188
    0.2286450457790090    0.2288617975522522    0.1709681237326698    H3189
    0.2286450457790090    0.5621951308855855    0.5043014570660032    H3190
    0.2286450457790090    0.5621951308855855    0.8376347903993365    H3191
    0.2286450457790090    0.5621951308855855    0.1709681237326698    H3192
    0.2286450457790090    0.8955284642189187    0.5043014570660032    H3193
    0.2286450457790090    0.8955284642189187    0.8376347903993365    H3194
    0.2286450457790090    0.8955284642189187    0.1709681237326698    H3195
    0.5619783791123423    0.2288617975522522    0.5043014570660032    H3196
    0.5619783791123423    0.2288617975522522    0.8376347903993365    H3197
    0.5619783791123423    0.2288617975522522    0.1709681237326698    H3198
    0.5619783791123423    0.5621951308855855    0.5043014570660032    H3199
    0.5619783791123423    0.5621951308855855    0.8376347903993365    H3200
    0.5619783791123423    0.5621951308855855    0.1709681237326698    H3201
    0.5619783791123423    0.8955284642189187    0.5043014570660032    H3202
    0.5619783791123423    0.8955284642189187    0.8376347903993365    H3203
    0.5619783791123423    0.8955284642189187    0.1709681237326698    H3204
    0.8953117124456755    0.2288617975522522    0.5043014570660032    H3205
    0.8953117124456755    0.2288617975522522    0.8376347903993365    H3206
    0.8953117124456755    0.2288617975522522    0.1709681237326698    H3207
    0.8953117124456755    0.5621951308855855    0.5043014570660032    H3208
    0.8953117124456755    0.5621951308855855    0.8376347903993365    H3209
    0.8953117124456755    0.5621951308855855    0.1709681237326698    H3210
    0.8953117124456755    0.8955284642189187    0.5043014570660032    H3211
    0.8953117124456755    0.8955284642189187    0.8376347903993365    H3212
    0.8953117124456755    0.8955284642189187    0.1709681237326698    H3213
    0.2055211532569405    0.1859118691106827    0.4393704215380592    H3214
    0.2055211532569405    0.1859118691106827    0.7727037548713924    H3215
    0.2055211532569405    0.1859118691106827    0.1060370882047258    H3216
    0.2055211532569405    0.5192452024440161    0.4393704215380592    H3217
    0.2055211532569405    0.5192452024440161    0.7727037548713924    H3218
    0.2055211532569405    0.5192452024440161    0.1060370882047258    H3219
    0.2055211532569405    0.8525785357773494    0.4393704215380592    H3220
    0.2055211532569405    0.8525785357773494    0.7727037548713924    H3221
    0.2055211532569405    0.8525785357773494    0.1060370882047258    H3222
    0.5388544865902738    0.1859118691106827    0.4393704215380592    H3223
    0.5388544865902738    0.1859118691106827    0.7727037548713924    H3224
    0.5388544865902738    0.1859118691106827    0.1060370882047258    H3225
    0.5388544865902738    0.5192452024440161    0.4393704215380592    H3226
    0.5388544865902738    0.5192452024440161    0.7727037548713924    H3227
    0.5388544865902738    0.5192452024440161    0.1060370882047258    H3228
    0.5388544865902738    0.8525785357773494    0.4393704215380592    H3229
    0.5388544865902738    0.8525785357773494    0.7727037548713924    H3230
    0.5388544865902738    0.8525785357773494    0.1060370882047258    H3231
    0.8721878199236072    0.1859118691106827    0.4393704215380592    H3232
    0.8721878199236072    0.1859118691106827    0.7727037548713924    H3233
    0.8721878199236072    0.1859118691106827    0.1060370882047258    H3234
    0.8721878199236072    0.5192452024440161    0.4393704215380592    H3235
    0.8721878199236072    0.5192452024440161    0.7727037548713924    H3236
    0.8721878199236072    0.5192452024440161    0.1060370882047258    H3237
    0.8721878199236072    0.8525785357773494    0.4393704215380592    H3238
    0.8721878199236072    0.8525785357773494    0.7727037548713924    H3239
    0.8721878199236072    0.8525785357773494    0.1060370882047258    H3240
    0.2013959172825097    0.0732116588715911    0.3880791779276300    H3241
    0.2013959172825097    0.0732116588715911    0.7214125112609633    H3242
    0.2013959172825097    0.0732116588715911    0.0547458445942966    H3243
    0.2013959172825097    0.4065449922049245    0.3880791779276300    H3244
    0.2013959172825097    0.4065449922049245    0.7214125112609633    H3245
    0.2013959172825097    0.4065449922049245    0.0547458445942966    H3246
    0.2013959172825097    0.7398783255382577    0.3880791779276300    H3247
    0.2013959172825097    0.7398783255382577    0.7214125112609633    H3248
    0.2013959172825097    0.7398783255382577    0.0547458445942966    H3249
    0.5347292506158431    0.0732116588715911    0.3880791779276300    H3250
    0.5347292506158431    0.0732116588715911    0.7214125112609633    H3251
    0.5347292506158431    0.0732116588715911    0.0547458445942966    H3252
    0.5347292506158431    0.4065449922049245    0.3880791779276300    H3253
    0.5347292506158431    0.4065449922049245    0.7214125112609633    H3254
    0.5347292506158431    0.4065449922049245    0.0547458445942966    H3255
    0.5347292506158431    0.7398783255382577    0.3880791779276300    H3256
    0.5347292506158431    0.7398783255382577    0.7214125112609633    H3257
    0.5347292506158431    0.7398783255382577    0.0547458445942966    H3258
    0.8680625839491763    0.0732116588715911    0.3880791779276300    H3259
    0.8680625839491763    0.0732116588715911    0.7214125112609633    H3260
    0.8680625839491763    0.0732116588715911    0.0547458445942966    H3261
    0.8680625839491763    0.4065449922049245    0.3880791779276300    H3262
    0.8680625839491763    0.4065449922049245    0.7214125112609633    H3263
    0.8680625839491763    0.4065449922049245    0.0547458445942966    H3264
    0.8680625839491763    0.7398783255382577    0.3880791779276300    H3265
    0.8680625839491763    0.7398783255382577    0.7214125112609633    H3266
    0.8680625839491763    0.7398783255382577    0.0547458445942966    H3267
    0.1671460890503413    0.0824504992150435    0.5465446436153736    H3268
    0.1671460890503413    0.0824504992150435    0.8798779769487068    H3269
    0.1671460890503413    0.0824504992150435    0.2132113102820402    H3270
    0.1671460890503413    0.4157838325483768    0.5465446436153736    H3271
    0.1671460890503413    0.4157838325483768    0.8798779769487068    H3272
    0.1671460890503413    0.4157838325483768    0.2132113102820402    H3273
    0.1671460890503413    0.7491171658817102    0.5465446436153736    H3274
    0.1671460890503413    0.7491171658817102    0.8798779769487068    H3275
    0.1671460890503413    0.7491171658817102    0.2132113102820402    H3276
    0.5004794223836746    0.0824504992150435    0.5465446436153736    H3277
    0.5004794223836746    0.0824504992150435    0.8798779769487068    H3278
    0.5004794223836746    0.0824504992150435    0.2132113102820402    H3279
    0.5004794223836746    0.4157838325483768    0.5465446436153736    H3280
    0.5004794223836746    0.4157838325483768    0.8798779769487068    H3281
    0.5004794223836746    0.4157838325483768    0.2132113102820402    H3282
    0.5004794223836746    0.7491171658817102    0.5465446436153736    H3283
    0.5004794223836746    0.7491171658817102    0.8798779769487068    H3284
    0.5004794223836746    0.7491171658817102    0.2132113102820402    H3285
    0.8338127557170080    0.0824504992150435    0.5465446436153736    H3286
    0.8338127557170080    0.0824504992150435    0.8798779769487068    H3287
    0.8338127557170080    0.0824504992150435    0.2132113102820402    H3288
    0.8338127557170080    0.4157838325483768    0.5465446436153736    H3289
    0.8338127557170080    0.4157838325483768    0.8798779769487068    H3290
    0.8338127557170080    0.4157838325483768    0.2132113102820402    H3291
    0.8338127557170080    0.7491171658817102    0.5465446436153736    H3292
    0.8338127557170080    0.7491171658817102    0.8798779769487068    H3293
    0.8338127557170080    0.7491171658817102    0.2132113102820402    H3294
    0.1868339058702799    0.3848656072680364    0.2659031361668015    H3295
    0.1868339058702799    0.3848656072680364    0.5992364695001349    H3296
    0.1868339058702799    0.3848656072680364    0.9325698028334681    H3297
    0.1868339058702799    0.7181989406013698    0.2659031361668015    H3298
    0.1868339058702799    0.7181989406013698    0.5992364695001349    H3299
    0.1868339058702799    0.7181989406013698    0.9325698028334681    H3300
    0.1868339058702799    0.0515322739347031    0.2659031361668015    H3301
    0.1868339058702799    0.0515322739347031    0.5992364695001349    H3302
    0.1868339058702799    0.0515322739347031    0.9325698028334681    H3303
    0.5201672392036133    0.3848656072680364    0.2659031361668015    H3304
    0.5201672392036133    0.3848656072680364    0.5992364695001349    H3305
    0.5201672392036133    0.3848656072680364    0.9325698028334681    H3306
    0.5201672392036133    0.7181989406013698    0.2659031361668015    H3307
    0.5201672392036133    0.7181989406013698    0.5992364695001349    H3308
    0.5201672392036133    0.7181989406013698    0.9325698028334681    H3309
    0.5201672392036133    0.0515322739347031    0.2659031361668015    H3310
    0.5201672392036133    0.0515322739347031    0.5992364695001349    H3311
    0.5201672392036133    0.0515322739347031    0.9325698028334681    H3312
    0.8535005725369467    0.3848656072680364    0.2659031361668015    H3313
    0.8535005725369467    0.3848656072680364    0.5992364695001349    H3314
    0.8535005725369467    0.3848656072680364    0.9325698028334681    H3315
    0.8535005725369467    0.7181989406013698    0.2659031361668015    H3316
    0.8535005725369467    0.7181989406013698    0.5992364695001349    H3317
    0.8535005725369467    0.7181989406013698    0.9325698028334681    H3318
    0.8535005725369467    0.0515322739347031    0.2659031361668015    H3319
    0.8535005725369467    0.0515322739347031    0.5992364695001349    H3320
    0.8535005725369467    0.0515322739347031    0.9325698028334681    H3321
    0.1824060033006891    0.4312439241533074    0.4690254254690565    H3322
    0.1824060033006891    0.4312439241533074    0.8023587588023897    H3323
    0.1824060033006891    0.4312439241533074    0.1356920921357230    H3324
    0.1824060033006891    0.7645772574866407    0.4690254254690565    H3325
    0.1824060033006891    0.7645772574866407    0.8023587588023897    H3326
    0.1824060033006891    0.7645772574866407    0.1356920921357230    H3327
    0.1824060033006891    0.0979105908199740    0.4690254254690565    H3328
    0.1824060033006891    0.0979105908199740    0.8023587588023897    H3329
    0.1824060033006891    0.0979105908199740    0.1356920921357230    H3330
    0.5157393366340224    0.4312439241533074    0.4690254254690565    H3331
    0.5157393366340224    0.4312439241533074    0.8023587588023897    H3332
    0.5157393366340224    0.4312439241533074    0.1356920921357230    H3333
    0.5157393366340224    0.7645772574866407    0.4690254254690565    H3334
    0.5157393366340224    0.7645772574866407    0.8023587588023897    H3335
    0.5157393366340224    0.7645772574866407    0.1356920921357230    H3336
    0.5157393366340224    0.0979105908199740    0.4690254254690565    H3337
    0.5157393366340224    0.0979105908199740    0.8023587588023897    H3338
    0.5157393366340224    0.0979105908199740    0.1356920921357230    H3339
    0.8490726699673558    0.4312439241533074    0.4690254254690565    H3340
    0.8490726699673558    0.4312439241533074    0.8023587588023897    H3341
    0.8490726699673558    0.4312439241533074    0.1356920921357230    H3342
    0.8490726699673558    0.7645772574866407    0.4690254254690565    H3343
    0.8490726699673558    0.7645772574866407    0.8023587588023897    H3344
    0.8490726699673558    0.7645772574866407    0.1356920921357230    H3345
    0.8490726699673558    0.0979105908199740    0.4690254254690565    H3346
    0.8490726699673558    0.0979105908199740    0.8023587588023897    H3347
    0.8490726699673558    0.0979105908199740    0.1356920921357230    H3348
    0.8129087612342791    0.1988399873792054    0.3134940891020392    H3349
    0.8129087612342791    0.1988399873792054    0.6468274224353725    H3350
    0.8129087612342791    0.1988399873792054    0.9801607557687058    H3351
    0.8129087612342791    0.5321733207125388    0.3134940891020392    H3352
    0.8129087612342791    0.5321733207125388    0.6468274224353725    H3353
    0.8129087612342791    0.5321733207125388    0.9801607557687058    H3354
    0.8129087612342791    0.8655066540458720    0.3134940891020392    H3355
    0.8129087612342791    0.8655066540458720    0.6468274224353725    H3356
    0.8129087612342791    0.8655066540458720    0.9801607557687058    H3357
    0.1462420945676124    0.1988399873792054    0.3134940891020392    H3358
    0.1462420945676124    0.1988399873792054    0.6468274224353725    H3359
    0.1462420945676124    0.1988399873792054    0.9801607557687058    H3360
    0.1462420945676124    0.5321733207125388    0.3134940891020392    H3361
    0.1462420945676124    0.5321733207125388    0.6468274224353725    H3362
    0.1462420945676124    0.5321733207125388    0.9801607557687058    H3363
    0.1462420945676124    0.8655066540458720    0.3134940891020392    H3364
    0.1462420945676124    0.8655066540458720    0.6468274224353725    H3365
    0.1462420945676124    0.8655066540458720    0.9801607557687058    H3366
    0.4795754279009458    0.1988399873792054    0.3134940891020392    H3367
    0.4795754279009458    0.1988399873792054    0.6468274224353725    H3368
    0.4795754279009458    0.1988399873792054    0.9801607557687058    H3369
    0.4795754279009458    0.5321733207125388    0.3134940891020392    H3370
    0.4795754279009458    0.5321733207125388    0.6468274224353725    H3371
    0.4795754279009458    0.5321733207125388    0.9801607557687058    H3372
    0.4795754279009458    0.8655066540458720    0.3134940891020392    H3373
    0.4795754279009458    0.8655066540458720    0.6468274224353725    H3374
    0.4795754279009458    0.8655066540458720    0.9801607557687058    H3375
    0.0002344080467309    0.2494640461270645    0.3580750399166887    H3376
    0.0002344080467309    0.2494640461270645    0.6914083732500220    H3377
    0.0002344080467309    0.2494640461270645    0.0247417065833553    H3378
    0.0002344080467309    0.5827973794603979    0.3580750399166887    H3379
    0.0002344080467309    0.5827973794603979    0.6914083732500220    H3380
    0.0002344080467309    0.5827973794603979    0.0247417065833553    H3381
    0.0002344080467309    0.9161307127937312    0.3580750399166887    H3382
    0.0002344080467309    0.9161307127937312    0.6914083732500220    H3383
    0.0002344080467309    0.9161307127937312    0.0247417065833553    H3384
    0.3335677413800643    0.2494640461270645    0.3580750399166887    H3385
    0.3335677413800643    0.2494640461270645    0.6914083732500220    H3386
    0.3335677413800643    0.2494640461270645    0.0247417065833553    H3387
    0.3335677413800643    0.5827973794603979    0.3580750399166887    H3388
    0.3335677413800643    0.5827973794603979    0.6914083732500220    H3389
    0.3335677413800643    0.5827973794603979    0.0247417065833553    H3390
    0.3335677413800643    0.9161307127937312    0.3580750399166887    H3391
    0.3335677413800643    0.9161307127937312    0.6914083732500220    H3392
    0.3335677413800643    0.9161307127937312    0.0247417065833553    H3393
    0.6669010747133977    0.2494640461270645    0.3580750399166887    H3394
    0.6669010747133977    0.2494640461270645    0.6914083732500220    H3395
    0.6669010747133977    0.2494640461270645    0.0247417065833553    H3396
    0.6669010747133977    0.5827973794603979    0.3580750399166887    H3397
    0.6669010747133977    0.5827973794603979    0.6914083732500220    H3398
    0.6669010747133977    0.5827973794603979    0.0247417065833553    H3399
    0.6669010747133977    0.9161307127937312    0.3580750399166887    H3400
    0.6669010747133977    0.9161307127937312    0.6914083732500220    H3401
    0.6669010747133977    0.9161307127937312    0.0247417065833553    H3402
    0.9433371647023718    0.3329532979500861    0.2200465582545273    H3403
    0.9433371647023718    0.3329532979500861    0.5533798915878607    H3404
    0.9433371647023718    0.3329532979500861    0.8867132249211940    H3405
    0.9433371647023718    0.6662866312834195    0.2200465582545273    H3406
    0.9433371647023718    0.6662866312834195    0.5533798915878607    H3407
    0.9433371647023718    0.6662866312834195    0.8867132249211940    H3408
    0.9433371647023718    0.9996199646167527    0.2200465582545273    H3409
    0.9433371647023718    0.9996199646167527    0.5533798915878607    H3410
    0.9433371647023718    0.9996199646167527    0.8867132249211940    H3411
    0.2766704980357052    0.3329532979500861    0.2200465582545273    H3412
    0.2766704980357052    0.3329532979500861    0.5533798915878607    H3413
    0.2766704980357052    0.3329532979500861    0.8867132249211940    H3414
    0.2766704980357052    0.6662866312834195    0.2200465582545273    H3415
    0.2766704980357052    0.6662866312834195    0.5533798915878607    H3416
    0.2766704980357052    0.6662866312834195    0.8867132249211940    H3417
    0.2766704980357052    0.9996199646167527    0.2200465582545273    H3418
    0.2766704980357052    0.9996199646167527    0.5533798915878607    H3419
    0.2766704980357052    0.9996199646167527    0.8867132249211940    H3420
    0.6100038313690386    0.3329532979500861    0.2200465582545273    H3421
    0.6100038313690386    0.3329532979500861    0.5533798915878607    H3422
    0.6100038313690386    0.3329532979500861    0.8867132249211940    H3423
    0.6100038313690386    0.6662866312834195    0.2200465582545273    H3424
    0.6100038313690386    0.6662866312834195    0.5533798915878607    H3425
    0.6100038313690386    0.6662866312834195    0.8867132249211940    H3426
    0.6100038313690386    0.9996199646167527    0.2200465582545273    H3427
    0.6100038313690386    0.9996199646167527    0.5533798915878607    H3428
    0.6100038313690386    0.9996199646167527    0.8867132249211940    H3429
    0.9837171693327122    0.2367764933735226    0.1279483758341742    H3430
    0.9837171693327122    0.2367764933735226    0.4612817091675074    H3431
    0.9837171693327122    0.2367764933735226    0.7946150425008408    H3432
    0.9837171693327122    0.5701098267068558    0.1279483758341742    H3433
    0.9837171693327122    0.5701098267068558    0.4612817091675074    H3434
    0.9837171693327122    0.5701098267068558    0.7946150425008408    H3435
    0.9837171693327122    0.9034431600401891    0.1279483758341742    H3436
    0.9837171693327122    0.9034431600401891    0.4612817091675074    H3437
    0.9837171693327122    0.9034431600401891    0.7946150425008408    H3438
    0.3170505026660456    0.2367764933735226    0.1279483758341742    H3439
    0.3170505026660456    0.2367764933735226    0.4612817091675074    H3440
    0.3170505026660456    0.2367764933735226    0.7946150425008408    H3441
    0.3170505026660456    0.5701098267068558    0.1279483758341742    H3442
    0.3170505026660456    0.5701098267068558    0.4612817091675074    H3443
    0.3170505026660456    0.5701098267068558    0.7946150425008408    H3444
    0.3170505026660456    0.9034431600401891    0.1279483758341742    H3445
    0.3170505026660456    0.9034431600401891    0.4612817091675074    H3446
    0.3170505026660456    0.9034431600401891    0.7946150425008408    H3447
    0.6503838359993790    0.2367764933735226    0.1279483758341742    H3448
    0.6503838359993790    0.2367764933735226    0.4612817091675074    H3449
    0.6503838359993790    0.2367764933735226    0.7946150425008408    H3450
    0.6503838359993790    0.5701098267068558    0.1279483758341742    H3451
    0.6503838359993790    0.5701098267068558    0.4612817091675074    H3452
    0.6503838359993790    0.5701098267068558    0.7946150425008408    H3453
    0.6503838359993790    0.9034431600401891    0.1279483758341742    H3454
    0.6503838359993790    0.9034431600401891    0.4612817091675074    H3455
    0.6503838359993790    0.9034431600401891    0.7946150425008408    H3456
    0.9169807239816135    0.3528653732359540    0.3878535629824251    H3457
    0.9169807239816135    0.3528653732359540    0.7211868963157584    H3458
    0.9169807239816135    0.3528653732359540    0.0545202296490917    H3459
    0.9169807239816135    0.6861987065692874    0.3878535629824251    H3460
    0.9169807239816135    0.6861987065692874    0.7211868963157584    H3461
    0.9169807239816135    0.6861987065692874    0.0545202296490917    H3462
    0.9169807239816135    0.0195320399026206    0.3878535629824251    H3463
    0.9169807239816135    0.0195320399026206    0.7211868963157584    H3464
    0.9169807239816135    0.0195320399026206    0.0545202296490917    H3465
    0.2503140573149468    0.3528653732359540    0.3878535629824251    H3466
    0.2503140573149468    0.3528653732359540    0.7211868963157584    H3467
    0.2503140573149468    0.3528653732359540    0.0545202296490917    H3468
    0.2503140573149468    0.6861987065692874    0.3878535629824251    H3469
    0.2503140573149468    0.6861987065692874    0.7211868963157584    H3470
    0.2503140573149468    0.6861987065692874    0.0545202296490917    H3471
    0.2503140573149468    0.0195320399026206    0.3878535629824251    H3472
    0.2503140573149468    0.0195320399026206    0.7211868963157584    H3473
    0.2503140573149468    0.0195320399026206    0.0545202296490917    H3474
    0.5836473906482802    0.3528653732359540    0.3878535629824251    H3475
    0.5836473906482802    0.3528653732359540    0.7211868963157584    H3476
    0.5836473906482802    0.3528653732359540    0.0545202296490917    H3477
    0.5836473906482802    0.6861987065692874    0.3878535629824251    H3478
    0.5836473906482802    0.6861987065692874    0.7211868963157584    H3479
    0.5836473906482802    0.6861987065692874    0.0545202296490917    H3480
    0.5836473906482802    0.0195320399026206    0.3878535629824251    H3481
    0.5836473906482802    0.0195320399026206    0.7211868963157584    H3482
    0.5836473906482802    0.0195320399026206    0.0545202296490917    H3483
    0.9651413116371530    0.3847893048206878    0.4193064492602566    H3484
    0.9651413116371530    0.3847893048206878    0.7526397825935900    H3485
    0.9651413116371530    0.3847893048206878    0.0859731159269232    H3486
    0.9651413116371530    0.7181226381540211    0.4193064492602566    H3487
    0.9651413116371530    0.7181226381540211    0.7526397825935900    H3488
    0.9651413116371530    0.7181226381540211    0.0859731159269232    H3489
    0.9651413116371530    0.0514559714873544    0.4193064492602566    H3490
    0.9651413116371530    0.0514559714873544    0.7526397825935900    H3491
    0.9651413116371530    0.0514559714873544    0.0859731159269232    H3492
    0.2984746449704863    0.3847893048206878    0.4193064492602566    H3493
    0.2984746449704863    0.3847893048206878    0.7526397825935900    H3494
    0.2984746449704863    0.3847893048206878    0.0859731159269232    H3495
    0.2984746449704863    0.7181226381540211    0.4193064492602566    H3496
    0.2984746449704863    0.7181226381540211    0.7526397825935900    H3497
    0.2984746449704863    0.7181226381540211    0.0859731159269232    H3498
    0.2984746449704863    0.0514559714873544    0.4193064492602566    H3499
    0.2984746449704863    0.0514559714873544    0.7526397825935900    H3500
    0.2984746449704863    0.0514559714873544    0.0859731159269232    H3501
    0.6318079783038195    0.3847893048206878    0.4193064492602566    H3502
    0.6318079783038195    0.3847893048206878    0.7526397825935900    H3503
    0.6318079783038195    0.3847893048206878    0.0859731159269232    H3504
    0.6318079783038195    0.7181226381540211    0.4193064492602566    H3505
    0.6318079783038195    0.7181226381540211    0.7526397825935900    H3506
    0.6318079783038195    0.7181226381540211    0.0859731159269232    H3507
    0.6318079783038195    0.0514559714873544    0.4193064492602566    H3508
    0.6318079783038195    0.0514559714873544    0.7526397825935900    H3509
    0.6318079783038195    0.0514559714873544    0.0859731159269232    H3510
    0.9007813993433562    0.1669382166759623    0.2781334593682930    H3511
    0.9007813993433562    0.1669382166759623    0.6114667927016264    H3512
    0.9007813993433562    0.1669382166759623    0.9448001260349597    H3513
    0.9007813993433562    0.5002715500092956    0.2781334593682930    H3514
    0.9007813993433562    0.5002715500092956    0.6114667927016264    H3515
    0.9007813993433562    0.5002715500092956    0.9448001260349597    H3516
    0.9007813993433562    0.8336048833426288    0.2781334593682930    H3517
    0.9007813993433562    0.8336048833426288    0.6114667927016264    H3518
    0.9007813993433562    0.8336048833426288    0.9448001260349597    H3519
    0.2341147326766895    0.1669382166759623    0.2781334593682930    H3520
    0.2341147326766895    0.1669382166759623    0.6114667927016264    H3521
    0.2341147326766895    0.1669382166759623    0.9448001260349597    H3522
    0.2341147326766895    0.5002715500092956    0.2781334593682930    H3523
    0.2341147326766895    0.5002715500092956    0.6114667927016264    H3524
    0.2341147326766895    0.5002715500092956    0.9448001260349597    H3525
    0.2341147326766895    0.8336048833426288    0.2781334593682930    H3526
    0.2341147326766895    0.8336048833426288    0.6114667927016264    H3527
    0.2341147326766895    0.8336048833426288    0.9448001260349597    H3528
    0.5674480660100228    0.1669382166759623    0.2781334593682930    H3529
    0.5674480660100228    0.1669382166759623    0.6114667927016264    H3530
    0.5674480660100228    0.1669382166759623    0.9448001260349597    H3531
    0.5674480660100228    0.5002715500092956    0.2781334593682930    H3532
    0.5674480660100228    0.5002715500092956    0.6114667927016264    H3533
    0.5674480660100228    0.5002715500092956    0.9448001260349597    H3534
    0.5674480660100228    0.8336048833426288    0.2781334593682930    H3535
    0.5674480660100228    0.8336048833426288    0.6114667927016264    H3536
    0.5674480660100228    0.8336048833426288    0.9448001260349597    H3537
    0.9453816783563134    0.2542060579071166    0.1554948735531552    H3538
    0.9453816783563134    0.2542060579071166    0.4888282068864885    H3539
    0.9453816783563134    0.2542060579071166    0.8221615402198219    H3540
    0.9453816783563134    0.5875393912404498    0.1554948735531552    H3541
    0.9453816783563134    0.5875393912404498    0.4888282068864885    H3542
    0.9453816783563134    0.5875393912404498    0.8221615402198219    H3543
    0.9453816783563134    0.9208727245737832    0.1554948735531552    H3544
    0.9453816783563134    0.9208727245737832    0.4888282068864885    H3545
    0.9453816783563134    0.9208727245737832    0.8221615402198219    H3546
    0.2787150116896466    0.2542060579071166    0.1554948735531552    H3547
    0.2787150116896466    0.2542060579071166    0.4888282068864885    H3548
    0.2787150116896466    0.2542060579071166    0.8221615402198219    H3549
    0.2787150116896466    0.5875393912404498    0.1554948735531552    H3550
    0.2787150116896466    0.5875393912404498    0.4888282068864885    H3551
    0.2787150116896466    0.5875393912404498    0.8221615402198219    H3552
    0.2787150116896466    0.9208727245737832    0.1554948735531552    H3553
    0.2787150116896466    0.9208727245737832    0.4888282068864885    H3554
    0.2787150116896466    0.9208727245737832    0.8221615402198219    H3555
    0.6120483450229801    0.2542060579071166    0.1554948735531552    H3556
    0.6120483450229801    0.2542060579071166    0.4888282068864885    H3557
    0.6120483450229801    0.2542060579071166    0.8221615402198219    H3558
    0.6120483450229801    0.5875393912404498    0.1554948735531552    H3559
    0.6120483450229801    0.5875393912404498    0.4888282068864885    H3560
    0.6120483450229801    0.5875393912404498    0.8221615402198219    H3561
    0.6120483450229801    0.9208727245737832    0.1554948735531552    H3562
    0.6120483450229801    0.9208727245737832    0.4888282068864885    H3563
    0.6120483450229801    0.9208727245737832    0.8221615402198219    H3564
    0.9090801293310884    0.3101001734735529    0.2131278952490024    H3565
    0.9090801293310884    0.3101001734735529    0.5464612285823358    H3566
    0.9090801293310884    0.3101001734735529    0.8797945619156691    H3567
    0.9090801293310884    0.6434335068068862    0.2131278952490024    H3568
    0.9090801293310884    0.6434335068068862    0.5464612285823358    H3569
    0.9090801293310884    0.6434335068068862    0.8797945619156691    H3570
    0.9090801293310884    0.9767668401402194    0.2131278952490024    H3571
    0.9090801293310884    0.9767668401402194    0.5464612285823358    H3572
    0.9090801293310884    0.9767668401402194    0.8797945619156691    H3573
    0.2424134626644218    0.3101001734735529    0.2131278952490024    H3574
    0.2424134626644218    0.3101001734735529    0.5464612285823358    H3575
    0.2424134626644218    0.3101001734735529    0.8797945619156691    H3576
    0.2424134626644218    0.6434335068068862    0.2131278952490024    H3577
    0.2424134626644218    0.6434335068068862    0.5464612285823358    H3578
    0.2424134626644218    0.6434335068068862    0.8797945619156691    H3579
    0.2424134626644218    0.9767668401402194    0.2131278952490024    H3580
    0.2424134626644218    0.9767668401402194    0.5464612285823358    H3581
    0.2424134626644218    0.9767668401402194    0.8797945619156691    H3582
    0.5757467959977551    0.3101001734735529    0.2131278952490024    H3583
    0.5757467959977551    0.3101001734735529    0.5464612285823358    H3584
    0.5757467959977551    0.3101001734735529    0.8797945619156691    H3585
    0.5757467959977551    0.6434335068068862    0.2131278952490024    H3586
    0.5757467959977551    0.6434335068068862    0.5464612285823358    H3587
    0.5757467959977551    0.6434335068068862    0.8797945619156691    H3588
    0.5757467959977551    0.9767668401402194    0.2131278952490024    H3589
    0.5757467959977551    0.9767668401402194    0.5464612285823358    H3590
    0.5757467959977551    0.9767668401402194    0.8797945619156691    H3591
    0.0940074212725204    0.3330858747550456    0.1666424031346619    H3592
    0.0940074212725204    0.3330858747550456    0.4999757364679953    H3593
    0.0940074212725204    0.3330858747550456    0.8333090698013287    H3594
    0.0940074212725204    0.6664192080883788    0.1666424031346619    H3595
    0.0940074212725204    0.6664192080883788    0.4999757364679953    H3596
    0.0940074212725204    0.6664192080883788    0.8333090698013287    H3597
    0.0940074212725204    0.9997525414217121    0.1666424031346619    H3598
    0.0940074212725204    0.9997525414217121    0.4999757364679953    H3599
    0.0940074212725204    0.9997525414217121    0.8333090698013287    H3600
    0.4273407546058537    0.3330858747550456    0.1666424031346619    H3601
    0.4273407546058537    0.3330858747550456    0.4999757364679953    H3602
    0.4273407546058537    0.3330858747550456    0.8333090698013287    H3603
    0.4273407546058537    0.6664192080883788    0.1666424031346619    H3604
    0.4273407546058537    0.6664192080883788    0.4999757364679953    H3605
    0.4273407546058537    0.6664192080883788    0.8333090698013287    H3606
    0.4273407546058537    0.9997525414217121    0.1666424031346619    H3607
    0.4273407546058537    0.9997525414217121    0.4999757364679953    H3608
    0.4273407546058537    0.9997525414217121    0.8333090698013287    H3609
    0.7606740879391871    0.3330858747550456    0.1666424031346619    H3610
    0.7606740879391871    0.3330858747550456    0.4999757364679953    H3611
    0.7606740879391871    0.3330858747550456    0.8333090698013287    H3612
    0.7606740879391871    0.6664192080883788    0.1666424031346619    H3613
    0.7606740879391871    0.6664192080883788    0.4999757364679953    H3614
    0.7606740879391871    0.6664192080883788    0.8333090698013287    H3615
    0.7606740879391871    0.9997525414217121    0.1666424031346619    H3616
    0.7606740879391871    0.9997525414217121    0.4999757364679953    H3617
    0.7606740879391871    0.9997525414217121    0.8333090698013287    H3618
    0.0643699857771600    0.3542643073753632    0.4434186536363177    H3619
    0.0643699857771600    0.3542643073753632    0.7767519869696511    H3620
    0.0643699857771600    0.3542643073753632    0.1100853203029843    H3621
    0.0643699857771600    0.6875976407086966    0.4434186536363177    H3622
    0.0643699857771600    0.6875976407086966    0.7767519869696511    H3623
    0.0643699857771600    0.6875976407086966    0.1100853203029843    H3624
    0.0643699857771600    0.0209309740420298    0.4434186536363177    H3625
    0.0643699857771600    0.0209309740420298    0.7767519869696511    H3626
    0.0643699857771600    0.0209309740420298    0.1100853203029843    H3627
    0.3977033191104934    0.3542643073753632    0.4434186536363177    H3628
    0.3977033191104934    0.3542643073753632    0.7767519869696511    H3629
    0.3977033191104934    0.3542643073753632    0.1100853203029843    H3630
    0.3977033191104934    0.6875976407086966    0.4434186536363177    H3631
    0.3977033191104934    0.6875976407086966    0.7767519869696511    H3632
    0.3977033191104934    0.6875976407086966    0.1100853203029843    H3633
    0.3977033191104934    0.0209309740420298    0.4434186536363177    H3634
    0.3977033191104934    0.0209309740420298    0.7767519869696511    H3635
    0.3977033191104934    0.0209309740420298    0.1100853203029843    H3636
    0.7310366524438268    0.3542643073753632    0.4434186536363177    H3637
    0.7310366524438268    0.3542643073753632    0.7767519869696511    H3638
    0.7310366524438268    0.3542643073753632    0.1100853203029843    H3639
    0.7310366524438268    0.6875976407086966    0.4434186536363177    H3640
    0.7310366524438268    0.6875976407086966    0.7767519869696511    H3641
    0.7310366524438268    0.6875976407086966    0.1100853203029843    H3642
    0.7310366524438268    0.0209309740420298    0.4434186536363177    H3643
    0.7310366524438268    0.0209309740420298    0.7767519869696511    H3644
    0.7310366524438268    0.0209309740420298    0.1100853203029843    H3645
    0.0115865157615750    0.1591153566680545    0.0828747218395199    H3646
    0.0115865157615750    0.1591153566680545    0.4162080551728533    H3647
    0.0115865157615750    0.1591153566680545    0.7495413885061866    H3648
    0.0115865157615750    0.4924486900013880    0.0828747218395199    H3649
    0.0115865157615750    0.4924486900013880    0.4162080551728533    H3650
    0.0115865157615750    0.4924486900013880    0.7495413885061866    H3651
    0.0115865157615750    0.8257820233347213    0.0828747218395199    H3652
    0.0115865157615750    0.8257820233347213    0.4162080551728533    H3653
    0.0115865157615750    0.8257820233347213    0.7495413885061866    H3654
    0.3449198490949084    0.1591153566680545    0.0828747218395199    H3655
    0.3449198490949084    0.1591153566680545    0.4162080551728533    H3656
    0.3449198490949084    0.1591153566680545    0.7495413885061866    H3657
    0.3449198490949084    0.4924486900013880    0.0828747218395199    H3658
    0.3449198490949084    0.4924486900013880    0.4162080551728533    H3659
    0.3449198490949084    0.4924486900013880    0.7495413885061866    H3660
    0.3449198490949084    0.8257820233347213    0.0828747218395199    H3661
    0.3449198490949084    0.8257820233347213    0.4162080551728533    H3662
    0.3449198490949084    0.8257820233347213    0.7495413885061866    H3663
    0.6782531824282416    0.1591153566680545    0.0828747218395199    H3664
    0.6782531824282416    0.1591153566680545    0.4162080551728533    H3665
    0.6782531824282416    0.1591153566680545    0.7495413885061866    H3666
    0.6782531824282416    0.4924486900013880    0.0828747218395199    H3667
    0.6782531824282416    0.4924486900013880    0.4162080551728533    H3668
    0.6782531824282416    0.4924486900013880    0.7495413885061866    H3669
    0.6782531824282416    0.8257820233347213    0.0828747218395199    H3670
    0.6782531824282416    0.8257820233347213    0.4162080551728533    H3671
    0.6782531824282416    0.8257820233347213    0.7495413885061866    H3672
    0.8621240451762491    0.2149482137113352    0.2854733364248849    H3673
    0.8621240451762491    0.2149482137113352    0.6188066697582183    H3674
    0.8621240451762491    0.2149482137113352    0.9521400030915516    H3675
    0.8621240451762491    0.5482815470446685    0.2854733364248849    H3676
    0.8621240451762491    0.5482815470446685    0.6188066697582183    H3677
    0.8621240451762491    0.5482815470446685    0.9521400030915516    H3678
    0.8621240451762491    0.8816148803780017    0.2854733364248849    H3679
    0.8621240451762491    0.8816148803780017    0.6188066697582183    H3680
    0.8621240451762491    0.8816148803780017    0.9521400030915516    H3681
    0.1954573785095824    0.2149482137113352    0.2854733364248849    H3682
    0.1954573785095824    0.2149482137113352    0.6188066697582183    H3683
    0.1954573785095824    0.2149482137113352    0.9521400030915516    H3684
    0.1954573785095824    0.5482815470446685    0.2854733364248849    H3685
    0.1954573785095824    0.5482815470446685    0.6188066697582183    H3686
    0.1954573785095824    0.5482815470446685    0.9521400030915516    H3687
    0.1954573785095824    0.8816148803780017    0.2854733364248849    H3688
    0.1954573785095824    0.8816148803780017    0.6188066697582183    H3689
    0.1954573785095824    0.8816148803780017    0.9521400030915516    H3690
    0.5287907118429158    0.2149482137113352    0.2854733364248849    H3691
    0.5287907118429158    0.2149482137113352    0.6188066697582183    H3692
    0.5287907118429158    0.2149482137113352    0.9521400030915516    H3693
    0.5287907118429158    0.5482815470446685    0.2854733364248849    H3694
    0.5287907118429158    0.5482815470446685    0.6188066697582183    H3695
    0.5287907118429158    0.5482815470446685    0.9521400030915516    H3696
    0.5287907118429158    0.8816148803780017    0.2854733364248849    H3697
    0.5287907118429158    0.8816148803780017    0.6188066697582183    H3698
    0.5287907118429158    0.8816148803780017    0.9521400030915516    H3699
    0.1647769712128365    0.4700163965252828    0.4671803116286097    H3700
    0.1647769712128365    0.4700163965252828    0.8005136449619430    H3701
    0.1647769712128365    0.4700163965252828    0.1338469782952763    H3702
    0.1647769712128365    0.8033497298586161    0.4671803116286097    H3703
    0.1647769712128365    0.8033497298586161    0.8005136449619430    H3704
    0.1647769712128365    0.8033497298586161    0.1338469782952763    H3705
    0.1647769712128365    0.1366830631919494    0.4671803116286097    H3706
    0.1647769712128365    0.1366830631919494    0.8005136449619430    H3707
    0.1647769712128365    0.1366830631919494    0.1338469782952763    H3708
    0.4981103045461699    0.4700163965252828    0.4671803116286097    H3709
    0.4981103045461699    0.4700163965252828    0.8005136449619430    H3710
    0.4981103045461699    0.4700163965252828    0.1338469782952763    H3711
    0.4981103045461699    0.8033497298586161    0.4671803116286097    H3712
    0.4981103045461699    0.8033497298586161    0.8005136449619430    H3713
    0.4981103045461699    0.8033497298586161    0.1338469782952763    H3714
    0.4981103045461699    0.1366830631919494    0.4671803116286097    H3715
    0.4981103045461699    0.1366830631919494    0.8005136449619430    H3716
    0.4981103045461699    0.1366830631919494    0.1338469782952763    H3717
    0.8314436378795033    0.4700163965252828    0.4671803116286097    H3718
    0.8314436378795033    0.4700163965252828    0.8005136449619430    H3719
    0.8314436378795033    0.4700163965252828    0.1338469782952763    H3720
    0.8314436378795033    0.8033497298586161    0.4671803116286097    H3721
    0.8314436378795033    0.8033497298586161    0.8005136449619430    H3722
    0.8314436378795033    0.8033497298586161    0.1338469782952763    H3723
    0.8314436378795033    0.1366830631919494    0.4671803116286097    H3724
    0.8314436378795033    0.1366830631919494    0.8005136449619430    H3725
    0.8314436378795033    0.1366830631919494    0.1338469782952763    H3726
    0.9524118964266584    0.3260243092749721    0.3417958441318872    H3727
    0.9524118964266584    0.3260243092749721    0.6751291774652206    H3728
    0.9524118964266584    0.3260243092749721    0.0084625107985539    H3729
    0.9524118964266584    0.6593576426083054    0.3417958441318872    H3730
    0.9524118964266584    0.6593576426083054    0.6751291774652206    H3731
    0.9524118964266584    0.6593576426083054    0.0084625107985539    H3732
    0.9524118964266584    0.9926909759416387    0.3417958441318872    H3733
    0.9524118964266584    0.9926909759416387    0.6751291774652206    H3734
    0.9524118964266584    0.9926909759416387    0.0084625107985539    H3735
    0.2857452297599917    0.3260243092749721    0.3417958441318872    H3736
    0.2857452297599917    0.3260243092749721    0.6751291774652206    H3737
    0.2857452297599917    0.3260243092749721    0.0084625107985539    H3738
    0.2857452297599917    0.6593576426083054    0.3417958441318872    H3739
    0.2857452297599917    0.6593576426083054    0.6751291774652206    H3740
    0.2857452297599917    0.6593576426083054    0.0084625107985539    H3741
    0.2857452297599917    0.9926909759416387    0.3417958441318872    H3742
    0.2857452297599917    0.9926909759416387    0.6751291774652206    H3743
    0.2857452297599917    0.9926909759416387    0.0084625107985539    H3744
    0.6190785630933251    0.3260243092749721    0.3417958441318872    H3745
    0.6190785630933251    0.3260243092749721    0.6751291774652206    H3746
    0.6190785630933251    0.3260243092749721    0.0084625107985539    H3747
    0.6190785630933251    0.6593576426083054    0.3417958441318872    H3748
    0.6190785630933251    0.6593576426083054    0.6751291774652206    H3749
    0.6190785630933251    0.6593576426083054    0.0084625107985539    H3750
    0.6190785630933251    0.9926909759416387    0.3417958441318872    H3751
    0.6190785630933251    0.9926909759416387    0.6751291774652206    H3752
    0.6190785630933251    0.9926909759416387    0.0084625107985539    H3753
    0.0051542028362113    0.3223221843219584    0.3718261381911179    H3754
    0.0051542028362113    0.3223221843219584    0.7051594715244512    H3755
    0.0051542028362113    0.3223221843219584    0.0384928048577845    H3756
    0.0051542028362113    0.6556555176552917    0.3718261381911179    H3757
    0.0051542028362113    0.6556555176552917    0.7051594715244512    H3758
    0.0051542028362113    0.6556555176552917    0.0384928048577845    H3759
    0.0051542028362113    0.9889888509886251    0.3718261381911179    H3760
    0.0051542028362113    0.9889888509886251    0.7051594715244512    H3761
    0.0051542028362113    0.9889888509886251    0.0384928048577845    H3762
    0.3384875361695445    0.3223221843219584    0.3718261381911179    H3763
    0.3384875361695445    0.3223221843219584    0.7051594715244512    H3764
    0.3384875361695445    0.3223221843219584    0.0384928048577845    H3765
    0.3384875361695445    0.6556555176552917    0.3718261381911179    H3766
    0.3384875361695445    0.6556555176552917    0.7051594715244512    H3767
    0.3384875361695445    0.6556555176552917    0.0384928048577845    H3768
    0.3384875361695445    0.9889888509886251    0.3718261381911179    H3769
    0.3384875361695445    0.9889888509886251    0.7051594715244512    H3770
    0.3384875361695445    0.9889888509886251    0.0384928048577845    H3771
    0.6718208695028779    0.3223221843219584    0.3718261381911179    H3772
    0.6718208695028779    0.3223221843219584    0.7051594715244512    H3773
    0.6718208695028779    0.3223221843219584    0.0384928048577845    H3774
    0.6718208695028779    0.6556555176552917    0.3718261381911179    H3775
    0.6718208695028779    0.6556555176552917    0.7051594715244512    H3776
    0.6718208695028779    0.6556555176552917    0.0384928048577845    H3777
    0.6718208695028779    0.9889888509886251    0.3718261381911179    H3778
    0.6718208695028779    0.9889888509886251    0.7051594715244512    H3779
    0.6718208695028779    0.9889888509886251    0.0384928048577845    H3780
    0.2064388315302388    0.3977606725449045    0.4250421644701554    H3781
    0.2064388315302388    0.3977606725449045    0.7583754978034888    H3782
    0.2064388315302388    0.3977606725449045    0.0917088311368221    H3783
    0.2064388315302388    0.7310940058782378    0.4250421644701554    H3784
    0.2064388315302388    0.7310940058782378    0.7583754978034888    H3785
    0.2064388315302388    0.7310940058782378    0.0917088311368221    H3786
    0.2064388315302388    0.0644273392115711    0.4250421644701554    H3787
    0.2064388315302388    0.0644273392115711    0.7583754978034888    H3788
    0.2064388315302388    0.0644273392115711    0.0917088311368221    H3789
    0.5397721648635720    0.3977606725449045    0.4250421644701554    H3790
    0.5397721648635720    0.3977606725449045    0.7583754978034888    H3791
    0.5397721648635720    0.3977606725449045    0.0917088311368221    H3792
    0.5397721648635720    0.7310940058782378    0.4250421644701554    H3793
    0.5397721648635720    0.7310940058782378    0.7583754978034888    H3794
    0.5397721648635720    0.7310940058782378    0.0917088311368221    H3795
    0.5397721648635720    0.0644273392115711    0.4250421644701554    H3796
    0.5397721648635720    0.0644273392115711    0.7583754978034888    H3797
    0.5397721648635720    0.0644273392115711    0.0917088311368221    H3798
    0.8731054981969054    0.3977606725449045    0.4250421644701554    H3799
    0.8731054981969054    0.3977606725449045    0.7583754978034888    H3800
    0.8731054981969054    0.3977606725449045    0.0917088311368221    H3801
    0.8731054981969054    0.7310940058782378    0.4250421644701554    H3802
    0.8731054981969054    0.7310940058782378    0.7583754978034888    H3803
    0.8731054981969054    0.7310940058782378    0.0917088311368221    H3804
    0.8731054981969054    0.0644273392115711    0.4250421644701554    H3805
    0.8731054981969054    0.0644273392115711    0.7583754978034888    H3806
    0.8731054981969054    0.0644273392115711    0.0917088311368221    H3807
    0.9347208603771118    0.2549188652193157    0.3985754295726134    H3808
    0.9347208603771118    0.2549188652193157    0.7319087629059466    H3809
    0.9347208603771118    0.2549188652193157    0.0652420962392800    H3810
    0.9347208603771118    0.5882521985526490    0.3985754295726134    H3811
    0.9347208603771118    0.5882521985526490    0.7319087629059466    H3812
    0.9347208603771118    0.5882521985526490    0.0652420962392800    H3813
    0.9347208603771118    0.9215855318859824    0.3985754295726134    H3814
    0.9347208603771118    0.9215855318859824    0.7319087629059466    H3815
    0.9347208603771118    0.9215855318859824    0.0652420962392800    H3816
    0.2680541937104450    0.2549188652193157    0.3985754295726134    H3817
    0.2680541937104450    0.2549188652193157    0.7319087629059466    H3818
    0.2680541937104450    0.2549188652193157    0.0652420962392800    H3819
    0.2680541937104450    0.5882521985526490    0.3985754295726134    H3820
    0.2680541937104450    0.5882521985526490    0.7319087629059466    H3821
    0.2680541937104450    0.5882521985526490    0.0652420962392800    H3822
    0.2680541937104450    0.9215855318859824    0.3985754295726134    H3823
    0.2680541937104450    0.9215855318859824    0.7319087629059466    H3824
    0.2680541937104450    0.9215855318859824    0.0652420962392800    H3825
    0.6013875270437784    0.2549188652193157    0.3985754295726134    H3826
    0.6013875270437784    0.2549188652193157    0.7319087629059466    H3827
    0.6013875270437784    0.2549188652193157    0.0652420962392800    H3828
    0.6013875270437784    0.5882521985526490    0.3985754295726134    H3829
    0.6013875270437784    0.5882521985526490    0.7319087629059466    H3830
    0.6013875270437784    0.5882521985526490    0.0652420962392800    H3831
    0.6013875270437784    0.9215855318859824    0.3985754295726134    H3832
    0.6013875270437784    0.9215855318859824    0.7319087629059466    H3833
    0.6013875270437784    0.9215855318859824    0.0652420962392800    H3834
    0.9771272853281565    0.3028290894195215    0.4891287736423420    H3835
    0.9771272853281565    0.3028290894195215    0.8224621069756752    H3836
    0.9771272853281565    0.3028290894195215    0.1557954403090085    H3837
    0.9771272853281565    0.6361624227528548    0.4891287736423420    H3838
    0.9771272853281565    0.6361624227528548    0.8224621069756752    H3839
    0.9771272853281565    0.6361624227528548    0.1557954403090085    H3840
    0.9771272853281565    0.9694957560861881    0.4891287736423420    H3841
    0.9771272853281565    0.9694957560861881    0.8224621069756752    H3842
    0.9771272853281565    0.9694957560861881    0.1557954403090085    H3843
    0.3104606186614899    0.3028290894195215    0.4891287736423420    H3844
    0.3104606186614899    0.3028290894195215    0.8224621069756752    H3845
    0.3104606186614899    0.3028290894195215    0.1557954403090085    H3846
    0.3104606186614899    0.6361624227528548    0.4891287736423420    H3847
    0.3104606186614899    0.6361624227528548    0.8224621069756752    H3848
    0.3104606186614899    0.6361624227528548    0.1557954403090085    H3849
    0.3104606186614899    0.9694957560861881    0.4891287736423420    H3850
    0.3104606186614899    0.9694957560861881    0.8224621069756752    H3851
    0.3104606186614899    0.9694957560861881    0.1557954403090085    H3852
    0.6437939519948233    0.3028290894195215    0.4891287736423420    H3853
    0.6437939519948233    0.3028290894195215    0.8224621069756752    H3854
    0.6437939519948233    0.3028290894195215    0.1557954403090085    H3855
    0.6437939519948233    0.6361624227528548    0.4891287736423420    H3856
    0.6437939519948233    0.6361624227528548    0.8224621069756752    H3857
    0.6437939519948233    0.6361624227528548    0.1557954403090085    H3858
    0.6437939519948233    0.9694957560861881    0.4891287736423420    H3859
    0.6437939519948233    0.9694957560861881    0.8224621069756752    H3860
    0.6437939519948233    0.9694957560861881    0.1557954403090085    H3861
    0.9988017927192003    0.2569416626721999    0.4381613101924621    H3862
    0.9988017927192003    0.2569416626721999    0.7714946435257954    H3863
    0.9988017927192003    0.2569416626721999    0.1048279768591287    H3864
    0.9988017927192003    0.5902749960055331    0.4381613101924621    H3865
    0.9988017927192003    0.5902749960055331    0.7714946435257954    H3866
    0.9988017927192003    0.5902749960055331    0.1048279768591287    H3867
    0.9988017927192003    0.9236083293388665    0.4381613101924621    H3868
    0.9988017927192003    0.9236083293388665    0.7714946435257954    H3869
    0.9988017927192003    0.9236083293388665    0.1048279768591287    H3870
    0.3321351260525337    0.2569416626721999    0.4381613101924621    H3871
    0.3321351260525337    0.2569416626721999    0.7714946435257954    H3872
    0.3321351260525337    0.2569416626721999    0.1048279768591287    H3873
    0.3321351260525337    0.5902749960055331    0.4381613101924621    H3874
    0.3321351260525337    0.5902749960055331    0.7714946435257954    H3875
    0.3321351260525337    0.5902749960055331    0.1048279768591287    H3876
    0.3321351260525337    0.9236083293388665    0.4381613101924621    H3877
    0.3321351260525337    0.9236083293388665    0.7714946435257954    H3878
    0.3321351260525337    0.9236083293388665    0.1048279768591287    H3879
    0.6654684593858671    0.2569416626721999    0.4381613101924621    H3880
    0.6654684593858671    0.2569416626721999    0.7714946435257954    H3881
    0.6654684593858671    0.2569416626721999    0.1048279768591287    H3882
    0.6654684593858671    0.5902749960055331    0.4381613101924621    H3883
    0.6654684593858671    0.5902749960055331    0.7714946435257954    H3884
    0.6654684593858671    0.5902749960055331    0.1048279768591287    H3885
    0.6654684593858671    0.9236083293388665    0.4381613101924621    H3886
    0.6654684593858671    0.9236083293388665    0.7714946435257954    H3887
    0.6654684593858671    0.9236083293388665    0.1048279768591287    H3888
    0.9870471515409160    0.2885813655704194    0.2034909350933416    H3889
    0.9870471515409160    0.2885813655704194    0.5368242684266749    H3890
    0.9870471515409160    0.2885813655704194    0.8701576017600081    H3891
    0.9870471515409160    0.6219146989037526    0.2034909350933416    H3892
    0.9870471515409160    0.6219146989037526    0.5368242684266749    H3893
    0.9870471515409160    0.6219146989037526    0.8701576017600081    H3894
    0.9870471515409160    0.9552480322370859    0.2034909350933416    H3895
    0.9870471515409160    0.9552480322370859    0.5368242684266749    H3896
    0.9870471515409160    0.9552480322370859    0.8701576017600081    H3897
    0.3203804848742493    0.2885813655704194    0.2034909350933416    H3898
    0.3203804848742493    0.2885813655704194    0.5368242684266749    H3899
    0.3203804848742493    0.2885813655704194    0.8701576017600081    H3900
    0.3203804848742493    0.6219146989037526    0.2034909350933416    H3901
    0.3203804848742493    0.6219146989037526    0.5368242684266749    H3902
    0.3203804848742493    0.6219146989037526    0.8701576017600081    H3903
    0.3203804848742493    0.9552480322370859    0.2034909350933416    H3904
    0.3203804848742493    0.9552480322370859    0.5368242684266749    H3905
    0.3203804848742493    0.9552480322370859    0.8701576017600081    H3906
    0.6537138182075826    0.2885813655704194    0.2034909350933416    H3907
    0.6537138182075826    0.2885813655704194    0.5368242684266749    H3908
    0.6537138182075826    0.2885813655704194    0.8701576017600081    H3909
    0.6537138182075826    0.6219146989037526    0.2034909350933416    H3910
    0.6537138182075826    0.6219146989037526    0.5368242684266749    H3911
    0.6537138182075826    0.6219146989037526    0.8701576017600081    H3912
    0.6537138182075826    0.9552480322370859    0.2034909350933416    H3913
    0.6537138182075826    0.9552480322370859    0.5368242684266749    H3914
    0.6537138182075826    0.9552480322370859    0.8701576017600081    H3915
    0.2061774585334492    0.4267252688755061    0.5319450697015428    H3916
    0.2061774585334492    0.4267252688755061    0.8652784030348761    H3917
    0.2061774585334492    0.4267252688755061    0.1986117363682094    H3918
    0.2061774585334492    0.7600586022088394    0.5319450697015428    H3919
    0.2061774585334492    0.7600586022088394    0.8652784030348761    H3920
    0.2061774585334492    0.7600586022088394    0.1986117363682094    H3921
    0.2061774585334492    0.0933919355421727    0.5319450697015428    H3922
    0.2061774585334492    0.0933919355421727    0.8652784030348761    H3923
    0.2061774585334492    0.0933919355421727    0.1986117363682094    H3924
    0.5395107918667825    0.4267252688755061    0.5319450697015428    H3925
    0.5395107918667825    0.4267252688755061    0.8652784030348761    H3926
    0.5395107918667825    0.4267252688755061    0.1986117363682094    H3927
    0.5395107918667825    0.7600586022088394    0.5319450697015428    H3928
    0.5395107918667825    0.7600586022088394    0.8652784030348761    H3929
    0.5395107918667825    0.7600586022088394    0.1986117363682094    H3930
    0.5395107918667825    0.0933919355421727    0.5319450697015428    H3931
    0.5395107918667825    0.0933919355421727    0.8652784030348761    H3932
    0.5395107918667825    0.0933919355421727    0.1986117363682094    H3933
    0.8728441252001159    0.4267252688755061    0.5319450697015428    H3934
    0.8728441252001159    0.4267252688755061    0.8652784030348761    H3935
    0.8728441252001159    0.4267252688755061    0.1986117363682094    H3936
    0.8728441252001159    0.7600586022088394    0.5319450697015428    H3937
    0.8728441252001159    0.7600586022088394    0.8652784030348761    H3938
    0.8728441252001159    0.7600586022088394    0.1986117363682094    H3939
    0.8728441252001159    0.0933919355421727    0.5319450697015428    H3940
    0.8728441252001159    0.0933919355421727    0.8652784030348761    H3941
    0.8728441252001159    0.0933919355421727    0.1986117363682094    H3942
