POSCAR file converted from LAMMPS data  
   1.00000000000000     
    11.6201601196214419    9.5009162625971637   -3.1759976060613302
    -0.0000000002480714   12.7090810302343762   -2.2476972445661558
     0.0000000000026596    0.0000000000939294   12.1175356424256631
   C    H 
    68   138
Direct
     0.7519850717726334    0.0771907490698427   -0.2286110615978317
     0.8123215908461719    0.0192973293405499   -0.3330194109519682
     0.8731186392588216   -0.1335554951534856   -0.3634766470999693
     0.8875286744486780   -0.1914185509565272   -0.4867249168622896
     0.7687566586417277   -0.1298974042559751   -0.5570225733600749
     0.7068212217908519   -0.1748457127244212   -0.5233221546308970
     0.5724796372905325   -0.0894773196698322   -0.5547245784256162
     0.5168339199950532    0.0580120160520781   -0.5076419004747463
     0.3895222631572952    0.1648752411574718   -0.5386587621885918
     0.3657864379280578    0.1921758572066825   -0.6658323469713205
     0.2722312489688452    0.3416529679875234   -0.6993950083285494
     0.2896237810631049    0.4280351610907224   -0.6265294240057948
     0.2141884522989739    0.5624327195289792   -0.6896983385350186
     0.1615442228217943    0.6874535337469014   -0.6112102109063029
     1.0536741632666611    0.8348180827373398    0.3485152578913169
     0.9684330759671620    0.8364423994925195    0.2589394707809917
     0.9250382903641786    0.9324740294331016    0.1532948325267885
     0.8765154471627892    1.0834702733427926    0.1800785179881860
     0.7952596702989245    1.1867446373577550    0.2697832055351086
     0.7306493542196698    1.1447925428034438    0.3039107592088577
     0.6687039129256572    1.1269653021060062    0.1905640342007545
     0.6031749002566783    1.2376881295381212    0.1104524295527744
     0.5474497061068879    1.2093988033012382   -0.0016244660922057
     0.4741506408452451    1.1703909585909342   -0.0096631021506590
     0.5268167793313262    1.0205535712035387   -0.0076063261731284
     0.6093291743453951    0.9312556923933595   -0.1040303299421822
     0.5493191856361357    0.9726078361568485   -0.2292726709696106
     0.4402678823654484    0.9906959532014495   -0.2760544693369020
     0.3376909197709152    1.1285444259963529   -0.2444230991383527
     0.2171392872381254    1.1791538681257607   -0.3169454285490230
     0.1439634471467275    1.1809299620186029   -0.2532895320572421
     0.1885268976310610    1.0555722337939548   -0.2093308426676742
     0.2330580811091627    0.9285947283192211   -0.2974473438648537
     0.2473106985192848    0.7970314777729893   -0.2722006103845852
     0.3594139886267387    0.6696031925915599   -0.3275196766342146
     0.3857952964409568    0.5332387017493242   -0.3325220396632711
     0.4849271221817558    0.4331785462598288   -0.3998158173870390
     0.4821532661556392    0.4748320502603679   -0.5155413781417473
     0.5448778154563209    0.5434878467219990   -0.5119109223335994
     0.6785183345108683    0.4257915819834155   -0.5041566692346749
     0.7390491365312515    0.4907365257082510   -0.4498258748412833
     0.7268121105707015    0.5429253925286831   -0.3270630632930892
     0.7555086439651049    0.4382867183248639   -0.2463860948622819
     0.7826996069156330    0.4620418240994676   -0.1208753562825184
     0.8997755588807432    0.4440567332682214   -0.1032035511046346
     0.9851128029310781    0.3882814160373843    0.0014250505773718
     1.0046140532489807    0.4957005512871802    0.0550036187461842
     1.0988744482775141   -0.5101968988125729    0.0167830075295032
     1.0555963239717963   -0.4524970572238065   -0.1093008977417735
     1.1533107214743390   -0.4968367854257371   -0.1697265164295325
     1.1842203698278646   -0.3976422545955474   -0.1353001984287487
     1.2434786256461992   -0.4160007924945286   -0.0177884297998872
     1.2898916143156658   -0.3409263862296643    0.0144039281805635
     1.1975326836464608   -0.1918858917356052    0.0472694851586322
     1.2055030198295051   -0.1493518979948357    0.1716359894382203
     1.3009838337733153    0.8588565924962946    0.2076136284701342
     1.2777318245296840    0.9746678797145975    0.1582999654803518
     1.1685233334944003    1.1134860841794694    0.1826956072979249
     1.1225320472576039    1.1891594201878486    0.2856731999366309
     1.0560479834170335    1.1562652179753883    0.3317357725991810
     0.9957955376407169    1.2537981399654212    0.4269617184326615
     0.9829766954750072    1.3849257728779500    0.4455231805749095
     0.9092660244280377    1.4906335640479202    0.3593748258254569
     0.8707371609167930    0.4530467744332818    0.2460467938354269
     0.7565591997506296    0.4830971233325917    0.2354191773535215
     0.6428537958157502    0.6334745538952335    0.2511726396248312
     0.8222257644991586    0.0926394288908293   -0.1286029813536231
     0.6336482750110878    0.7355756534748853    0.1856742867019072
     0.7628403500282497   -0.0099910285124445   -0.2171277686972324
     0.6597720222334182    0.1761088189258412   -0.2482418070950120
     0.7547534889188432    0.0517618748661974   -0.4148991645363650
     0.8817092001829816    0.0248663768110979   -0.3241776891197965
     0.9565208025585421   -0.1806026387649746   -0.3126064710926586
     0.8409840878627671   -0.1756282681578536   -0.3248683041077385
     0.9572122727537338   -0.2008396440764566   -0.5152128782020442
     0.9387869298426111   -0.3075678053361590   -0.5038554825704370
     0.7104735951852339   -0.0144016912676799   -0.5614708397395292
     0.7760737795454292   -0.1576080884925677   -0.6478059337927725
     0.7091414742934751   -0.1594157732888875   -0.4312880839687313
     0.7648883276601561   -0.2911379264125108   -0.5285564551107957
     0.5465720852175650   -0.1079556395870660   -0.6445450606252560
     0.5386968093700379   -0.1255121978009639   -0.5036821082029950
     0.5569219084623025    0.0925378035729882   -0.5358777466215670
     0.5497161015098437    0.0471664455831603   -0.4111143184868286
     1.3565998235290342    0.1151873328339966   -0.5244593118499469
     0.3459809532149428    0.2521536054020631   -0.4772071623099343
     0.3365947646112477    0.1427542054391346   -0.7251648577428682
     0.4367065244445796    0.1616966665891616   -0.7014790391998001
     0.2755860122202662    0.3480643127383369   -0.7852273061763052
     0.1872852870024375    0.3642631491815619   -0.7053259425495562
     0.3779408175129217    0.3783031908369931   -0.6046872886763259
     0.2560734484392526    0.4619830791273632   -0.5375441025379590
     0.1451349833761726    0.5676904026097933   -0.7437700576690107
     0.2713100577384858    0.5614906387960478    0.2641303708739760
     0.1385355925596564    0.6609204285593274   -0.5477997770023952
     0.2412294118688980    0.6842987901569576   -0.5657551646777605
     1.0971649564669215    0.8648866230775517    0.3213241120268772
     1.0177026182263069    0.8897727073524256    0.4266470441107720
     1.0177176873858120    0.7297400843802108    0.2264652005991795
     0.8924980097971215    0.8749552573992380    0.2984593032466523
     0.9903766754700730    0.8947879160604875    0.1094388352357687
     0.8680816176812999    0.9202738633620065    0.0984446344512436
     0.8344006539273791    1.1406472500460649    0.1035473348071645
     0.9492576629066222    1.0838587349765512    0.1899010811075384
     0.8489783543562415    1.1935442263900653    0.3312014226073851
     0.7397121359697655    1.2899194662994904    0.2423181371699530
     0.7807544940295719    1.0556743586657478    0.3628875327292121
     0.6690987771030651    1.2390863518018063    0.3500775817094202
     0.6080605220268549    1.1101637376669946    0.2062170172806668
     0.7386190102528927    1.0375293614952710    0.1378689771404761
     0.5315422975355452    1.3370532529431158    0.1469520050051433
     0.6593047779790648    1.2512803853509087    0.0811859489749477
     0.6200330992875311    1.1360573877707469   -0.0625254487116297
     0.4921868999872838    1.3006907864603798   -0.0523885078931948
     0.4022209170794640    1.2173697293371928   -0.0749841555201248
     0.4112847717660595    1.2234368498216310    0.0548853916428744
     0.5906374801536490    0.9684963930733577    0.0800392799431631
     0.4623149860322410    1.0050850472554032   -0.0166789050408523
     0.6603575545407873    0.8159101099476217   -0.1205148957306797
     0.6704964259198380    0.9515889046351053   -0.0953167724956544
     0.6015679659421082    0.9194932087579764   -0.2945711714038802
     0.5407897483435321    1.0605887964899912   -0.2242476386464476
     0.4296306655969326    0.9712120414823512   -0.3688818090746144
     0.4675556758828188    0.8905121890042209   -0.2564633263999427
     0.3508165285839798    1.2005755211803320   -0.2398315803548832
     0.3254290477985454    1.1191100433466143   -0.1613508474509008
     0.1779329773232633    1.2830785380831524   -0.3567524457257363
     0.2483002258105738    1.0960232302468949   -0.3856280946763528
     0.0973851441219834    1.2878159889879675   -0.1951226660659016
     0.0643044921150897    1.2280364644908293   -0.3039346553874291
     0.2667149834194246    1.0275319695603979   -0.1598268742085499
     0.1321545177868091    1.0601797876520263   -0.1611580664741233
     0.1660314884759939    0.9744991182855083   -0.3804698038757659
     0.3134878393411398    0.8989480381888750   -0.3256994300205066
     0.1710260008954037    0.8041080217412510   -0.3180899009143540
     0.2546766036308097    0.7798953645182416   -0.1827872876394596
     0.4334998892350433    0.6520948389533150   -0.2857952397890384
     0.3494383831053641    0.6868101900698330   -0.4172725131351307
     0.3042450018760649    0.5418527585062135   -0.3721039853477578
     0.4135363734963536    0.5117607782452727   -0.2493982316797999
     0.4829589947974928    0.3496794993370500   -0.4360856244782398
     0.5669411941098279    0.4058297361555031   -0.3514295859435130
     0.3956404105545812    0.5267368329309221   -0.5724731607685632
     0.5463394539256563    0.3793513075192679   -0.5662813143256317
     0.5084514596273195    0.6189674213757602   -0.5802991741952688
     0.5346754123344180    0.6013099439421220   -0.4363294799029307
     0.6845825700267488    0.3752283877080199   -0.4368669617298013
     0.7114154722439602    0.3646334920616020   -0.5865339079448371
     0.7124975614505561    0.5680554439177024   -0.5106929453859663
     0.8256855192710355    0.4075952786222203   -0.4604226325953753
     0.6492082045254409    0.6461336033291391   -0.3189599668817635
     0.7800344611267347    0.5737047693140057   -0.2892686079886293
     0.6954021223156727    0.4174822484778232   -0.2620999051990776
     0.8344692524033407    0.3390923118152623   -0.2750186508326514
     0.7138741290644622    0.5632739619051904   -0.0879421093314224
     0.8157144456882890    0.3751928096195946   -0.0708434470921048
     0.9516441866657656    0.3458523723053062   -0.1699486759429939
     0.8852412177699436    0.5412063897343722   -0.1171126850670846
     1.0685971920682373    0.2748286142699287   -0.0118768770279414
     0.9526838776270733    0.3640852380941160    0.0530843498552470
     0.9298866091127742    0.5932630041032283    0.0158353739150408
     1.0068881571781247    0.4933188490965549    0.1437399604867276
     1.1869470147937839   -0.6197351170091465    0.0256068077221351
     1.1026364660264871   -0.4344753183827739    0.0672433681066623
     0.9833178770285708   -0.3286694934445789   -0.1118967955663188
     1.0134458115907439   -0.4962362798758118   -0.1408377262235720
     1.2385160677773088    0.4011416763141241   -0.1424170811443740
     1.1099954218746506   -0.4972692264970726   -0.2644329983799663
     1.2270940963715471   -0.3983460178321299   -0.1979452755090787
     1.1106341669283897   -0.2777529414816103   -0.1370367304867409
     1.3151028513489069    0.4807384390570265   -0.0037833989030811
     1.1901743255454371    0.6214083562566737    0.0466525194590155
     1.3849885894213219   -0.4192921166531307    0.0552727511523771
     1.3140933814499647   -0.3254616915617319   -0.0531125802872146
     1.1896034397723125    0.8718569573900552   -0.0024302956241263
     1.1203516345464666   -0.1771785908772598    0.0291110877576639
     1.2169612758299990   -0.2270504482312734    0.2200256344167240
     1.1370337367040846   -0.0585238050895842    0.1954763156439880
     1.3068463152572405    0.8704891905298241    0.3017789179107023
     1.3945258247664025    0.7646477644041507    0.1890402331172305
     1.2773433711405247    0.9497920603219006    0.0662306281207408
     1.3533064794880187   -0.0280147682276366    0.1746541075313273
     1.0863887438098592    1.1198505771999583    0.1400386259034363
     1.1543262724648911    1.1768504105057327    0.1203546024194898
     1.1913579661889824    1.1733867911699005    0.3379909239443957
     1.0768504488832999    0.2904146187740546    0.2637543192000647
     1.0000405174769258    1.1637842056352719    0.2476485598860312
     1.1094947711001151    1.0486562031848536    0.3417616686702784
     1.0334827109925062    1.1990916243952863    0.5072723155508504
     0.9024262925381403    1.3134083101233880    0.3990461861535746
     0.9617090806370810    1.4246490648837615    0.5320045132988075
     1.0702310746424877    0.3693274978543030    0.4677265666335501
     0.9422104601838045    1.5390158442949753    0.3455959002645629
     0.8342258635524684    1.5939311147328046    0.4081133033604089
     0.9292307578951874    1.3475826879847985    0.2162623416074636
     0.8746945270520790    0.5077129441361041    0.1891552751308654
     0.7318188772267726    1.4636405067690847    0.1453632109963247
     0.7687711978620541    0.4135958433354520    0.2866880174413796
     0.5662272385912474    0.6319394215988308    1.2083964091618560
     0.6158640265273606    0.6780192571954573    0.3384358666610515
     0.8120596542565215    0.0837651939714679   -0.0353912328315793
     0.9162610823231593    0.0149096570488947   -0.1364659672552770
     0.7937168511592479    0.1973355319516804   -0.1230844500140665
     0.6758842122168708    0.6903694469907641    1.1047080017779674
     0.7024708928315129    1.7452854744597242    1.2165995081273699
     0.5425236886740840    0.8369948026473085    0.1503438864586137
Lattice velocities and vectors
           1
  0.60299477E-03 -0.11283391E-02  0.31057592E-03
  0.21731127E-02  0.95176105E-03 -0.79281256E-03
 -0.15981972E-03 -0.19289887E-03  0.47198308E-03
  0.11619744E+02  0.95012286E+01 -0.31759952E+01
 -0.24808158E-09  0.12709447E+02 -0.22480953E+01
  0.26610240E-11  0.93932859E-10  0.12117724E+02
 
 -0.41857782E-02  0.25691362E-02  0.56682474E-02
  0.12298330E-01 -0.51874011E-02 -0.17519622E-02
 -0.49726714E-02  0.40772458E-02 -0.10971254E-01
  0.46702097E-02  0.25012976E-02 -0.67726682E-02
  0.56120348E-02 -0.69538975E-02 -0.90246718E-02
  0.98913222E-03  0.28615010E-02  0.17728433E-01
 -0.17904204E-01 -0.58146774E-02 -0.27446721E-02
  0.80141411E-02  0.85522348E-02  0.16503559E-01
  0.18587215E-03  0.10136545E-01  0.33814720E-02
 -0.71368264E-02  0.30611860E-02 -0.74460627E-02
  0.20315157E-01 -0.13692328E-01 -0.46554915E-02
  0.61390717E-02 -0.12541434E-01  0.18518724E-02
  0.15930388E-02  0.17996994E-02 -0.14980115E-02
  0.30411999E-03 -0.18390137E-01 -0.72361146E-02
  0.86370715E-02 -0.88544115E-02  0.95821392E-02
 -0.88025379E-04  0.62541638E-03 -0.69911365E-02
 -0.57844937E-02 -0.48861584E-02 -0.35615545E-02
  0.41280126E-02  0.23921179E-02 -0.11257199E-01
 -0.27577642E-02 -0.14269192E-01 -0.60527789E-02
  0.79343522E-02 -0.47362417E-02 -0.69648648E-02
  0.20253264E-02 -0.74012316E-02  0.34620364E-02
 -0.17319098E-02  0.50350127E-03  0.47519178E-02
  0.90944578E-02 -0.11145656E-01 -0.99469427E-03
  0.19814024E-02  0.57266364E-02 -0.36129564E-02
  0.28208700E-02  0.32455291E-02 -0.14069863E-02
  0.82481689E-02  0.72158287E-02  0.11199889E-01
  0.94200750E-02 -0.12501305E-02 -0.14931507E-02
 -0.26700424E-02  0.30924707E-02 -0.57635338E-02
  0.13226706E-01  0.63770231E-02  0.41947101E-02
 -0.13187625E-02  0.65975864E-02  0.30245670E-02
  0.64701677E-02  0.35126725E-02  0.67072146E-02
 -0.18014919E-02 -0.74927468E-02  0.47753843E-02
 -0.38846457E-02 -0.12805034E-01 -0.17970190E-02
  0.74805390E-02 -0.13585559E-01 -0.11287659E-01
  0.77192716E-02  0.49158693E-02 -0.27661307E-02
 -0.11364596E-01 -0.29538375E-03  0.10852879E-01
 -0.81966450E-03 -0.57923439E-02  0.54964312E-03
 -0.43927059E-03  0.11192733E-01  0.12022900E-01
  0.32077314E-02  0.66326995E-03  0.23418364E-02
 -0.14929013E-02 -0.51489345E-02  0.14007061E-01
  0.43437446E-02 -0.88257027E-02  0.86078075E-02
  0.54553233E-02  0.85287090E-02 -0.15322377E-02
 -0.48376379E-02 -0.72845342E-02  0.66623560E-02
  0.16166045E-02 -0.22417607E-02  0.29147214E-02
 -0.57355457E-02 -0.72441611E-02  0.62452099E-02
 -0.66907109E-02  0.62593367E-03  0.11766685E-01
 -0.10127239E-01 -0.90817524E-02  0.13357029E-01
 -0.41736989E-02  0.55860741E-02 -0.37046313E-02
 -0.99490209E-02 -0.11990088E-02 -0.11836370E-02
 -0.13378082E-01 -0.51697440E-02 -0.37270709E-03
 -0.39613994E-02  0.72628131E-02  0.47258755E-02
  0.64252800E-02  0.18925717E-02  0.11393777E-02
 -0.98773748E-02 -0.26704186E-02  0.66586996E-02
 -0.50281451E-02  0.19993467E-01 -0.73857291E-02
 -0.16625758E-01 -0.10377893E-01 -0.49185306E-02
  0.56174639E-02  0.65781238E-02 -0.32597617E-02
  0.14648876E-01 -0.85136804E-03 -0.79570360E-02
  0.56887068E-02  0.66461290E-02  0.56346449E-03
  0.90289707E-02  0.40324608E-02  0.81655980E-02
  0.47304435E-02  0.52074658E-02  0.61025047E-02
 -0.79178121E-02 -0.95064023E-02 -0.77601157E-04
 -0.27244442E-02  0.33620729E-02 -0.21871291E-03
  0.93811603E-03 -0.73143800E-03 -0.19612012E-02
 -0.10737546E-01  0.30383974E-02  0.10648128E-01
  0.94980940E-03 -0.53482021E-02  0.71602461E-02
  0.10443248E-01  0.14157029E-01 -0.49421771E-02
  0.37348035E-02 -0.12838161E-02  0.39945031E-02
  0.19026029E-02 -0.11020300E-01  0.85740756E-03
 -0.38321017E-01  0.94166350E-03  0.49829254E-03
 -0.15638431E-02  0.24336733E-01 -0.40080245E-01
  0.13749969E-01 -0.26811247E-02 -0.16172636E-01
  0.22299127E-01 -0.47814142E-01 -0.24275048E-01
 -0.54266786E-02 -0.14873937E-01  0.31354361E-01
  0.55935447E-02 -0.71016667E-02  0.27126138E-01
  0.70237454E-02  0.71526218E-02  0.25820511E-01
 -0.21858744E-02  0.21050110E-01 -0.43592735E-01
  0.38352643E-01 -0.48108924E-01 -0.11507864E-02
 -0.24711040E-01 -0.86386258E-02  0.16567267E-01
  0.51991109E-01 -0.34237467E-01 -0.42022555E-01
  0.27125082E-01 -0.15580533E-01 -0.20982858E-01
 -0.10328723E-01  0.33674725E-02  0.31602260E-03
  0.83407513E-02  0.18945655E-01 -0.40823181E-02
  0.98756643E-02  0.24773517E-01 -0.21325400E-01
  0.66793272E-02 -0.20070821E-02 -0.29605966E-01
 -0.46310841E-01 -0.16974920E-01 -0.19752323E-01
 -0.42446132E-02 -0.34016523E-01  0.12000095E-02
 -0.35776869E-01  0.22912452E-02  0.10855901E-01
  0.11292710E-01  0.54983316E-01  0.83451181E-02
  0.73273919E-02  0.16698320E-01 -0.51901966E-01
  0.16783583E-01 -0.12891973E-01  0.26840701E-01
 -0.49739162E-01 -0.27500345E-01 -0.44882326E-01
  0.46256869E-01  0.45929888E-02 -0.23213869E-01
  0.11477075E-02 -0.21953780E-01  0.19812385E-01
  0.15468512E-01 -0.15611965E-01  0.33851444E-01
  0.15401879E-01  0.20274000E-01 -0.11688542E-01
  0.56998959E-01  0.44677411E-02  0.14400015E-01
 -0.33664989E-03  0.33465117E-01  0.26172809E-01
  0.52586328E-01 -0.99017874E-02  0.19576398E-01
  0.87982254E-02  0.65054028E-01 -0.55194830E-01
 -0.55450330E-02  0.24531934E-02  0.26722627E-01
 -0.19821002E-01 -0.83208041E-02  0.13380845E-02
 -0.15671171E-01 -0.38339131E-02 -0.12554670E-01
  0.42151744E-02  0.59879934E-01 -0.97195807E-02
 -0.14478250E-01  0.40161091E-02  0.23867910E-01
  0.34661986E-01  0.22087798E-01 -0.25576440E-01
  0.66019865E-02  0.40063604E-01  0.83790015E-02
 -0.11430738E-01 -0.28774542E-01  0.22519069E-01
  0.36049667E-02  0.37187868E-02  0.73460618E-02
 -0.26176346E-03 -0.29610977E-01 -0.44200573E-01
  0.16924625E-01 -0.47076217E-01  0.22504864E-01
  0.33675855E-01 -0.25192347E-01  0.20363082E-01
  0.26701426E-02  0.15294675E-01  0.32623384E-01
 -0.17110529E-01  0.16565494E-01 -0.41311053E-02
  0.28131813E-01 -0.97251718E-02  0.30215196E-01
 -0.24380571E-02  0.32321299E-01  0.35532769E-01
 -0.16792043E-01  0.17311336E-01  0.86815860E-02
  0.47507389E-02 -0.14787830E-01 -0.14958799E-01
 -0.14155146E-01 -0.23315968E-01  0.35321510E-01
  0.23933522E-01  0.59197785E-01 -0.47322513E-02
  0.94896413E-02 -0.16923001E-01 -0.61508334E-01
  0.83575996E-02 -0.13331928E-01  0.69401294E-02
  0.41798009E-02  0.24122292E-01  0.21787837E-01
 -0.24437425E-01  0.17502230E-01  0.46832295E-02
  0.32051610E-01 -0.23499160E-01  0.41078153E-01
 -0.54087173E-02 -0.30272256E-02  0.63791441E-02
  0.99878964E-02  0.37977311E-01  0.27044225E-01
 -0.35864582E-01 -0.21253601E-01  0.13660063E-01
 -0.58312528E-02 -0.49681383E-01 -0.46797945E-02
 -0.25788181E-02  0.24937385E-01 -0.14543179E-01
  0.53558422E-02  0.10541253E-01 -0.26028823E-01
  0.30254135E-01 -0.48524373E-02  0.26149475E-01
  0.20809005E-01  0.20552935E-01 -0.13585317E-01
 -0.87753375E-02  0.28017233E-01 -0.11759229E-01
 -0.99438571E-02 -0.50531344E-02  0.13062266E-01
 -0.29079441E-02 -0.28217809E-01 -0.24677302E-01
  0.33142368E-01 -0.27636370E-01  0.83902979E-02
  0.15174254E-01 -0.18610644E-01 -0.19367659E-01
 -0.42934764E-03  0.30692564E-01  0.47925760E-02
  0.55004929E-01  0.70617496E-03  0.30361384E-01
  0.35856947E-01  0.35268016E-01  0.99192142E-02
  0.11285327E-01  0.35747527E-01  0.34726561E-02
 -0.25982780E-01  0.39369898E-01  0.73151877E-02
  0.64572798E-02 -0.39411569E-01  0.17233693E-01
 -0.17258300E-01  0.22779854E-01 -0.10210988E-01
 -0.70041579E-02  0.12264933E-01 -0.13783384E-01
  0.25857928E-01  0.36332180E-03 -0.38259056E-02
  0.15135407E-01  0.11145661E-01  0.14020053E-02
 -0.15631552E-01  0.61210627E-01  0.46815692E-01
 -0.67986752E-02 -0.23310515E-01 -0.10810906E-01
 -0.12928939E-01 -0.21659982E-02  0.88537341E-02
  0.45738926E-01 -0.92806216E-02  0.13727035E-01
  0.27934713E-01 -0.49982336E-02 -0.42896132E-01
 -0.14158822E-01 -0.68501153E-03 -0.43719072E-01
  0.88856722E-02 -0.97445005E-02  0.18988228E-01
 -0.16102670E-01 -0.10297192E-01 -0.52194794E-02
 -0.48304544E-02 -0.67009334E-02 -0.11583800E-01
 -0.26117134E-01 -0.19744356E-01 -0.19970857E-01
  0.30380414E-01  0.33926314E-01  0.22057007E-01
 -0.38862414E-01 -0.12109878E-01 -0.22426592E-01
 -0.31319577E-02  0.94777471E-02 -0.35679402E-01
 -0.48251194E-03  0.18273508E-01  0.51204568E-01
  0.46646502E-02  0.22134032E-01  0.85223384E-02
  0.15715898E-02 -0.14584423E-01 -0.24669673E-01
  0.43847772E-01  0.22357369E-01 -0.22831380E-01
 -0.30065885E-02 -0.33054056E-02  0.18480104E-01
 -0.16651204E-01 -0.23669998E-01 -0.34922268E-01
  0.17176629E-01 -0.30276593E-01 -0.27464503E-01
 -0.11420910E-02 -0.29474242E-01  0.49143710E-01
 -0.14150264E-01 -0.31042600E-01  0.42716714E-01
 -0.64601260E-02 -0.39329357E-01 -0.84774399E-02
 -0.10206026E-01 -0.21107382E-02  0.12781345E-01
  0.14568749E-01 -0.42072252E-02  0.20715827E-01
 -0.54639521E-01 -0.18080168E-01 -0.82647027E-04
 -0.76815025E-01  0.37794610E-01 -0.50533232E-01
  0.17549150E-01  0.87441349E-02 -0.30601592E-02
 -0.19832532E-01  0.30780660E-02 -0.23689588E-02
  0.72348826E-02 -0.49417963E-01 -0.15297758E-01
  0.13981612E-01 -0.40319902E-01 -0.24902745E-01
 -0.38979092E-01 -0.24543077E-01  0.12633210E-01
  0.29519749E-01 -0.25812796E-01 -0.24777934E-01
 -0.17026303E-02 -0.31707910E-01  0.24983095E-02
  0.42305438E-01  0.17675820E-02  0.15375102E-01
 -0.55487538E-01 -0.48987498E-02 -0.34983356E-01
 -0.51268712E-02 -0.27584984E-02 -0.31460894E-01
  0.20211155E-02  0.15708900E-01 -0.80546493E-02
  0.19215503E-01 -0.43855713E-02  0.86148617E-02
  0.71084605E-02 -0.58355973E-01  0.26876272E-01
 -0.11170695E-01  0.55670779E-02  0.18786980E-01
  0.10796037E-01  0.65257424E-02  0.57686173E-02
  0.36244972E-03 -0.15170396E-01 -0.73185393E-02
 -0.67612386E-02 -0.24092527E-01  0.25649582E-01
 -0.33339876E-01 -0.57799088E-01  0.20008499E-01
  0.11863613E-01  0.14415870E-01 -0.22802570E-01
  0.22773966E-01  0.10917302E-01 -0.79822607E-02
 -0.59181848E-02 -0.64273806E-03 -0.94732794E-02
 -0.87001146E-02  0.98138577E-01  0.40938006E-02
  0.15800639E-01 -0.59469646E-02 -0.39591659E-01
  0.90950569E-02 -0.14425470E-01 -0.34134400E-02
  0.18199260E-02  0.37914145E-01 -0.19500887E-02
 -0.12676087E-01 -0.77059883E-02 -0.23776834E-01
  0.53219527E-01 -0.22770829E-01  0.24042589E-02
 -0.31903332E-01 -0.34622442E-01  0.24814306E-01
 -0.68714392E-02 -0.27998795E-01  0.93426079E-02
  0.24984038E-02  0.62880835E-02 -0.18746411E-01
 -0.54310912E-02  0.25761727E-01 -0.38872177E-02
 -0.74365600E-02 -0.22873495E-02  0.41664857E-02
 
           1
  0.400000000000000     
  0.10000000E+01  0.00000000E+00  0.00000000E+00  0.00000000E+00
  0.75184098E+00  0.77379326E-01  0.77157326E+00
  0.81274495E+00  0.18817576E-01  0.66694471E+00
  0.87294746E+00  0.86670080E+00  0.63616388E+00
  0.88768944E+00  0.80853999E+00  0.51308596E+00
  0.76894985E+00  0.86973931E+00  0.44266276E+00
  0.70685527E+00  0.82521889E+00  0.47728396E+00
  0.57186330E+00  0.91080043E+00  0.44507481E+00
  0.51710980E+00  0.58074937E-01  0.49298685E+00
  0.38952866E+00  0.16518948E+00  0.46151283E+00
  0.36554076E+00  0.19245586E+00  0.33390942E+00
  0.27293058E+00  0.34069923E+00  0.30045767E+00
  0.28983511E+00  0.42748246E+00  0.37348456E+00
  0.21424329E+00  0.56244836E+00  0.31026949E+00
  0.16155469E+00  0.68686692E+00  0.38844484E+00
  0.53971487E-01  0.83431714E+00  0.34881655E+00
  0.96843005E+00  0.83646435E+00  0.25871197E+00
  0.92483916E+00  0.93246911E+00  0.15312416E+00
  0.87665755E+00  0.83439327E-01  0.17973843E+00
  0.79516474E+00  0.18636652E+00  0.26948838E+00
  0.73092249E+00  0.14443929E+00  0.30368690E+00
  0.66877363E+00  0.12668024E+00  0.19064370E+00
  0.60311528E+00  0.23774855E+00  0.11060487E+00
  0.54776278E+00  0.20881398E+00  0.99831626E+00
  0.47421885E+00  0.17052020E+00  0.99025949E+00
  0.52691389E+00  0.20583123E-01  0.99237816E+00
  0.60961311E+00  0.93127053E+00  0.89641654E+00
  0.54964346E+00  0.97232607E+00  0.77071076E+00
  0.44017597E+00  0.99086199E+00  0.72376199E+00
  0.33814624E+00  0.12840474E+00  0.75580879E+00
  0.21709389E+00  0.17939545E+00  0.68318733E+00
  0.14418618E+00  0.18087401E+00  0.74697987E+00
  0.18846488E+00  0.55382778E-01  0.79077539E+00
  0.23292436E+00  0.92829169E+00  0.70240207E+00
  0.24756821E+00  0.79641140E+00  0.72737924E+00
  0.35967972E+00  0.66955926E+00  0.67245051E+00
  0.38540408E+00  0.53352187E+00  0.66778621E+00
  0.48489891E+00  0.43301734E+00  0.60016502E+00
  0.48213814E+00  0.47519562E+00  0.48491898E+00
  0.54498824E+00  0.54342617E+00  0.48818388E+00
  0.67846694E+00  0.42566795E+00  0.49626929E+00
  0.73919867E+00  0.49034697E+00  0.55042519E+00
  0.72699991E+00  0.54305342E+00  0.67295933E+00
  0.75534211E+00  0.43818195E+00  0.75377074E+00
  0.78275526E+00  0.46192967E+00  0.87921464E+00
  0.89957812E+00  0.44397634E+00  0.89693594E+00
  0.98488248E+00  0.38847330E+00  0.17886949E-02
  0.42654315E-02  0.49567534E+00  0.55348479E-01
  0.98730772E-01  0.49008632E+00  0.16675605E-01
  0.55253837E-01  0.54772124E+00  0.89061077E+00
  0.15285019E+00  0.50334479E+00  0.83017416E+00
  0.18408400E+00  0.60268827E+00  0.86488138E+00
  0.24369981E+00  0.58389342E+00  0.98228753E+00
  0.28955159E+00  0.65924376E+00  0.14566176E-01
  0.19735959E+00  0.80887275E+00  0.47121065E-01
  0.20493069E+00  0.85074934E+00  0.17134241E+00
  0.30117721E+00  0.85891906E+00  0.20756830E+00
  0.27823610E+00  0.97426410E+00  0.15809457E+00
  0.16871916E+00  0.11354886E+00  0.18277718E+00
  0.12284286E+00  0.18905398E+00  0.28600464E+00
  0.56210825E-01  0.15630737E+00  0.33198771E+00
  0.99552297E+00  0.25370271E+00  0.42687001E+00
  0.98288291E+00  0.38510170E+00  0.44552402E+00
  0.90929832E+00  0.49058640E+00  0.35930980E+00
  0.87036753E+00  0.45341873E+00  0.24637041E+00
  0.75659190E+00  0.48290436E+00  0.23562834E+00
  0.64321330E+00  0.63365136E+00  0.25113653E+00
  0.82235433E+00  0.92502910E-01  0.87153724E+00
  0.63371377E+00  0.73517985E+00  0.18564633E+00
  0.76152118E+00  0.99102478E+00  0.78273139E+00
  0.65971819E+00  0.17691501E+00  0.75057062E+00
  0.75522682E+00  0.51323644E-01  0.58460974E+00
  0.88247683E+00  0.22787681E-01  0.67483655E+00
  0.95633399E+00  0.81906889E+00  0.68831862E+00
  0.84117664E+00  0.82400428E+00  0.67600941E+00
  0.95745406E+00  0.79920471E+00  0.48571104E+00
  0.93871168E+00  0.69315095E+00  0.49481917E+00
  0.71179385E+00  0.98309721E+00  0.43837320E+00
  0.77522312E+00  0.84275596E+00  0.35258553E+00
  0.71093122E+00  0.83816872E+00  0.56734573E+00
  0.76582209E+00  0.70767366E+00  0.47077517E+00
  0.54621653E+00  0.89241615E+00  0.35544116E+00
  0.53898393E+00  0.87486943E+00  0.49632919E+00
  0.55726187E+00  0.93063346E-01  0.46360491E+00
  0.54994603E+00  0.46931388E-01  0.58792506E+00
  0.35500561E+00  0.11584488E+00  0.47459283E+00
  0.34583484E+00  0.25119225E+00  0.52261580E+00
  0.33536318E+00  0.14374702E+00  0.27505488E+00
  0.43709527E+00  0.16313652E+00  0.29916544E+00
  0.27583825E+00  0.34840129E+00  0.21318806E+00
  0.18786305E+00  0.36342549E+00  0.29555608E+00
  0.37622859E+00  0.37871770E+00  0.39345930E+00
  0.25766580E+00  0.46093723E+00  0.46191294E+00
  0.14517449E+00  0.56696992E+00  0.25676063E+00
  0.27184255E+00  0.56060121E+00  0.26522235E+00
  0.13906579E+00  0.66116214E+00  0.45199820E+00
  0.24319155E+00  0.68297256E+00  0.43498840E+00
  0.97153368E-01  0.86594852E+00  0.32238203E+00
  0.19512859E-01  0.88810779E+00  0.42745883E+00
  0.18020559E-01  0.73156109E+00  0.22506046E+00
  0.89230713E+00  0.87517516E+00  0.29933217E+00
  0.98969435E+00  0.89503612E+00  0.10935022E+00
  0.86754215E+00  0.92055649E+00  0.97941253E-01
  0.83454576E+00  0.14242335E+00  0.10359403E+00
  0.94875926E+00  0.84357724E-01  0.19065089E+00
  0.85017156E+00  0.19334738E+00  0.33063337E+00
  0.73993940E+00  0.29101047E+00  0.24285669E+00
  0.78036100E+00  0.55062912E-01  0.36341431E+00
  0.66922288E+00  0.23911062E+00  0.35035710E+00
  0.60805151E+00  0.10923854E+00  0.20458397E+00
  0.73920163E+00  0.35612201E-01  0.13840888E+00
  0.53270156E+00  0.33539375E+00  0.14762014E+00
  0.65939670E+00  0.25169303E+00  0.82363477E-01
  0.61944408E+00  0.13701908E+00  0.93736222E+00
  0.49315531E+00  0.29966075E+00  0.94867160E+00
  0.40213699E+00  0.21844971E+00  0.92636713E+00
  0.41070672E+00  0.22441382E+00  0.55201710E-01
  0.59080102E+00  0.96790872E+00  0.79479335E-01
  0.46182771E+00  0.47155082E-02  0.98429077E+00
  0.66118145E+00  0.81715730E+00  0.87977621E+00
  0.67082310E+00  0.95081208E+00  0.90259437E+00
  0.60185567E+00  0.91885854E+00  0.70561558E+00
  0.54093363E+00  0.61240424E-01  0.77663017E+00
  0.42878943E+00  0.97239177E+00  0.63127116E+00
  0.46865903E+00  0.88894777E+00  0.74489159E+00
  0.35063034E+00  0.20061944E+00  0.76033834E+00
  0.32577287E+00  0.12004826E+00  0.83980604E+00
  0.17669837E+00  0.28333259E+00  0.64342201E+00
  0.24809949E+00  0.94609690E-01  0.61390257E+00
  0.97296370E-01  0.28866720E+00  0.80453192E+00
  0.64488863E-01  0.22823040E+00  0.69529045E+00
  0.26775646E+00  0.26600674E-01  0.84113650E+00
  0.13287085E+00  0.60291133E-01  0.83860189E+00
  0.16572940E+00  0.97560672E+00  0.61926834E+00
  0.31314553E+00  0.89904490E+00  0.67466000E+00
  0.17092590E+00  0.80329477E+00  0.68091840E+00
  0.25581750E+00  0.77817267E+00  0.81746910E+00
  0.43402225E+00  0.65111861E+00  0.71352124E+00
  0.34942360E+00  0.68778722E+00  0.58306307E+00
  0.30613850E+00  0.54045946E+00  0.62913602E+00
  0.41477072E+00  0.51194799E+00  0.75128744E+00
  0.48334748E+00  0.35051415E+00  0.56428567E+00
  0.56604676E+00  0.40773747E+00  0.64893138E+00
  0.39586270E+00  0.52533027E+00  0.42789303E+00
  0.54574535E+00  0.38051238E+00  0.43344132E+00
  0.50821035E+00  0.61953368E+00  0.41928770E+00
  0.53556555E+00  0.60065594E+00  0.56365620E+00
  0.68510359E+00  0.37518967E+00  0.56330869E+00
  0.71087737E+00  0.36696222E+00  0.41530245E+00
  0.71226352E+00  0.56749676E+00  0.48878520E+00
  0.82524045E+00  0.40785983E+00  0.53980205E+00
  0.65078273E+00  0.64466445E+00  0.68163327E+00
  0.78099609E+00  0.57282857E+00  0.70940490E+00
  0.69491472E+00  0.41782506E+00  0.73639280E+00
  0.83477513E+00  0.33855696E+00  0.72558899E+00
  0.71331981E+00  0.56336428E+00  0.91175707E+00
  0.81554816E+00  0.37510622E+00  0.92871453E+00
  0.95074513E+00  0.34590308E+00  0.82916586E+00
  0.88628704E+00  0.54149231E+00  0.88394256E+00
  0.67259386E-01  0.27544759E+00  0.98714703E+00
  0.95257606E+00  0.36446413E+00  0.51948625E-01
  0.92987000E+00  0.59385054E+00  0.17630257E-01
  0.70487339E-02  0.49389542E+00  0.14417033E+00
  0.18700112E+00  0.37976543E+00  0.24713994E-01
  0.10414589E+00  0.56509992E+00  0.66806527E-01
  0.98321438E+00  0.67130385E+00  0.88868115E+00
  0.12872608E-01  0.50344727E+00  0.85780057E+00
  0.23910736E+00  0.39974676E+00  0.85657252E+00
  0.10995611E+00  0.50183253E+00  0.73701226E+00
  0.22660699E+00  0.60104114E+00  0.80322342E+00
  0.11041178E+00  0.72117551E+00  0.86242635E+00
  0.31475152E+00  0.48093466E+00  0.99658283E+00
  0.19067584E+00  0.62090102E+00  0.47373663E-01
  0.38310767E+00  0.58154498E+00  0.54932342E-01
  0.31144909E+00  0.67770460E+00  0.94511370E+00
  0.19020755E+00  0.87168054E+00  0.99759430E+00
  0.11966892E+00  0.82342867E+00  0.28966611E-01
  0.21721033E+00  0.77120805E+00  0.21926285E+00
  0.13751504E+00  0.93984741E+00  0.19447826E+00
  0.30550449E+00  0.87071986E+00  0.30188704E+00
  0.39554202E+00  0.76307569E+00  0.18819701E+00
  0.27728476E+00  0.94883794E+00  0.66120726E-01
  0.35476281E+00  0.97095215E+00  0.17535167E+00
  0.84478632E-01  0.12112435E+00  0.13861952E+00
  0.15414978E+00  0.17689553E+00  0.11927821E+00
  0.19142754E+00  0.17382918E+00  0.33782535E+00
  0.77511927E-01  0.28978209E+00  0.26409471E+00
  0.28522031E-03  0.16176466E+00  0.24822520E+00
  0.10911023E+00  0.49118887E-01  0.34236687E+00
  0.33854356E-01  0.19901918E+00  0.50754670E+00
  0.90243877E+00  0.31292153E+00  0.39871757E+00
  0.96147633E+00  0.42406481E+00  0.53268180E+00
  0.69083377E-01  0.36836639E+00  0.46790793E+00
  0.94261886E+00  0.53916425E+00  0.34497777E+00
  0.83500984E+00  0.59368863E+00  0.40801030E+00
  0.92902703E+00  0.34771476E+00  0.21592074E+00
  0.87439503E+00  0.51102552E+00  0.18982647E+00
  0.73236280E+00  0.46304672E+00  0.14408871E+00
  0.76908429E+00  0.41290778E+00  0.28652975E+00
  0.56628989E+00  0.63308585E+00  0.20856114E+00
  0.61542766E+00  0.67810294E+00  0.33755216E+00
  0.81389169E+00  0.81678955E-01  0.96478126E+00
  0.91516284E+00  0.14641015E-01  0.86401546E+00
  0.79348031E+00  0.19663117E+00  0.87703127E+00
  0.67597022E+00  0.69050305E+00  0.10413652E+00
  0.70228393E+00  0.74623603E+00  0.21659854E+00
  0.54226769E+00  0.83711419E+00  0.15043647E+00
  0.00000000E+00  0.00000000E+00  0.00000000E+00
  0.00000000E+00  0.00000000E+00  0.00000000E+00
  0.00000000E+00  0.00000000E+00  0.00000000E+00
  0.00000000E+00  0.00000000E+00  0.00000000E+00
  0.00000000E+00  0.00000000E+00  0.00000000E+00
  0.00000000E+00  0.00000000E+00  0.00000000E+00
  0.00000000E+00  0.00000000E+00  0.00000000E+00
  0.00000000E+00  0.00000000E+00  0.00000000E+00
  0.00000000E+00  0.00000000E+00  0.00000000E+00
  0.00000000E+00  0.00000000E+00  0.00000000E+00
  0.00000000E+00  0.00000000E+00  0.00000000E+00
  0.00000000E+00  0.00000000E+00  0.00000000E+00
  0.00000000E+00  0.00000000E+00  0.00000000E+00
  0.00000000E+00  0.00000000E+00  0.00000000E+00
  0.00000000E+00  0.00000000E+00  0.00000000E+00
  0.00000000E+00  0.00000000E+00  0.00000000E+00
  0.00000000E+00  0.00000000E+00  0.00000000E+00
  0.00000000E+00  0.00000000E+00  0.00000000E+00
  0.00000000E+00  0.00000000E+00  0.00000000E+00
  0.00000000E+00  0.00000000E+00  0.00000000E+00
  0.00000000E+00  0.00000000E+00  0.00000000E+00
  0.00000000E+00  0.00000000E+00  0.00000000E+00
  0.00000000E+00  0.00000000E+00  0.00000000E+00
  0.00000000E+00  0.00000000E+00  0.00000000E+00
  0.00000000E+00  0.00000000E+00  0.00000000E+00
  0.00000000E+00  0.00000000E+00  0.00000000E+00
  0.00000000E+00  0.00000000E+00  0.00000000E+00
  0.00000000E+00  0.00000000E+00  0.00000000E+00
  0.00000000E+00  0.00000000E+00  0.00000000E+00
  0.00000000E+00  0.00000000E+00  0.00000000E+00
  0.00000000E+00  0.00000000E+00  0.00000000E+00
  0.00000000E+00  0.00000000E+00  0.00000000E+00
  0.00000000E+00  0.00000000E+00  0.00000000E+00
  0.00000000E+00  0.00000000E+00  0.00000000E+00
  0.00000000E+00  0.00000000E+00  0.00000000E+00
  0.00000000E+00  0.00000000E+00  0.00000000E+00
  0.00000000E+00  0.00000000E+00  0.00000000E+00
  0.00000000E+00  0.00000000E+00  0.00000000E+00
  0.00000000E+00  0.00000000E+00  0.00000000E+00
  0.00000000E+00  0.00000000E+00  0.00000000E+00
  0.00000000E+00  0.00000000E+00  0.00000000E+00
  0.00000000E+00  0.00000000E+00  0.00000000E+00
  0.00000000E+00  0.00000000E+00  0.00000000E+00
  0.00000000E+00  0.00000000E+00  0.00000000E+00
  0.00000000E+00  0.00000000E+00  0.00000000E+00
  0.00000000E+00  0.00000000E+00  0.00000000E+00
  0.00000000E+00  0.00000000E+00  0.00000000E+00
  0.00000000E+00  0.00000000E+00  0.00000000E+00
  0.00000000E+00  0.00000000E+00  0.00000000E+00
  0.00000000E+00  0.00000000E+00  0.00000000E+00
  0.00000000E+00  0.00000000E+00  0.00000000E+00
  0.00000000E+00  0.00000000E+00  0.00000000E+00
  0.00000000E+00  0.00000000E+00  0.00000000E+00
  0.00000000E+00  0.00000000E+00  0.00000000E+00
  0.00000000E+00  0.00000000E+00  0.00000000E+00
  0.00000000E+00  0.00000000E+00  0.00000000E+00
  0.00000000E+00  0.00000000E+00  0.00000000E+00
  0.00000000E+00  0.00000000E+00  0.00000000E+00
  0.00000000E+00  0.00000000E+00  0.00000000E+00
  0.00000000E+00  0.00000000E+00  0.00000000E+00
  0.00000000E+00  0.00000000E+00  0.00000000E+00
  0.00000000E+00  0.00000000E+00  0.00000000E+00
  0.00000000E+00  0.00000000E+00  0.00000000E+00
  0.00000000E+00  0.00000000E+00  0.00000000E+00
  0.00000000E+00  0.00000000E+00  0.00000000E+00
  0.00000000E+00  0.00000000E+00  0.00000000E+00
  0.00000000E+00  0.00000000E+00  0.00000000E+00
  0.00000000E+00  0.00000000E+00  0.00000000E+00
  0.00000000E+00  0.00000000E+00  0.00000000E+00
  0.00000000E+00  0.00000000E+00  0.00000000E+00
  0.00000000E+00  0.00000000E+00  0.00000000E+00
  0.00000000E+00  0.00000000E+00  0.00000000E+00
  0.00000000E+00  0.00000000E+00  0.00000000E+00
  0.00000000E+00  0.00000000E+00  0.00000000E+00
  0.00000000E+00  0.00000000E+00  0.00000000E+00
  0.00000000E+00  0.00000000E+00  0.00000000E+00
  0.00000000E+00  0.00000000E+00  0.00000000E+00
  0.00000000E+00  0.00000000E+00  0.00000000E+00
  0.00000000E+00  0.00000000E+00  0.00000000E+00
  0.00000000E+00  0.00000000E+00  0.00000000E+00
  0.00000000E+00  0.00000000E+00  0.00000000E+00
  0.00000000E+00  0.00000000E+00  0.00000000E+00
  0.00000000E+00  0.00000000E+00  0.00000000E+00
  0.00000000E+00  0.00000000E+00  0.00000000E+00
  0.00000000E+00  0.00000000E+00  0.00000000E+00
  0.00000000E+00  0.00000000E+00  0.00000000E+00
  0.00000000E+00  0.00000000E+00  0.00000000E+00
  0.00000000E+00  0.00000000E+00  0.00000000E+00
  0.00000000E+00  0.00000000E+00  0.00000000E+00
  0.00000000E+00  0.00000000E+00  0.00000000E+00
  0.00000000E+00  0.00000000E+00  0.00000000E+00
  0.00000000E+00  0.00000000E+00  0.00000000E+00
  0.00000000E+00  0.00000000E+00  0.00000000E+00
  0.00000000E+00  0.00000000E+00  0.00000000E+00
  0.00000000E+00  0.00000000E+00  0.00000000E+00
  0.00000000E+00  0.00000000E+00  0.00000000E+00
  0.00000000E+00  0.00000000E+00  0.00000000E+00
  0.00000000E+00  0.00000000E+00  0.00000000E+00
  0.00000000E+00  0.00000000E+00  0.00000000E+00
  0.00000000E+00  0.00000000E+00  0.00000000E+00
  0.00000000E+00  0.00000000E+00  0.00000000E+00
  0.00000000E+00  0.00000000E+00  0.00000000E+00
  0.00000000E+00  0.00000000E+00  0.00000000E+00
  0.00000000E+00  0.00000000E+00  0.00000000E+00
  0.00000000E+00  0.00000000E+00  0.00000000E+00
  0.00000000E+00  0.00000000E+00  0.00000000E+00
  0.00000000E+00  0.00000000E+00  0.00000000E+00
  0.00000000E+00  0.00000000E+00  0.00000000E+00
  0.00000000E+00  0.00000000E+00  0.00000000E+00
  0.00000000E+00  0.00000000E+00  0.00000000E+00
  0.00000000E+00  0.00000000E+00  0.00000000E+00
  0.00000000E+00  0.00000000E+00  0.00000000E+00
  0.00000000E+00  0.00000000E+00  0.00000000E+00
  0.00000000E+00  0.00000000E+00  0.00000000E+00
  0.00000000E+00  0.00000000E+00  0.00000000E+00
  0.00000000E+00  0.00000000E+00  0.00000000E+00
  0.00000000E+00  0.00000000E+00  0.00000000E+00
  0.00000000E+00  0.00000000E+00  0.00000000E+00
  0.00000000E+00  0.00000000E+00  0.00000000E+00
  0.00000000E+00  0.00000000E+00  0.00000000E+00
  0.00000000E+00  0.00000000E+00  0.00000000E+00
  0.00000000E+00  0.00000000E+00  0.00000000E+00
  0.00000000E+00  0.00000000E+00  0.00000000E+00
  0.00000000E+00  0.00000000E+00  0.00000000E+00
  0.00000000E+00  0.00000000E+00  0.00000000E+00
  0.00000000E+00  0.00000000E+00  0.00000000E+00
  0.00000000E+00  0.00000000E+00  0.00000000E+00
  0.00000000E+00  0.00000000E+00  0.00000000E+00
  0.00000000E+00  0.00000000E+00  0.00000000E+00
  0.00000000E+00  0.00000000E+00  0.00000000E+00
  0.00000000E+00  0.00000000E+00  0.00000000E+00
  0.00000000E+00  0.00000000E+00  0.00000000E+00
  0.00000000E+00  0.00000000E+00  0.00000000E+00
  0.00000000E+00  0.00000000E+00  0.00000000E+00
  0.00000000E+00  0.00000000E+00  0.00000000E+00
  0.00000000E+00  0.00000000E+00  0.00000000E+00
  0.00000000E+00  0.00000000E+00  0.00000000E+00
  0.00000000E+00  0.00000000E+00  0.00000000E+00
  0.00000000E+00  0.00000000E+00  0.00000000E+00
  0.00000000E+00  0.00000000E+00  0.00000000E+00
  0.00000000E+00  0.00000000E+00  0.00000000E+00
  0.00000000E+00  0.00000000E+00  0.00000000E+00
  0.00000000E+00  0.00000000E+00  0.00000000E+00
  0.00000000E+00  0.00000000E+00  0.00000000E+00
  0.00000000E+00  0.00000000E+00  0.00000000E+00
  0.00000000E+00  0.00000000E+00  0.00000000E+00
  0.00000000E+00  0.00000000E+00  0.00000000E+00
  0.00000000E+00  0.00000000E+00  0.00000000E+00
  0.00000000E+00  0.00000000E+00  0.00000000E+00
  0.00000000E+00  0.00000000E+00  0.00000000E+00
  0.00000000E+00  0.00000000E+00  0.00000000E+00
  0.00000000E+00  0.00000000E+00  0.00000000E+00
  0.00000000E+00  0.00000000E+00  0.00000000E+00
  0.00000000E+00  0.00000000E+00  0.00000000E+00
  0.00000000E+00  0.00000000E+00  0.00000000E+00
  0.00000000E+00  0.00000000E+00  0.00000000E+00
  0.00000000E+00  0.00000000E+00  0.00000000E+00
  0.00000000E+00  0.00000000E+00  0.00000000E+00
  0.00000000E+00  0.00000000E+00  0.00000000E+00
  0.00000000E+00  0.00000000E+00  0.00000000E+00
  0.00000000E+00  0.00000000E+00  0.00000000E+00
  0.00000000E+00  0.00000000E+00  0.00000000E+00
  0.00000000E+00  0.00000000E+00  0.00000000E+00
  0.00000000E+00  0.00000000E+00  0.00000000E+00
  0.00000000E+00  0.00000000E+00  0.00000000E+00
  0.00000000E+00  0.00000000E+00  0.00000000E+00
  0.00000000E+00  0.00000000E+00  0.00000000E+00
  0.00000000E+00  0.00000000E+00  0.00000000E+00
  0.00000000E+00  0.00000000E+00  0.00000000E+00
  0.00000000E+00  0.00000000E+00  0.00000000E+00
  0.00000000E+00  0.00000000E+00  0.00000000E+00
  0.00000000E+00  0.00000000E+00  0.00000000E+00
  0.00000000E+00  0.00000000E+00  0.00000000E+00
  0.00000000E+00  0.00000000E+00  0.00000000E+00
  0.00000000E+00  0.00000000E+00  0.00000000E+00
  0.00000000E+00  0.00000000E+00  0.00000000E+00
  0.00000000E+00  0.00000000E+00  0.00000000E+00
  0.00000000E+00  0.00000000E+00  0.00000000E+00
  0.00000000E+00  0.00000000E+00  0.00000000E+00
  0.00000000E+00  0.00000000E+00  0.00000000E+00
  0.00000000E+00  0.00000000E+00  0.00000000E+00
  0.00000000E+00  0.00000000E+00  0.00000000E+00
  0.00000000E+00  0.00000000E+00  0.00000000E+00
  0.00000000E+00  0.00000000E+00  0.00000000E+00
  0.00000000E+00  0.00000000E+00  0.00000000E+00
  0.00000000E+00  0.00000000E+00  0.00000000E+00
  0.00000000E+00  0.00000000E+00  0.00000000E+00
  0.00000000E+00  0.00000000E+00  0.00000000E+00
  0.00000000E+00  0.00000000E+00  0.00000000E+00
  0.00000000E+00  0.00000000E+00  0.00000000E+00
  0.00000000E+00  0.00000000E+00  0.00000000E+00
  0.00000000E+00  0.00000000E+00  0.00000000E+00
  0.00000000E+00  0.00000000E+00  0.00000000E+00
  0.00000000E+00  0.00000000E+00  0.00000000E+00
  0.00000000E+00  0.00000000E+00  0.00000000E+00
  0.00000000E+00  0.00000000E+00  0.00000000E+00
  0.00000000E+00  0.00000000E+00  0.00000000E+00
  0.00000000E+00  0.00000000E+00  0.00000000E+00
  0.00000000E+00  0.00000000E+00  0.00000000E+00
  0.00000000E+00  0.00000000E+00  0.00000000E+00
  0.00000000E+00  0.00000000E+00  0.00000000E+00
  0.00000000E+00  0.00000000E+00  0.00000000E+00
  0.00000000E+00  0.00000000E+00  0.00000000E+00
  0.00000000E+00  0.00000000E+00  0.00000000E+00
  0.00000000E+00  0.00000000E+00  0.00000000E+00
  0.00000000E+00  0.00000000E+00  0.00000000E+00
  0.00000000E+00  0.00000000E+00  0.00000000E+00
  0.00000000E+00  0.00000000E+00  0.00000000E+00
  0.00000000E+00  0.00000000E+00  0.00000000E+00
  0.00000000E+00  0.00000000E+00  0.00000000E+00
  0.00000000E+00  0.00000000E+00  0.00000000E+00
  0.00000000E+00  0.00000000E+00  0.00000000E+00
  0.00000000E+00  0.00000000E+00  0.00000000E+00
  0.00000000E+00  0.00000000E+00  0.00000000E+00
  0.00000000E+00  0.00000000E+00  0.00000000E+00
  0.00000000E+00  0.00000000E+00  0.00000000E+00
  0.00000000E+00  0.00000000E+00  0.00000000E+00
  0.00000000E+00  0.00000000E+00  0.00000000E+00
  0.00000000E+00  0.00000000E+00  0.00000000E+00
  0.00000000E+00  0.00000000E+00  0.00000000E+00
  0.00000000E+00  0.00000000E+00  0.00000000E+00
  0.00000000E+00  0.00000000E+00  0.00000000E+00
  0.00000000E+00  0.00000000E+00  0.00000000E+00
  0.00000000E+00  0.00000000E+00  0.00000000E+00
  0.00000000E+00  0.00000000E+00  0.00000000E+00
  0.00000000E+00  0.00000000E+00  0.00000000E+00
  0.00000000E+00  0.00000000E+00  0.00000000E+00
  0.00000000E+00  0.00000000E+00  0.00000000E+00
  0.00000000E+00  0.00000000E+00  0.00000000E+00
  0.00000000E+00  0.00000000E+00  0.00000000E+00
  0.00000000E+00  0.00000000E+00  0.00000000E+00
  0.00000000E+00  0.00000000E+00  0.00000000E+00
  0.00000000E+00  0.00000000E+00  0.00000000E+00
  0.00000000E+00  0.00000000E+00  0.00000000E+00
  0.00000000E+00  0.00000000E+00  0.00000000E+00
  0.00000000E+00  0.00000000E+00  0.00000000E+00
  0.00000000E+00  0.00000000E+00  0.00000000E+00
  0.00000000E+00  0.00000000E+00  0.00000000E+00
  0.00000000E+00  0.00000000E+00  0.00000000E+00
  0.00000000E+00  0.00000000E+00  0.00000000E+00
  0.00000000E+00  0.00000000E+00  0.00000000E+00
  0.00000000E+00  0.00000000E+00  0.00000000E+00
  0.00000000E+00  0.00000000E+00  0.00000000E+00
  0.00000000E+00  0.00000000E+00  0.00000000E+00
  0.00000000E+00  0.00000000E+00  0.00000000E+00
  0.00000000E+00  0.00000000E+00  0.00000000E+00
  0.00000000E+00  0.00000000E+00  0.00000000E+00
  0.00000000E+00  0.00000000E+00  0.00000000E+00
  0.00000000E+00  0.00000000E+00  0.00000000E+00
  0.00000000E+00  0.00000000E+00  0.00000000E+00
  0.00000000E+00  0.00000000E+00  0.00000000E+00
  0.00000000E+00  0.00000000E+00  0.00000000E+00
  0.00000000E+00  0.00000000E+00  0.00000000E+00
  0.00000000E+00  0.00000000E+00  0.00000000E+00
  0.00000000E+00  0.00000000E+00  0.00000000E+00
  0.00000000E+00  0.00000000E+00  0.00000000E+00
  0.00000000E+00  0.00000000E+00  0.00000000E+00
  0.00000000E+00  0.00000000E+00  0.00000000E+00
  0.00000000E+00  0.00000000E+00  0.00000000E+00
  0.00000000E+00  0.00000000E+00  0.00000000E+00
  0.00000000E+00  0.00000000E+00  0.00000000E+00
  0.00000000E+00  0.00000000E+00  0.00000000E+00
  0.00000000E+00  0.00000000E+00  0.00000000E+00
  0.00000000E+00  0.00000000E+00  0.00000000E+00
  0.00000000E+00  0.00000000E+00  0.00000000E+00
  0.00000000E+00  0.00000000E+00  0.00000000E+00
  0.00000000E+00  0.00000000E+00  0.00000000E+00
  0.00000000E+00  0.00000000E+00  0.00000000E+00
  0.00000000E+00  0.00000000E+00  0.00000000E+00
  0.00000000E+00  0.00000000E+00  0.00000000E+00
  0.00000000E+00  0.00000000E+00  0.00000000E+00
  0.00000000E+00  0.00000000E+00  0.00000000E+00
  0.00000000E+00  0.00000000E+00  0.00000000E+00
  0.00000000E+00  0.00000000E+00  0.00000000E+00
  0.00000000E+00  0.00000000E+00  0.00000000E+00
  0.00000000E+00  0.00000000E+00  0.00000000E+00
  0.00000000E+00  0.00000000E+00  0.00000000E+00
  0.00000000E+00  0.00000000E+00  0.00000000E+00
  0.00000000E+00  0.00000000E+00  0.00000000E+00
  0.00000000E+00  0.00000000E+00  0.00000000E+00
  0.00000000E+00  0.00000000E+00  0.00000000E+00
  0.00000000E+00  0.00000000E+00  0.00000000E+00
  0.00000000E+00  0.00000000E+00  0.00000000E+00
  0.00000000E+00  0.00000000E+00  0.00000000E+00
  0.00000000E+00  0.00000000E+00  0.00000000E+00
  0.00000000E+00  0.00000000E+00  0.00000000E+00
  0.00000000E+00  0.00000000E+00  0.00000000E+00
  0.00000000E+00  0.00000000E+00  0.00000000E+00
  0.00000000E+00  0.00000000E+00  0.00000000E+00
  0.00000000E+00  0.00000000E+00  0.00000000E+00
  0.00000000E+00  0.00000000E+00  0.00000000E+00
  0.00000000E+00  0.00000000E+00  0.00000000E+00
  0.00000000E+00  0.00000000E+00  0.00000000E+00
  0.00000000E+00  0.00000000E+00  0.00000000E+00
  0.00000000E+00  0.00000000E+00  0.00000000E+00
  0.00000000E+00  0.00000000E+00  0.00000000E+00
  0.00000000E+00  0.00000000E+00  0.00000000E+00
  0.00000000E+00  0.00000000E+00  0.00000000E+00
  0.00000000E+00  0.00000000E+00  0.00000000E+00
  0.00000000E+00  0.00000000E+00  0.00000000E+00
  0.00000000E+00  0.00000000E+00  0.00000000E+00
  0.00000000E+00  0.00000000E+00  0.00000000E+00
  0.00000000E+00  0.00000000E+00  0.00000000E+00
  0.00000000E+00  0.00000000E+00  0.00000000E+00
  0.00000000E+00  0.00000000E+00  0.00000000E+00
  0.00000000E+00  0.00000000E+00  0.00000000E+00
  0.00000000E+00  0.00000000E+00  0.00000000E+00
  0.00000000E+00  0.00000000E+00  0.00000000E+00
  0.00000000E+00  0.00000000E+00  0.00000000E+00
  0.00000000E+00  0.00000000E+00  0.00000000E+00
  0.00000000E+00  0.00000000E+00  0.00000000E+00
  0.00000000E+00  0.00000000E+00  0.00000000E+00
  0.00000000E+00  0.00000000E+00  0.00000000E+00
  0.00000000E+00  0.00000000E+00  0.00000000E+00
  0.00000000E+00  0.00000000E+00  0.00000000E+00
  0.00000000E+00  0.00000000E+00  0.00000000E+00
  0.00000000E+00  0.00000000E+00  0.00000000E+00
  0.00000000E+00  0.00000000E+00  0.00000000E+00
  0.00000000E+00  0.00000000E+00  0.00000000E+00
  0.00000000E+00  0.00000000E+00  0.00000000E+00
  0.00000000E+00  0.00000000E+00  0.00000000E+00
  0.00000000E+00  0.00000000E+00  0.00000000E+00
  0.00000000E+00  0.00000000E+00  0.00000000E+00
  0.00000000E+00  0.00000000E+00  0.00000000E+00
  0.00000000E+00  0.00000000E+00  0.00000000E+00
  0.00000000E+00  0.00000000E+00  0.00000000E+00
  0.00000000E+00  0.00000000E+00  0.00000000E+00
  0.00000000E+00  0.00000000E+00  0.00000000E+00
  0.00000000E+00  0.00000000E+00  0.00000000E+00
  0.00000000E+00  0.00000000E+00  0.00000000E+00
  0.00000000E+00  0.00000000E+00  0.00000000E+00
  0.00000000E+00  0.00000000E+00  0.00000000E+00
  0.00000000E+00  0.00000000E+00  0.00000000E+00
  0.00000000E+00  0.00000000E+00  0.00000000E+00
  0.00000000E+00  0.00000000E+00  0.00000000E+00
  0.00000000E+00  0.00000000E+00  0.00000000E+00
  0.00000000E+00  0.00000000E+00  0.00000000E+00
  0.00000000E+00  0.00000000E+00  0.00000000E+00
  0.00000000E+00  0.00000000E+00  0.00000000E+00
  0.00000000E+00  0.00000000E+00  0.00000000E+00
  0.00000000E+00  0.00000000E+00  0.00000000E+00
  0.00000000E+00  0.00000000E+00  0.00000000E+00
  0.00000000E+00  0.00000000E+00  0.00000000E+00
  0.00000000E+00  0.00000000E+00  0.00000000E+00
  0.00000000E+00  0.00000000E+00  0.00000000E+00
  0.00000000E+00  0.00000000E+00  0.00000000E+00
  0.00000000E+00  0.00000000E+00  0.00000000E+00
  0.00000000E+00  0.00000000E+00  0.00000000E+00
  0.00000000E+00  0.00000000E+00  0.00000000E+00
  0.00000000E+00  0.00000000E+00  0.00000000E+00
  0.00000000E+00  0.00000000E+00  0.00000000E+00
  0.00000000E+00  0.00000000E+00  0.00000000E+00
  0.00000000E+00  0.00000000E+00  0.00000000E+00
  0.00000000E+00  0.00000000E+00  0.00000000E+00
  0.00000000E+00  0.00000000E+00  0.00000000E+00
  0.00000000E+00  0.00000000E+00  0.00000000E+00
  0.00000000E+00  0.00000000E+00  0.00000000E+00
  0.00000000E+00  0.00000000E+00  0.00000000E+00
  0.00000000E+00  0.00000000E+00  0.00000000E+00
  0.00000000E+00  0.00000000E+00  0.00000000E+00
  0.00000000E+00  0.00000000E+00  0.00000000E+00
  0.00000000E+00  0.00000000E+00  0.00000000E+00
  0.00000000E+00  0.00000000E+00  0.00000000E+00
  0.00000000E+00  0.00000000E+00  0.00000000E+00
  0.00000000E+00  0.00000000E+00  0.00000000E+00
  0.00000000E+00  0.00000000E+00  0.00000000E+00
  0.00000000E+00  0.00000000E+00  0.00000000E+00
  0.00000000E+00  0.00000000E+00  0.00000000E+00
  0.00000000E+00  0.00000000E+00  0.00000000E+00
  0.00000000E+00  0.00000000E+00  0.00000000E+00
  0.00000000E+00  0.00000000E+00  0.00000000E+00
  0.00000000E+00  0.00000000E+00  0.00000000E+00
  0.00000000E+00  0.00000000E+00  0.00000000E+00
  0.00000000E+00  0.00000000E+00  0.00000000E+00
  0.00000000E+00  0.00000000E+00  0.00000000E+00
  0.00000000E+00  0.00000000E+00  0.00000000E+00
  0.00000000E+00  0.00000000E+00  0.00000000E+00
  0.00000000E+00  0.00000000E+00  0.00000000E+00
  0.00000000E+00  0.00000000E+00  0.00000000E+00
  0.00000000E+00  0.00000000E+00  0.00000000E+00
  0.00000000E+00  0.00000000E+00  0.00000000E+00
  0.00000000E+00  0.00000000E+00  0.00000000E+00
  0.00000000E+00  0.00000000E+00  0.00000000E+00
  0.00000000E+00  0.00000000E+00  0.00000000E+00
  0.00000000E+00  0.00000000E+00  0.00000000E+00
  0.00000000E+00  0.00000000E+00  0.00000000E+00
  0.00000000E+00  0.00000000E+00  0.00000000E+00
  0.00000000E+00  0.00000000E+00  0.00000000E+00
  0.00000000E+00  0.00000000E+00  0.00000000E+00
  0.00000000E+00  0.00000000E+00  0.00000000E+00
  0.00000000E+00  0.00000000E+00  0.00000000E+00
  0.00000000E+00  0.00000000E+00  0.00000000E+00
  0.00000000E+00  0.00000000E+00  0.00000000E+00
  0.00000000E+00  0.00000000E+00  0.00000000E+00
  0.00000000E+00  0.00000000E+00  0.00000000E+00
  0.00000000E+00  0.00000000E+00  0.00000000E+00
  0.00000000E+00  0.00000000E+00  0.00000000E+00
  0.00000000E+00  0.00000000E+00  0.00000000E+00
  0.00000000E+00  0.00000000E+00  0.00000000E+00
  0.00000000E+00  0.00000000E+00  0.00000000E+00
  0.00000000E+00  0.00000000E+00  0.00000000E+00
  0.00000000E+00  0.00000000E+00  0.00000000E+00
  0.00000000E+00  0.00000000E+00  0.00000000E+00
  0.00000000E+00  0.00000000E+00  0.00000000E+00
  0.00000000E+00  0.00000000E+00  0.00000000E+00
  0.00000000E+00  0.00000000E+00  0.00000000E+00
  0.00000000E+00  0.00000000E+00  0.00000000E+00
  0.00000000E+00  0.00000000E+00  0.00000000E+00
  0.00000000E+00  0.00000000E+00  0.00000000E+00
  0.00000000E+00  0.00000000E+00  0.00000000E+00
  0.00000000E+00  0.00000000E+00  0.00000000E+00
  0.00000000E+00  0.00000000E+00  0.00000000E+00
