POSCAR
1.0
       42.8053169250         0.0000000000         0.0000000000
       10.9651896266        33.3858463543         0.0000000000
       -4.0402589801         4.4435557781        41.6839666569
    C    H
 1836 3726
Cartesian
     6.076761358         4.066199949         8.358224632
     4.730008445         5.547385120        22.252879356
     3.383255291         7.028570556        36.147536565
     9.731824431        15.194814986         8.358224632
     8.385071518        16.676000157        22.252879356
     7.038318364        18.157185593        36.147536565
    13.386888076        26.323431764         8.358224632
    12.040135163        27.804616935        22.252879356
    10.693382009        29.285802371        36.147536565
    20.345200759         4.066199949         8.358224632
    18.998447846         5.547385120        22.252879356
    17.651694692         7.028570556        36.147536565
    24.000263831        15.194814986         8.358224632
    22.653510918        16.676000157        22.252879356
    21.306757764        18.157185593        36.147536565
    27.655327476        26.323431764         8.358224632
    26.308574563        27.804616935        22.252879356
    24.961821409        29.285802371        36.147536565
    34.613638883         4.066199949         8.358224632
    33.266885970         5.547385120        22.252879356
    31.920132816         7.028570556        36.147536565
    38.268701956        15.194814986         8.358224632
    36.921949043        16.676000157        22.252879356
    35.575195889        18.157185593        36.147536565
    41.923765601        26.323431764         8.358224632
    40.577012687        27.804616935        22.252879356
    39.230259534        29.285802371        36.147536565
     5.312858503         5.136082623         9.026031592
     3.966105590         6.617267794        22.920686316
     2.619352436         8.098453230        36.815343525
     8.967921657        16.264697908         9.026031592
     7.621168744        17.745883079        22.920686316
     6.274415590        19.227068515        36.815343525
    12.622984975        27.393313691         9.026031592
    11.276232062        28.874498862        22.920686316
     9.929478908        30.355684298        36.815343525
    19.581297903         5.136082623         9.026031592
    18.234544990         6.617267794        22.920686316
    16.887791836         8.098453230        36.815343525
    23.236361058        16.264697908         9.026031592
    21.889608145        17.745883079        22.920686316
    20.542854991        19.227068515        36.815343525
    26.891424375        27.393313691         9.026031592
    25.544671462        28.874498862        22.920686316
    24.197918309        30.355684298        36.815343525
    33.849736028         5.136082623         9.026031592
    32.502983115         6.617267794        22.920686316
    31.156229961         8.098453230        36.815343525
    37.504799182        16.264697908         9.026031592
    36.158046269        17.745883079        22.920686316
    34.811293115        19.227068515        36.815343525
    41.159862500        27.393313691         9.026031592
    39.813109587        28.874498862        22.920686316
    38.466356433        30.355684298        36.815343525
     4.393529205         4.885056478        10.247055832
     3.046776111         6.366241848        24.141712419
     1.700023198         7.847427019        38.036367143
     8.048592523        16.013672262        10.247055832
     6.701839429        17.494857631        24.141712419
     5.355086516        18.976042802        38.036367143
    11.703655514        27.142287050        10.247055832
    10.356902420        28.623472419        24.141712419
     9.010149507        30.104657590        38.036367143
    18.661967649         4.885056478        10.247055832
    17.315214555         6.366241848        24.141712419
    15.968461642         7.847427019        38.036367143
    22.317030966        16.013672262        10.247055832
    20.970277873        17.494857631        24.141712419
    19.623524960        18.976042802        38.036367143
    25.972093957        27.142287050        10.247055832
    24.625340864        28.623472419        24.141712419
    23.278587951        30.104657590        38.036367143
    32.930407049         4.885056478        10.247055832
    31.583653955         6.366241848        24.141712419
    30.236901042         7.847427019        38.036367143
    36.585470367        16.013672262        10.247055832
    35.238717273        17.494857631        24.141712419
    33.891964360        18.976042802        38.036367143
    40.240533358        27.142287050        10.247055832
    38.893780264        28.623472419        24.141712419
    37.547027351        30.104657590        38.036367143
     3.456362759         3.594075692        10.321564000
     2.109609786         5.075260929        24.216219345
     0.762856873         6.556446100        38.110874069
     7.111425914        14.722690977        10.321564000
     5.764672940        16.203876215        24.216219345
     4.417920027        17.685061386        38.110874069
    10.766489231        25.851306761        10.321564000
     9.419736258        27.332491998        24.216219345
     8.072983345        28.813677169        38.110874069
    17.724801841         3.594075692        10.321564000
    16.378048867         5.075260929        24.216219345
    15.031295954         6.556446100        38.110874069
    21.379864995        14.722690977        10.321564000
    20.033112022        16.203876215        24.216219345
    18.686359109        17.685061386        38.110874069
    25.034928313        25.851306761        10.321564000
    23.688175339        27.332491998        24.216219345
    22.341422426        28.813677169        38.110874069
    31.993239965         3.594075692        10.321564000
    30.646486992         5.075260929        24.216219345
    29.299734079         6.556446100        38.110874069
    35.648303120        14.722690977        10.321564000
    34.301550146        16.203876215        24.216219345
    32.954797233        17.685061386        38.110874069
    39.303366437        25.851306761        10.321564000
    37.956613464        27.332491998        24.216219345
    36.609860551        28.813677169        38.110874069
     2.162800230         3.617173502         9.479177086
     0.816047257         5.098358739        23.373832431
    -0.530705657         6.579543910        37.268487155
     5.817863303        14.745788538         9.479177086
     4.471110329        16.226973776        23.373832431
     3.124357416        17.708158947        37.268487155
     9.472926947        25.874405317         9.479177086
     8.126173974        27.355590554        23.373832431
     6.779421061        28.836775725        37.268487155
    16.431238833         3.617173502         9.479177086
    15.084485860         5.098358739        23.373832431
    13.737732946         6.579543910        37.268487155
    20.086301905        14.745788538         9.479177086
    18.739548932        16.226973776        23.373832431
    17.392796019        17.708158947        37.268487155
    23.741365550        25.874405317         9.479177086
    22.394612577        27.355590554        23.373832431
    21.047859664        28.836775725        37.268487155
    30.699676957         3.617173502         9.479177086
    29.352923984         5.098358739        23.373832431
    28.006171071         6.579543910        37.268487155
    34.354740030        14.745788538         9.479177086
    33.007987057        16.226973776        23.373832431
    31.661234144        17.708158947        37.268487155
    38.009803675        25.874405317         9.479177086
    36.663050701        27.355590554        23.373832431
    35.316297788        28.836775725        37.268487155
     2.518272080         3.045836771         8.016309074
     1.171519107         4.527022008        21.910964419
    -0.175233806         6.008207180        35.805619143
     6.173335153        14.174451808         8.016309074
     4.826582179        15.655637045        21.910964419
     3.479829266        17.136822216        35.805619143
     9.828398471        25.303067591         8.016309074
     8.481645497        26.784252828        21.910964419
     7.134892584        28.265438000        35.805619143
    16.786711640         3.045836771         8.016309074
    15.439958666         4.527022008        21.910964419
    14.093205753         6.008207180        35.805619143
    20.441774712        14.174451808         8.016309074
    19.095021739        15.655637045        21.910964419
    17.748268826        17.136822216        35.805619143
    24.096838030        25.303067591         8.016309074
    22.750085057        26.784252828        21.910964419
    21.403332144        28.265438000        35.805619143
    31.055151040         3.045836771         8.016309074
    29.708398067         4.527022008        21.910964419
    28.361645154         6.008207180        35.805619143
    34.710214113        14.174451808         8.016309074
    33.363461139        15.655637045        21.910964419
    32.016708226        17.136822216        35.805619143
    38.365277430        25.303067591         8.016309074
    37.018524457        26.784252828        21.910964419
    35.671771544        28.265438000        35.805619143
     1.434967082         2.813542696         6.973738835
     0.088214109         4.294727933        20.868394180
    -1.258538804         5.775913104        34.763048904
     5.090030400        13.942158479         6.973738835
     3.743277427        15.423343716        20.868394180
     2.396524513        16.904528887        34.763048904
     8.745093718        25.070774262         6.973738835
     7.398340744        26.551959499        20.868394180
     6.051587831        28.033144670        34.763048904
    15.703405526         2.813542696         6.973738835
    14.356652552         4.294727933        20.868394180
    13.009899639         5.775913104        34.763048904
    19.358468843        13.942158479         6.973738835
    18.011715870        15.423343716        20.868394180
    16.664962957        16.904528887        34.763048904
    23.013532161        25.070774262         6.973738835
    21.666779188        26.551959499        20.868394180
    20.320026275        28.033144670        34.763048904
    29.971844926         2.813542696         6.973738835
    28.625091952         4.294727933        20.868394180
    27.278339039         5.775913104        34.763048904
    33.626908244        13.942158479         6.973738835
    32.280155270        15.423343716        20.868394180
    30.933402357        16.904528887        34.763048904
    37.281971561        25.070774262         6.973738835
    35.935218588        26.551959499        20.868394180
    34.588465675        28.033144670        34.763048904
     1.927507899         2.226172974         5.554374191
     0.580754926         3.707358212        19.449029537
    -0.765998108         5.188543515        33.343685503
     5.582571176        13.354788633         5.554374191
     4.235818203        14.835973870        19.449029537
     2.889065169        16.317159174        33.343685503
     9.237634494        24.483404416         5.554374191
     7.890881521        25.964589653        19.449029537
     6.544128487        27.445774957        33.343685503
    16.195946821         2.226172974         5.554374191
    14.849193848         3.707358212        19.449029537
    13.502440814         5.188543515        33.343685503
    19.851010098        13.354788633         5.554374191
    18.504257125        14.835973870        19.449029537
    17.157504091        16.317159174        33.343685503
    23.506073416        24.483404416         5.554374191
    22.159320442        25.964589653        19.449029537
    20.812567409        27.445774957        33.343685503
    30.464386221         2.226172974         5.554374191
    29.117633248         3.707358212        19.449029537
    27.770880214         5.188543515        33.343685503
    34.119449498        13.354788633         5.554374191
    32.772696525        14.835973870        19.449029537
    31.425943491        16.317159174        33.343685503
    37.774512816        24.483404416         5.554374191
    36.427759843        25.964589653        19.449029537
    35.081006809        27.445774957        33.343685503
     1.170190490         2.783867593         4.344439776
    -0.176562544         4.265052896        18.239095743
    -1.523315457         5.746238068        32.133750467
     4.825253644        13.912482879         4.344439776
     3.478500611        15.393668182        18.239095743
     2.131747698        16.874853353        32.133750467
     8.480316962        25.041098662         4.344439776
     7.133563929        26.522283965        18.239095743
     5.786811016        28.003469136        32.133750467
    15.438628933         2.783867593         4.344439776
    14.091875900         4.265052896        18.239095743
    12.745122987         5.746238068        32.133750467
    19.093692088        13.912482879         4.344439776
    17.746939054        15.393668182        18.239095743
    16.400186141        16.874853353        32.133750467
    22.748755406        25.041098662         4.344439776
    21.402002372        26.522283965        18.239095743
    20.055249459        28.003469136        32.133750467
    29.707069609         2.783867593         4.344439776
    28.360316576         4.265052896        18.239095743
    27.013563663         5.746238068        32.133750467
    33.362132764        13.912482879         4.344439776
    32.015379730        15.393668182        18.239095743
    30.668626817        16.874853353        32.133750467
    37.017196082        25.041098662         4.344439776
    35.670443048        26.522283965        18.239095743
    34.323690135        28.003469136        32.133750467
     1.736548715         2.495103852         3.035629269
     0.389795682         3.976289156        16.930285235
    -0.956957231         5.457474327        30.824939959
     5.391611788        13.623718889         3.035629269
     4.044858754        15.104904193        16.930285235
     2.698105841        16.586089364        30.824939959
     9.046675432        24.752335667         3.035629269
     7.699922399        26.233520971        16.930285235
     6.353169486        27.714706142        30.824939959
    16.004987796         2.495103852         3.035629269
    14.658234763         3.976289156        16.930285235
    13.311481850         5.457474327        30.824939959
    19.660050869        13.623718889         3.035629269
    18.313297836        15.104904193        16.930285235
    16.966544923        16.586089364        30.824939959
    23.315114514        24.752335667         3.035629269
    21.968361480        26.233520971        16.930285235
    20.621608567        27.714706142        30.824939959
    30.273425921         2.495103852         3.035629269
    28.926672887         3.976289156        16.930285235
    27.579919974         5.457474327        30.824939959
    33.928488994        13.623718889         3.035629269
    32.581735960        15.104904193        16.930285235
    31.234983047        16.586089364        30.824939959
    37.583552638        24.752335667         3.035629269
    36.236799605        26.233520971        16.930285235
    34.890046692        27.714706142        30.824939959
     2.949884432         3.292121596         2.822699851
     1.603131489         4.773306800        16.717354885
     0.256378455         6.254492104        30.612010852
     6.604947668        14.420737130         2.822699851
     5.258194725        15.901922334        16.717354885
     3.911441691        17.383107638        30.612010852
    10.260010659        25.549351918         2.822699851
     8.913257716        27.030537123        16.717354885
     7.566504682        28.511722426        30.612010852
    17.218323673         3.292121596         2.822699851
    15.871570730         4.773306800        16.717354885
    14.524817696         6.254492104        30.612010852
    20.873386909        14.420737130         2.822699851
    19.526633966        15.901922334        16.717354885
    18.179880932        17.383107638        30.612010852
    24.528449900        25.549351918         2.822699851
    23.181696957        27.030537123        16.717354885
    21.834943923        28.511722426        30.612010852
    31.486763073         3.292121596         2.822699851
    30.140010130         4.773306800        16.717354885
    28.793257096         6.254492104        30.612010852
    35.141826309        14.420737130         2.822699851
    33.795073366        15.901922334        16.717354885
    32.448320332        17.383107638        30.612010852
    38.796889300        25.549351918         2.822699851
    37.450136357        27.030537123        16.717354885
    36.103383323        28.511722426        30.612010852
     3.502015904         3.225891622         1.413004175
     2.155262870         4.707076926        15.307660142
     0.808509957         6.188262097        29.202314866
     7.157078976        14.354506659         1.413004175
     5.810325943        15.835691962        15.307660142
     4.463573030        17.316877133        29.202314866
    10.812142294        25.483122442         1.413004175
     9.465389261        26.964307745        15.307660142
     8.118636348        28.445492917        29.202314866
    17.770454666         3.225891622         1.413004175
    16.423701633         4.707076926        15.307660142
    15.076948720         6.188262097        29.202314866
    21.425517739        14.354506659         1.413004175
    20.078764705        15.835691962        15.307660142
    18.732011792        17.316877133        29.202314866
    25.080581057        25.483122442         1.413004175
    23.733828023        26.964307745        15.307660142
    22.387075110        28.445492917        29.202314866
    32.038894066         3.225891622         1.413004175
    30.692141033         4.707076926        15.307660142
    29.345388120         6.188262097        29.202314866
    35.693957139        14.354506659         1.413004175
    34.347204106        15.835691962        15.307660142
    33.000451193        17.316877133        29.202314866
    39.349020457        25.483122442         1.413004175
    38.002267423        26.964307745        15.307660142
    36.655514510        28.445492917        29.202314866
     2.478990795         3.819989400         0.315916755
     1.132237784         5.301174679        14.210572488
    -0.214515250         6.782359982        28.105228455
     6.134053867        14.948604437         0.315916755
     4.787300857        16.429789715        14.210572488
     3.440547823        17.910975019        28.105228455
     9.789117512        26.077221215         0.315916755
     8.442364501        27.558406494        14.210572488
     7.095611468        29.039591797        28.105228455
    16.747429557         3.819989400         0.315916755
    15.400676546         5.301174679        14.210572488
    14.053923513         6.782359982        28.105228455
    20.402492630        14.948604437         0.315916755
    19.055739619        16.429789715        14.210572488
    17.708986585        17.910975019        28.105228455
    24.057556274        26.077221215         0.315916755
    22.710803264        27.558406494        14.210572488
    21.364050230        29.039591797        28.105228455
    31.015868957         3.819989400         0.315916755
    29.669115946         5.301174679        14.210572488
    28.322362913         6.782359982        28.105228455
    34.670932030        14.948604437         0.315916755
    33.324179019        16.429789715        14.210572488
    31.977425986        17.910975019        28.105228455
    38.325995675        26.077221215         0.315916755
    36.979242664        27.558406494        14.210572488
    35.632489630        29.039591797        28.105228455
     2.148741466         5.298111925         0.520918181
     0.801988508         6.779297146        14.415573371
    -0.544764526         8.260482450        28.310229338
     5.803804621        16.426727211         0.520918181
     4.457051662        17.907912432        14.415573371
     3.110298629        19.389097735        28.310229338
     9.458867938        27.555342994         0.520918181
     8.112114980        29.036528215        14.415573371
     6.765361947        30.517713518        28.310229338
    16.417180707         5.298111925         0.520918181
    15.070427749         6.779297146        14.415573371
    13.723674715         8.260482450        28.310229338
    20.072243861        16.426727211         0.520918181
    18.725490903        17.907912432        14.415573371
    17.378737870        19.389097735        28.310229338
    23.727307179        27.555342994         0.520918181
    22.380554221        29.036528215        14.415573371
    21.033801187        30.517713518        28.310229338
    30.685618832         5.298111925         0.520918181
    29.338865873         6.779297146        14.415573371
    27.992112840         8.260482450        28.310229338
    34.340681986        16.426727211         0.520918181
    32.993929028        17.907912432        14.415573371
    31.647175994        19.389097735        28.310229338
    37.995745304        27.555342994         0.520918181
    36.648992345        29.036528215        14.415573371
    35.302239312        30.517713518        28.310229338
    14.232969863         7.270656262        13.260809188
    12.886216950         8.751841434        27.155463912
    11.539463796        10.233026870        41.050121121
    17.888033017        18.399271548        13.260809188
    16.541280104        19.880456719        27.155463912
    15.194526950        21.361642155        41.050121121
    21.543096008        29.527886336        13.260809188
    20.196343095        31.009071507        27.155463912
    18.849589941        32.490256943        41.050121121
    28.501409263         7.270656262        13.260809188
    27.154656350         8.751841434        27.155463912
    25.807903196        10.233026870        41.050121121
    32.156472417        18.399271548        13.260809188
    30.809719504        19.880456719        27.155463912
    29.462966350        21.361642155        41.050121121
    35.811535408        29.527886336        13.260809188
    34.464782495        31.009071507        27.155463912
    33.118029341        32.490256943        41.050121121
    42.769847387         7.270656262        13.260809188
    41.423094474         8.751841434        27.155463912
    40.076341320        10.233026870        41.050121121
    46.424910542        18.399271548        13.260809188
    45.078157629        19.880456719        27.155463912
    43.731404475        21.361642155        41.050121121
    50.079973533        29.527886336        13.260809188
    48.733220620        31.009071507        27.155463912
    47.386467466        32.490256943        41.050121121
    13.385205119         6.286151560        12.549828063
    12.038452206         7.767336731        26.444482788
    10.691699052         9.248522167        40.339139996
    17.040268273        17.414766846        12.549828063
    15.693515360        18.895952017        26.444482788
    14.346762206        20.377137453        40.339139996
    20.695331264        28.543381634        12.549828063
    19.348578351        30.024566805        26.444482788
    18.001825197        31.505752241        40.339139996
    27.653644519         6.286151560        12.549828063
    26.306891606         7.767336731        26.444482788
    24.960138452         9.248522167        40.339139996
    31.308707673        17.414766846        12.549828063
    29.961954760        18.895952017        26.444482788
    28.615201606        20.377137453        40.339139996
    34.963770664        28.543381634        12.549828063
    33.617017751        30.024566805        26.444482788
    32.270264597        31.505752241        40.339139996
    41.922082643         6.286151560        12.549828063
    40.575329730         7.767336731        26.444482788
    39.228576576         9.248522167        40.339139996
    45.577145798        17.414766846        12.549828063
    44.230392885        18.895952017        26.444482788
    42.883639731        20.377137453        40.339139996
    49.232208789        28.543381634        12.549828063
    47.885455876        30.024566805        26.444482788
    46.538702722        31.505752241        40.339139996
    12.392229195         6.781662997        11.432620459
    11.045476161         8.262848301        25.327276426
     9.698723248         9.744033472        39.221931150
    16.047292513        17.910278780        11.432620459
    14.700539479        19.391464084        25.327276426
    13.353786566        20.872649255        39.221931150
    19.702355830        29.038894563        11.432620459
    18.355602797        30.520079867        25.327276426
    17.008849884        32.001265038        39.221931150
    26.660668595         6.781662997        11.432620459
    25.313915562         8.262848301        25.327276426
    23.967162648         9.744033472        39.221931150
    30.315731913        17.910278780        11.432620459
    28.968978879        19.391464084        25.327276426
    27.622225966        20.872649255        39.221931150
    33.970795231        29.038894563        11.432620459
    32.624042197        30.520079867        25.327276426
    31.277289284        32.001265038        39.221931150
    40.929106720         6.781662997        11.432620459
    39.582353686         8.262848301        25.327276426
    38.235600773         9.744033472        39.221931150
    44.584170037        17.910278780        11.432620459
    43.237417004        19.391464084        25.327276426
    41.890664091        20.872649255        39.221931150
    48.239233355        29.038894563        11.432620459
    46.892480322        30.520079867        25.327276426
    45.545727409        32.001265038        39.221931150
    11.743070125         5.756667143        10.478884351
    10.396317212         7.237852314        24.373539075
     9.049564058         8.719037750        38.268196284
    15.398133443        16.885282926        10.478884351
    14.051380530        18.366468097        24.373539075
    12.704627376        19.847653533        38.268196284
    19.053196434        28.013897714        10.478884351
    17.706443521        29.495082885        24.373539075
    16.359690367        30.976268321        38.268196284
    26.011509526         5.756667143        10.478884351
    24.664756613         7.237852314        24.373539075
    23.318003459         8.719037750        38.268196284
    29.666572844        16.885282926        10.478884351
    28.319819930        18.366468097        24.373539075
    26.973066777        19.847653533        38.268196284
    33.321635835        28.013897714        10.478884351
    31.974882921        29.495082885        24.373539075
    30.628129768        30.976268321        38.268196284
    40.279947650         5.756667143        10.478884351
    38.933194737         7.237852314        24.373539075
    37.586441583         8.719037750        38.268196284
    43.935010968        16.885282926        10.478884351
    42.588258055        18.366468097        24.373539075
    41.241504901        19.847653533        38.268196284
    47.590073959        28.013897714        10.478884351
    46.243321046        29.495082885        24.373539075
    44.896567892        30.976268321        38.268196284
    11.076173931         6.578276133         9.441290061
     9.729420958         8.059461371        23.335945406
     8.382668045         9.540646542        37.230600130
    14.731236922        17.706890922         9.441290061
    13.384483949        19.188076159        23.335945406
    12.037731036        20.669261330        37.230600130
    18.386300567        28.835507700         9.441290061
    17.039547593        30.316692937        23.335945406
    15.692794680        31.797878108        37.230600130
    25.344612693         6.578276133         9.441290061
    23.997859720         8.059461371        23.335945406
    22.651106807         9.540646542        37.230600130
    28.999675684        17.706890922         9.441290061
    27.652922711        19.188076159        23.335945406
    26.306169798        20.669261330        37.230600130
    32.654739329        28.835507700         9.441290061
    31.307986356        30.316692937        23.335945406
    29.961233443        31.797878108        37.230600130
    39.613050818         6.578276133         9.441290061
    38.266297845         8.059461371        23.335945406
    36.919544932         9.540646542        37.230600130
    43.268113809        17.706890922         9.441290061
    41.921360836        19.188076159        23.335945406
    40.574607923        20.669261330        37.230600130
    46.923177454        28.835507700         9.441290061
    45.576424480        30.316692937        23.335945406
    44.229671567        31.797878108        37.230600130
    10.043433557         7.555422998        10.006979201
     8.696680583         9.036608235        23.901634546
     7.349927670        10.517793406        37.796289270
    13.698496711        18.684038284        10.006979201
    12.351743738        20.165223521        23.901634546
    11.004990825        21.646408692        37.796289270
    17.353559702        29.812653072        10.006979201
    16.006806729        31.293838309        23.901634546
    14.660053816        32.775023480        37.796289270
    24.311871681         7.555422998        10.006979201
    22.965118708         9.036608235        23.901634546
    21.618365795        10.517793406        37.796289270
    27.966934836        18.684038284        10.006979201
    26.620181862        20.165223521        23.901634546
    25.273428949        21.646408692        37.796289270
    31.621997827        29.812653072        10.006979201
    30.275244853        31.293838309        23.901634546
    28.928491940        32.775023480        37.796289270
    38.580312357         7.555422998        10.006979201
    37.233559384         9.036608235        23.901634546
    35.886806471        10.517793406        37.796289270
    42.235375512        18.684038284        10.006979201
    40.888622538        20.165223521        23.901634546
    39.541869625        21.646408692        37.796289270
    45.890438503        29.812653072        10.006979201
    44.543685529        31.293838309        23.901634546
    43.196932616        32.775023480        37.796289270
     8.942066019         6.870235012        10.885069835
     7.595313106         8.351420184        24.779724559
     6.248559952         9.832605619        38.674381768
    12.597129173        17.998850298        10.885069835
    11.250376260        19.480035469        24.779724559
     9.903623106        20.961220905        38.674381768
    16.252192164        29.127465086        10.885069835
    14.905439251        30.608650257        24.779724559
    13.558686097        32.089835693        38.674381768
    23.210504781         6.870235012        10.885069835
    21.863751868         8.351420184        24.779724559
    20.516998714         9.832605619        38.674381768
    26.865567936        17.998850298        10.885069835
    25.518815023        19.480035469        24.779724559
    24.172061869        20.961220905        38.674381768
    30.520630927        29.127465086        10.885069835
    29.173878014        30.608650257        24.779724559
    27.827124860        32.089835693        38.674381768
    37.478942906         6.870235012        10.885069835
    36.132189993         8.351420184        24.779724559
    34.785436839         9.832605619        38.674381768
    41.134006060        17.998850298        10.885069835
    39.787253147        19.480035469        24.779724559
    38.440499993        20.961220905        38.674381768
    44.789069051        29.127465086        10.885069835
    43.442316138        30.608650257        24.779724559
    42.095562984        32.089835693        38.674381768
     7.693810125         7.669539579        11.202658465
     6.347057212         9.150724750        25.097313189
     5.000304058        10.631910186        38.991970397
    11.348873116        18.798154367        11.202658465
    10.002120203        20.279339538        25.097313189
     8.655367049        21.760524974        38.991970397
    15.003936761        29.926771145        11.202658465
    13.657183848        31.407956316        25.097313189
    12.310430694        32.889141752        38.991970397
    21.962249526         7.669539579        11.202658465
    20.615496613         9.150724750        25.097313189
    19.268743459        10.631910186        38.991970397
    25.617312517        18.798154367        11.202658465
    24.270559604        20.279339538        25.097313189
    22.923806450        21.760524974        38.991970397
    29.272376161        29.926771145        11.202658465
    27.925623248        31.407956316        25.097313189
    26.578870094        32.889141752        38.991970397
    36.230688926         7.669539579        11.202658465
    34.883936013         9.150724750        25.097313189
    33.537182859        10.631910186        38.991970397
    39.885751917        18.798154367        11.202658465
    38.538999004        20.279339538        25.097313189
    37.192245850        21.760524974        38.991970397
    43.540815561        29.926771145        11.202658465
    42.194062648        31.407956316        25.097313189
    40.847309494        32.889141752        38.991970397
     7.632739635         9.126968661        11.749297256
     6.285986601        10.608153965        25.643953223
     4.939233688        12.089339136        39.538607947
    11.287802626        20.255583450        11.749297256
     9.941049592        21.736768753        25.643953223
     8.594296679        23.217953924        39.538607947
    14.942866270        31.384200228        11.749297256
    13.596113237        32.865385531        25.643953223
    12.249360324        34.346570702        39.538607947
    21.901179035         9.126968661        11.749297256
    20.554426002        10.608153965        25.643953223
    19.207673089        12.089339136        39.538607947
    25.556242026        20.255583450        11.749297256
    24.209488993        21.736768753        25.643953223
    22.862736080        23.217953924        39.538607947
    29.211305671        31.384200228        11.749297256
    27.864552637        32.865385531        25.643953223
    26.517799724        34.346570702        39.538607947
    36.169617160         9.126968661        11.749297256
    34.822864126        10.608153965        25.643953223
    33.476111213        12.089339136        39.538607947
    39.824680151        20.255583450        11.749297256
    38.477927117        21.736768753        25.643953223
    37.131174204        23.217953924        39.538607947
    43.479743795        31.384200228        11.749297256
    42.132990762        32.865385531        25.643953223
    40.786237849        34.346570702        39.538607947
     6.454682535         9.932197135        11.071055153
     5.107929501        11.413382439        24.965711119
     3.761176588        12.894567610        38.860365843
    10.109745853        21.060812918        11.071055153
     8.762992819        22.541998222        24.965711119
     7.416239906        24.023183393        38.860365843
    13.764808844        32.189427706        11.071055153
    12.418055810        33.670613010        24.965711119
    11.071302897        35.151798181        38.860365843
    20.723121616         9.932197135        11.071055153
    19.376368583        11.413382439        24.965711119
    18.029615670        12.894567610        38.860365843
    24.378184934        21.060812918        11.071055153
    23.031431900        22.541998222        24.965711119
    21.684678987        24.023183393        38.860365843
    28.033247925        32.189427706        11.071055153
    26.686494891        33.670613010        24.965711119
    25.339741978        35.151798181        38.860365843
    34.991559741         9.932197135        11.071055153
    33.644806707        11.413382439        24.965711119
    32.298053794        12.894567610        38.860365843
    38.646623058        21.060812918        11.071055153
    37.299870025        22.541998222        24.965711119
    35.953117112        24.023183393        38.860365843
    42.301686049        32.189427706        11.071055153
    40.954933016        33.670613010        24.965711119
    39.608180103        35.151798181        38.860365843
     6.558281702        10.127007826         9.506368089
     5.211528728        11.608193064        23.401023434
     3.864775815        13.089378235        37.295678158
    10.213345019        21.255623610         9.506368089
     8.866592046        22.736808847        23.401023434
     7.519839133        24.217994018        37.295678158
    13.868408010        32.384238398         9.506368089
    12.521655037        33.865423635        23.401023434
    11.174902124        35.346608806        37.295678158
    20.826720783        10.127007826         9.506368089
    19.479967810        11.608193064        23.401023434
    18.133214896        13.089378235        37.295678158
    24.481784101        21.255623610         9.506368089
    23.135031127        22.736808847        23.401023434
    21.788278214        24.217994018        37.295678158
    28.136847092        32.384238398         9.506368089
    26.790094118        33.865423635        23.401023434
    25.443341205        35.346608806        37.295678158
    35.095158907        10.127007826         9.506368089
    33.748405934        11.608193064        23.401023434
    32.401653021        13.089378235        37.295678158
    38.750222225        21.255623610         9.506368089
    37.403469252        22.736808847        23.401023434
    36.056716339        24.217994018        37.295678158
    42.405285216        32.384238398         9.506368089
    41.058532243        33.865423635        23.401023434
    39.711779330        35.346608806        37.295678158
     5.218166237        10.731097384         8.981910810
     3.871413324        12.212282555        22.876565534
     2.524660170        13.693467991        36.771222743
     8.873229555        21.859713167         8.981910810
     7.526476642        23.340898338        22.876565534
     6.179723488        24.822083774        36.771222743
    12.528292546        32.988327955         8.981910810
    11.181539633        34.469513126        22.876565534
     9.834786479        35.950698562        36.771222743
    19.486605318        10.731097384         8.981910810
    18.139852405        12.212282555        22.876565534
    16.793099251        13.693467991        36.771222743
    23.141668636        21.859713167         8.981910810
    21.794915723        23.340898338        22.876565534
    20.448162569        24.822083774        36.771222743
    26.796731627        32.988327955         8.981910810
    25.449978714        34.469513126        22.876565534
    24.103225560        35.950698562        36.771222743
    33.755044719        10.731097384         8.981910810
    32.408291806        12.212282555        22.876565534
    31.061538652        13.693467991        36.771222743
    37.410108036        21.859713167         8.981910810
    36.063355123        23.340898338        22.876565534
    34.716601969        24.822083774        36.771222743
    41.065171027        32.988327955         8.981910810
    39.718418114        34.469513126        22.876565534
    38.371664960        35.950698562        36.771222743
     4.089136844         9.721974280         9.228535494
     2.742383930        11.203159451        23.123190218
     1.395630777        12.684344887        37.017847426
     7.744200161        20.850590063         9.228535494
     6.397447248        22.331775234        23.123190218
     5.050694094        23.812960670        37.017847426
    11.399263152        31.979204851         9.228535494
    10.052510239        33.460390022        23.123190218
     8.705757085        34.941575458        37.017847426
    18.357576403         9.721974280         9.228535494
    17.010823490        11.203159451        23.123190218
    15.664070336        12.684344887        37.017847426
    22.012639721        20.850590063         9.228535494
    20.665886808        22.331775234        23.123190218
    19.319133654        23.812960670        37.017847426
    25.667702712        31.979204851         9.228535494
    24.320949799        33.460390022        23.123190218
    22.974196645        34.941575458        37.017847426
    32.626014528         9.721974280         9.228535494
    31.279261615        11.203159451        23.123190218
    29.932508461        12.684344887        37.017847426
    36.281077846        20.850590063         9.228535494
    34.934324933        22.331775234        23.123190218
    33.587571779        23.812960670        37.017847426
    39.936140837        31.979204851         9.228535494
    38.589387924        33.460390022        23.123190218
    37.242634770        34.941575458        37.017847426
     3.962523879         8.317694879         8.468311050
     2.615770785         9.798880249        22.362967638
     1.269017872        11.280065420        36.257622362
     7.617587360        19.446311160         8.468311050
     6.270834266        20.927496530        22.362967638
     4.924081353        22.408681701        36.257622362
    11.272650351        30.574925948         8.468311050
     9.925897257        32.056111318        22.362967638
     8.579144344        33.537296489        36.257622362
    18.230963279         8.317694879         8.468311050
    16.884210186         9.798880249        22.362967638
    15.537457272        11.280065420        36.257622362
    21.886026760        19.446311160         8.468311050
    20.539273667        20.927496530        22.362967638
    19.192520754        22.408681701        36.257622362
    25.541089751        30.574925948         8.468311050
    24.194336658        32.056111318        22.362967638
    22.847583745        33.537296489        36.257622362
    32.499402679         8.317694879         8.468311050
    31.152649586         9.798880249        22.362967638
    29.805896673        11.280065420        36.257622362
    36.154466161        19.446311160         8.468311050
    34.807713067        20.927496530        22.362967638
    33.460960154        22.408681701        36.257622362
    39.809529152        30.574925948         8.468311050
    38.462776058        32.056111318        22.362967638
    37.116023145        33.537296489        36.257622362
     4.358110509         8.574092117         6.986315668
     3.011357536        10.055277355        20.880971013
     1.664604623        11.536462526        34.775625737
     8.013173990        19.702708398         6.986315668
     6.666421017        21.183893635        20.880971013
     5.319668104        22.665078806        34.775625737
    11.668236981        30.831323186         6.986315668
    10.321484008        32.312508423        20.880971013
     8.974731095        33.793693594        34.775625737
    18.626550069         8.574092117         6.986315668
    17.279797096        10.055277355        20.880971013
    15.933044182        11.536462526        34.775625737
    22.281613550        19.702708398         6.986315668
    20.934860577        21.183893635        20.880971013
    19.588107664        22.665078806        34.775625737
    25.936676541        30.831323186         6.986315668
    24.589923568        32.312508423        20.880971013
    23.243170655        33.793693594        34.775625737
    32.894988193         8.574092117         6.986315668
    31.548235220        10.055277355        20.880971013
    30.201482307        11.536462526        34.775625737
    36.550051675        19.702708398         6.986315668
    35.203298701        21.183893635        20.880971013
    33.856545788        22.665078806        34.775625737
    40.205114666        30.831323186         6.986315668
    38.858361692        32.312508423        20.880971013
    37.511608779        33.793693594        34.775625737
     4.411012040         7.444464832         6.055071021
     3.064259067         8.925650070        19.949726366
     1.717506154        10.406835241        33.844381090
     8.066075031        18.573079620         6.055071021
     6.719322058        20.054264858        19.949726366
     5.372569145        21.535450029        33.844381090
    11.721138676        29.701696399         6.055071021
    10.374385703        31.182881636        19.949726366
     9.027632790        32.664066807        33.844381090
    18.679450484         7.444464832         6.055071021
    17.332697511         8.925650070        19.949726366
    15.985944597        10.406835241        33.844381090
    22.334513475        18.573079620         6.055071021
    20.987760502        20.054264858        19.949726366
    19.641007588        21.535450029        33.844381090
    25.989577119        29.701696399         6.055071021
    24.642824146        31.182881636        19.949726366
    23.296071233        32.664066807        33.844381090
    32.947891160         7.444464832         6.055071021
    31.601138186         8.925650070        19.949726366
    30.254385273        10.406835241        33.844381090
    36.602954151        18.573079620         6.055071021
    35.256201177        20.054264858        19.949726366
    33.909448264        21.535450029        33.844381090
    40.258017795        29.701696399         6.055071021
    38.911264822        31.182881636        19.949726366
    37.564511909        32.664066807        33.844381090
     4.033481078         7.754145432         4.638662380
     2.686728045         9.235330736        18.533318346
     1.339975011        10.716516039        32.427974313
     7.688544233        18.882760718         4.638662380
     6.341791199        20.363946021        18.533318346
     4.995038166        21.845131325        32.427974313
    11.343607224        30.011375506         4.638662380
     9.996854190        31.492560809        18.533318346
     8.650101157        32.973746113        32.427974313
    18.301919681         7.754145432         4.638662380
    16.955166648         9.235330736        18.533318346
    15.608413614        10.716516039        32.427974313
    21.956982836        18.882760718         4.638662380
    20.610229802        20.363946021        18.533318346
    19.263476769        21.845131325        32.427974313
    25.612045827        30.011375506         4.638662380
    24.265292793        31.492560809        18.533318346
    22.918539760        32.973746113        32.427974313
    32.570359081         7.754145432         4.638662380
    31.223606048         9.235330736        18.533318346
    29.876853014        10.716516039        32.427974313
    36.225422236        18.882760718         4.638662380
    34.878669202        20.363946021        18.533318346
    33.531916169        21.845131325        32.427974313
    39.880485227        30.011375506         4.638662380
    38.533732193        31.492560809        18.533318346
    37.186979160        32.973746113        32.427974313
     5.134495518         8.664385729         3.955203636
     3.787742575        10.145570933        17.849858671
     2.440989542        11.626756237        31.744514637
     8.789558673        19.793001015         3.955203636
     7.442805729        21.274186219        17.849858671
     6.096052696        22.755371522        31.744514637
    12.444621664        30.921615803         3.955203636
    11.097868720        32.402801007        17.849858671
     9.751115687        33.883986310        31.744514637
    19.402934281         8.664385729         3.955203636
    18.056181337        10.145570933        17.849858671
    16.709428304        11.626756237        31.744514637
    23.057997435        19.793001015         3.955203636
    21.711244492        21.274186219        17.849858671
    20.364491458        22.755371522        31.744514637
    26.713060426        30.921615803         3.955203636
    25.366307483        32.402801007        17.849858671
    24.019554449        33.883986310        31.744514637
    33.671373681         8.664385729         3.955203636
    32.324620738        10.145570933        17.849858671
    30.977867704        11.626756237        31.744514637
    37.326436835        19.793001015         3.955203636
    35.979683892        21.274186219        17.849858671
    34.632930859        22.755371522        31.744514637
    40.981499826        30.921615803         3.955203636
    39.634746883        32.402801007        17.849858671
    38.287993850        33.883986310        31.744514637
     5.491089077         8.651980525         2.457739706
     4.144336044        10.133165829        16.352395672
     2.797583010        11.614351132        30.247051639
     9.146152395        19.780596308         2.457739706
     7.799399362        21.261781612        16.352395672
     6.452646328        22.742966915        30.247051639
    12.801215386        30.909211096         2.457739706
    11.454462353        32.390396400        16.352395672
    10.107709319        33.871581703        30.247051639
    19.759527521         8.651980525         2.457739706
    18.412774487        10.133165829        16.352395672
    17.066021454        11.614351132        30.247051639
    23.414590839        19.780596308         2.457739706
    22.067837805        21.261781612        16.352395672
    20.721084772        22.742966915        30.247051639
    27.069653830        30.909211096         2.457739706
    25.722900796        32.390396400        16.352395672
    24.376147763        33.871581703        30.247051639
    34.027966921         8.651980525         2.457739706
    32.681213888        10.133165829        16.352395672
    31.334460854        11.614351132        30.247051639
    37.683030239        19.780596308         2.457739706
    36.336277205        21.261781612        16.352395672
    34.989524172        22.742966915        30.247051639
    41.338093230        30.909211096         2.457739706
    39.991340196        32.390396400        16.352395672
    38.644587163        33.871581703        30.247051639
     5.835406849         7.173957457         1.950143725
     4.488653861         8.655142711        15.844799226
     3.141900948        10.136327882        29.739453950
     9.490469840        18.302572245         1.950143725
     8.143716852        19.783757499        15.844799226
     6.796963939        21.264942670        29.739453950
    13.145533485        29.431189023         1.950143725
    11.798780496        30.912374277        15.844799226
    10.452027583        32.393559448        29.739453950
    20.103846249         7.173957457         1.950143725
    18.757093261         8.655142711        15.844799226
    17.410340348        10.136327882        29.739453950
    23.758909240        18.302572245         1.950143725
    22.412156252        19.783757499        15.844799226
    21.065403339        21.264942670        29.739453950
    27.413972885        29.431189023         1.950143725
    26.067219897        30.912374277        15.844799226
    24.720466984        32.393559448        29.739453950
    34.372284374         7.173957457         1.950143725
    33.025531386         8.655142711        15.844799226
    31.678778473        10.136327882        29.739453950
    38.027347365        18.302572245         1.950143725
    36.680594377        19.783757499        15.844799226
    35.333841464        21.264942670        29.739453950
    41.682411010        29.431189023         1.950143725
    40.335658021        30.912374277        15.844799226
    38.988905108        32.393559448        29.739453950
     6.311311734         6.172811662         2.951356477
     4.964558790         7.653996867        16.846011511
     3.617805637         9.135182303        30.740668720
     9.966374888        17.301426948         2.951356477
     8.619621945        18.782612152        16.846011511
     7.272868791        20.263797588        30.740668720
    13.621437879        28.430041736         2.951356477
    12.274684936        29.911226940        16.846011511
    10.927931782        31.392412376        30.740668720
    20.579750177         6.172811662         2.951356477
    19.232997234         7.653996867        16.846011511
    17.886244080         9.135182303        30.740668720
    24.234813331        17.301426948         2.951356477
    22.888060388        18.782612152        16.846011511
    21.541307234        20.263797588        30.740668720
    27.889876322        28.430041736         2.951356477
    26.543123379        29.911226940        16.846011511
    25.196370225        31.392412376        30.740668720
    34.848190853         6.172811662         2.951356477
    33.501437910         7.653996867        16.846011511
    32.154684756         9.135182303        30.740668720
    38.503254007        17.301426948         2.951356477
    37.156501064        18.782612152        16.846011511
    35.809747910        20.263797588        30.740668720
    42.158316998        28.430041736         2.951356477
    40.811564055        29.911226940        16.846011511
    39.464810901        31.392412376        30.740668720
     7.402352899         5.139691713         2.494089411
     6.055599925         6.620876951        16.388744756
     4.708846892         8.102062254        30.283400723
    11.057416216        16.268307496         2.494089411
     9.710663243        17.749492734        16.388744756
     8.363910210        19.230678037        30.283400723
    14.712479534        27.396923280         2.494089411
    13.365726561        28.878108517        16.388744756
    12.018973527        30.359293820        30.283400723
    21.670791661         5.139691713         2.494089411
    20.324038688         6.620876951        16.388744756
    18.977285654         8.102062254        30.283400723
    25.325854979        16.268307496         2.494089411
    23.979102005        17.749492734        16.388744756
    22.632348972        19.230678037        30.283400723
    28.980918296        27.396923280         2.494089411
    27.634165323        28.878108517        16.388744756
    26.287412290        30.359293820        30.283400723
    35.939231061         5.139691713         2.494089411
    34.592478088         6.620876951        16.388744756
    33.245725054         8.102062254        30.283400723
    39.594294379        16.268307496         2.494089411
    38.247541406        17.749492734        16.388744756
    36.900788372        19.230678037        30.283400723
    43.249357697        27.396923280         2.494089411
    41.902604723        28.878108517        16.388744756
    40.555851690        30.359293820        30.283400723
     8.152603425         4.433916788         3.765591485
     6.805850422         5.915102059        17.660247141
     5.459097388         7.396287362        31.554903107
    11.807666661        15.562532323         3.765591485
    10.460913658        17.043717593        17.660247141
     9.114160624        18.524902897        31.554903107
    15.462729652        26.691147111         3.765591485
    14.115976649        28.172332381        17.660247141
    12.769223615        29.653517685        31.554903107
    22.421042188         4.433916788         3.765591485
    21.074289184         5.915102059        17.660247141
    19.727536151         7.396287362        31.554903107
    26.076105424        15.562532323         3.765591485
    24.729352420        17.043717593        17.660247141
    23.382599387        18.524902897        31.554903107
    29.731168415        26.691147111         3.765591485
    28.384415411        28.172332381        17.660247141
    27.037662378        29.653517685        31.554903107
    36.689480312         4.433916788         3.765591485
    35.342727309         5.915102059        17.660247141
    33.995974275         7.396287362        31.554903107
    40.344543548        15.562532323         3.765591485
    38.997790545        17.043717593        17.660247141
    37.651037511        18.524902897        31.554903107
    43.999606539        26.691147111         3.765591485
    42.652853536        28.172332381        17.660247141
    41.306100502        29.653517685        31.554903107
     9.015388606         5.437599667         4.545070011
     7.668635663         6.918784871        18.439725045
     6.321882630         8.399970175        32.334381012
    12.670451761        16.566214953         4.545070011
    11.323698818        18.047400157        18.439725045
     9.976945784        19.528585460        32.334381012
    16.325514752        27.694829741         4.545070011
    14.978761809        29.176014945        18.439725045
    13.632008775        30.657200248        32.334381012
    23.283828644         5.437599667         4.545070011
    21.937075701         6.918784871        18.439725045
    20.590322668         8.399970175        32.334381012
    26.938891799        16.566214953         4.545070011
    25.592138856        18.047400157        18.439725045
    24.245385822        19.528585460        32.334381012
    30.593954790        27.694829741         4.545070011
    29.247201847        29.176014945        18.439725045
    27.900448813        30.657200248        32.334381012
    37.552266769         5.437599667         4.545070011
    36.205513826         6.918784871        18.439725045
    34.858760792         8.399970175        32.334381012
    41.207329923        16.566214953         4.545070011
    39.860576980        18.047400157        18.439725045
    38.513823947        19.528585460        32.334381012
    44.862392914        27.694829741         4.545070011
    43.515639971        29.176014945        18.439725045
    42.168886938        30.657200248        32.334381012
    10.102743195         6.296313422         3.870709408
     8.755990192         7.777498693        17.765365064
     7.409237279         9.258683864        31.660019788
    13.757806186        17.424928210         3.870709408
    12.411053183        18.906113481        17.765365064
    11.064300270        20.387298652        31.660019788
    17.412869831        28.553544988         3.870709408
    16.066116828        30.034730259        17.765365064
    14.719363914        31.515915430        31.660019788
    24.371181958         6.296313422         3.870709408
    23.024428954         7.777498693        17.765365064
    21.677676041         9.258683864        31.660019788
    28.026244949        17.424928210         3.870709408
    26.679491945        18.906113481        17.765365064
    25.332739032        20.387298652        31.660019788
    31.681308593        28.553544988         3.870709408
    30.334555590        30.034730259        17.765365064
    28.987802677        31.515915430        31.660019788
    38.639620082         6.296313422         3.870709408
    37.292867079         7.777498693        17.765365064
    35.946114166         9.258683864        31.660019788
    42.294683073        17.424928210         3.870709408
    40.947930070        18.906113481        17.765365064
    39.601177157        20.387298652        31.660019788
    45.949746718        28.553544988         3.870709408
    44.602993714        30.034730259        17.765365064
    43.256240801        31.515915430        31.660019788
    11.173255220         5.534134370         3.068919551
     9.826502277         7.015319575        16.963574586
     8.479749244         8.496504878        30.858230552
    14.828318375        16.662749656         3.068919551
    13.481565432        18.143934860        16.963574586
    12.134812398        19.625120164        30.858230552
    18.483381366        27.791364444         3.068919551
    17.136628423        29.272549648        16.963574586
    15.789875389        30.753734952        30.858230552
    25.441693345         5.534134370         3.068919551
    24.094940402         7.015319575        16.963574586
    22.748187368         8.496504878        30.858230552
    29.096756499        16.662749656         3.068919551
    27.750003556        18.143934860        16.963574586
    26.403250523        19.625120164        30.858230552
    32.751819490        27.791364444         3.068919551
    31.405066547        29.272549648        16.963574586
    30.058313514        30.753734952        30.858230552
    39.710134021         5.534134370         3.068919551
    38.363381078         7.015319575        16.963574586
    37.016628044         8.496504878        30.858230552
    43.365197175        16.662749656         3.068919551
    42.018444232        18.143934860        16.963574586
    40.671691199        19.625120164        30.858230552
    47.020260166        27.791364444         3.068919551
    45.673507223        29.272549648        16.963574586
    44.326754190        30.753734952        30.858230552
    12.390214586         5.136660684         3.799596078
    11.043461553         6.617845987        17.694252044
     9.696708640         8.099031158        31.588906768
    16.045277741        16.265275969         3.799596078
    14.698524707        17.746461273        17.694252044
    13.351771794        19.227646444        31.588906768
    19.700341058        27.393891752         3.799596078
    18.353588025        28.875077056        17.694252044
    17.006835112        30.356262227        31.588906768
    26.658652711         5.136660684         3.799596078
    25.311899677         6.617845987        17.694252044
    23.965146764         8.099031158        31.588906768
    30.313715865        16.265275969         3.799596078
    28.966962832        17.746461273        17.694252044
    27.620209919        19.227646444        31.588906768
    33.968779183        27.393891752         3.799596078
    32.622026149        28.875077056        17.694252044
    31.275273236        30.356262227        31.588906768
    40.927093387         5.136660684         3.799596078
    39.580340353         6.617845987        17.694252044
    38.233587440         8.099031158        31.588906768
    44.582156541        16.265275969         3.799596078
    43.235403508        17.746461273        17.694252044
    41.888650595        19.227646444        31.588906768
    48.237219859        27.393891752         3.799596078
    46.890466825        28.875077056        17.694252044
    45.543713912        30.356262227        31.588906768
    13.178372414         6.349002300         4.417874615
    11.831619380         7.830187604        18.312530582
    10.484866347         9.311372908        32.207186548
    16.833435405        17.477617089         4.417874615
    15.486682371        18.958802392        18.312530582
    14.139929338        20.439987696        32.207186548
    20.488499049        28.606233867         4.417874615
    19.141746016        30.087419170        18.312530582
    17.794992982        31.568604474        32.207186548
    27.446811814         6.349002300         4.417874615
    26.100058780         7.830187604        18.312530582
    24.753305747         9.311372908        32.207186548
    31.101874805        17.477617089         4.417874615
    29.755121771        18.958802392        18.312530582
    28.408368738        20.439987696        32.207186548
    34.756938450        28.606233867         4.417874615
    33.410185416        30.087419170        18.312530582
    32.063432383        31.568604474        32.207186548
    41.715249939         6.349002300         4.417874615
    40.368496905         7.830187604        18.312530582
    39.021743872         9.311372908        32.207186548
    45.370312930        17.477617089         4.417874615
    44.023559896        18.958802392        18.312530582
    42.676806863        20.439987696        32.207186548
    49.025376574        28.606233867         4.417874615
    47.678623541        30.087419170        18.312530582
    46.331870507        31.568604474        32.207186548
    13.538191306         7.620263111         3.578857073
    12.191438302         9.101448381        17.473512729
    10.844685269        10.582633685        31.368168695
    17.193254297        18.748877899         3.578857073
    15.846501293        20.230063169        17.473512729
    14.499748260        21.711248473        31.368168695
    20.848317941        29.877494677         3.578857073
    19.501564938        31.358679948        17.473512729
    18.154811904        32.839865251        31.368168695
    27.806630706         7.620263111         3.578857073
    26.459877703         9.101448381        17.473512729
    25.113124669        10.582633685        31.368168695
    31.461693697        18.748877899         3.578857073
    30.114940694        20.230063169        17.473512729
    28.768187660        21.711248473        31.368168695
    35.116757341        29.877494677         3.578857073
    33.770004338        31.358679948        17.473512729
    32.423251305        32.839865251        31.368168695
    42.075068830         7.620263111         3.578857073
    40.728315827         9.101448381        17.473512729
    39.381562794        10.582633685        31.368168695
    45.730131821        18.748877899         3.578857073
    44.383378818        20.230063169        17.473512729
    43.036625785        21.711248473        31.368168695
    49.385195466        29.877494677         3.578857073
    48.038442463        31.358679948        17.473512729
    46.691689429        32.839865251        31.368168695
    13.695646305         7.425461305         2.025506737
    12.348893331         8.906646542        15.920162082
    11.002140298        10.387831846        29.814818048
    17.350709459        18.554076591         2.025506737
    16.003956486        20.035261828        15.920162082
    14.657203452        21.516447131        29.814818048
    21.005772450        29.682691379         2.025506737
    19.659019477        31.163876616        15.920162082
    18.312266443        32.645061920        29.814818048
    27.964085705         7.425461305         2.025506737
    26.617332732         8.906646542        15.920162082
    25.270579698        10.387831846        29.814818048
    31.619148859        18.554076591         2.025506737
    30.272395886        20.035261828        15.920162082
    28.925642852        21.516447131        29.814818048
    35.274211850        29.682691379         2.025506737
    33.927458877        31.163876616        15.920162082
    32.580705843        32.645061920        29.814818048
    42.232523829         7.425461305         2.025506737
    40.885770856         8.906646542        15.920162082
    39.539017823        10.387831846        29.814818048
    45.887586984        18.554076591         2.025506737
    44.540834011        20.035261828        15.920162082
    43.194080977        21.516447131        29.814818048
    49.542649975        29.682691379         2.025506737
    48.195897002        31.163876616        15.920162082
    46.849143968        32.645061920        29.814818048
    13.757084198         8.709877019         1.240510706
    12.410331232        10.191062248        15.135165974
    11.063578199        11.672247552        29.029821940
    17.412147516        19.838492802         1.240510706
    16.065394550        21.319678031        15.135165974
    14.718641517        22.800863335        29.029821940
    21.067210507        30.967107590         1.240510706
    19.720457541        32.448292819        15.135165974
    18.373704508        33.929478123        29.029821940
    28.025523598         8.709877019         1.240510706
    26.678770633        10.191062248        15.135165974
    25.332017599        11.672247552        29.029821940
    31.680586916        19.838492802         1.240510706
    30.333833951        21.319678031        15.135165974
    28.987080917        22.800863335        29.029821940
    35.335649907        30.967107590         1.240510706
    33.988896942        32.448292819        15.135165974
    32.642143908        33.929478123        29.029821940
    42.293961723         8.709877019         1.240510706
    40.947208757        10.191062248        15.135165974
    39.600455724        11.672247552        29.029821940
    45.949025041        19.838492802         1.240510706
    44.602272075        21.319678031        15.135165974
    43.255519042        22.800863335        29.029821940
    49.604088032        30.967107590         1.240510706
    48.257335066        32.448292819        15.135165974
    46.910582033        33.929478123        29.029821940
    14.732833908         9.812296268         1.784456780
    13.386080874        11.293481572        15.679112747
    12.039327841        12.774666875        29.573768713
    18.387897226        20.940912051         1.784456780
    17.041144192        22.422097355        15.679112747
    15.694391159        23.903282658        29.573768713
    22.042960217        32.069526839         1.784456780
    20.696207183        33.550712143        15.679112747
    19.349454150        35.031897446        29.573768713
    29.001273308         9.812296268         1.784456780
    27.654520275        11.293481572        15.679112747
    26.307767241        12.774666875        29.573768713
    32.656336626        20.940912051         1.784456780
    31.309583592        22.422097355        15.679112747
    29.962830559        23.903282658        29.573768713
    36.311399617        32.069526839         1.784456780
    34.964646583        33.550712143        15.679112747
    33.617893550        35.031897446        29.573768713
    43.269711433         9.812296268         1.784456780
    41.922958399        11.293481572        15.679112747
    40.576205366        12.774666875        29.573768713
    46.924774751        20.940912051         1.784456780
    45.578021717        22.422097355        15.679112747
    44.231268684        23.903282658        29.573768713
    50.579837742        32.069526839         1.784456780
    49.233084708        33.550712143        15.679112747
    47.886331675        35.031897446        29.573768713
    15.314899879        10.943095626         0.835687536
    13.968146868        12.424280905        14.730343270
    12.621393955        13.905466076        28.624997994
    18.969963197        22.071711409         0.835687536
    17.623210186        23.552896688        14.730343270
    16.276457273        25.034081859        28.624997994
    22.625026188        33.200326198         0.835687536
    21.278273177        34.681511476        14.730343270
    19.931520264        36.162696647        28.624997994
    29.583339279        10.943095626         0.835687536
    28.236586268        12.424280905        14.730343270
    26.889833355        13.905466076        28.624997994
    33.238402597        22.071711409         0.835687536
    31.891649586        23.552896688        14.730343270
    30.544896673        25.034081859        28.624997994
    36.893465588        33.200326198         0.835687536
    35.546712577        34.681511476        14.730343270
    34.199959664        36.162696647        28.624997994
    43.851777404        10.943095626         0.835687536
    42.505024393        12.424280905        14.730343270
    41.158271480        13.905466076        28.624997994
    47.506840722        22.071711409         0.835687536
    46.160087711        23.552896688        14.730343270
    44.813334798        25.034081859        28.624997994
    51.161903713        33.200326198         0.835687536
    49.815150702        34.681511476        14.730343270
    48.468397789        36.162696647        28.624997994
    12.096110713         1.092969218         1.586405983
    10.749357755         2.574154439        15.481061173
     9.402604722         4.055339742        29.375717139
    15.751173786        12.221584255         1.586405983
    14.404420828        13.702769476        15.481061173
    13.057667794        15.183954779        29.375717139
    19.406237431        23.350201033         1.586405983
    18.059484472        24.831386254        15.481061173
    16.712731439        26.312571557        29.375717139
    26.364550114         1.092969218         1.586405983
    25.017797155         2.574154439        15.481061173
    23.671044122         4.055339742        29.375717139
    30.019613186        12.221584255         1.586405983
    28.672860228        13.702769476        15.481061173
    27.326107195        15.183954779        29.375717139
    33.674676831        23.350201033         1.586405983
    32.327923873        24.831386254        15.481061173
    30.981170839        26.312571557        29.375717139
    40.632988238         1.092969218         1.586405983
    39.286235280         2.574154439        15.481061173
    37.939482246         4.055339742        29.375717139
    44.288051311        12.221584255         1.586405983
    42.941298353        13.702769476        15.481061173
    41.594545319        15.183954779        29.375717139
    47.943114956        23.350201033         1.586405983
    46.596361997        24.831386254        15.481061173
    45.249608964        26.312571557        29.375717139
    11.385144781         1.379322326         2.912897382
    10.038391778         2.860507597        16.807553038
     8.691638865         4.341692768        30.702207762
    15.040207977        12.507937736         2.912897382
    13.693454973        13.989123007        16.807553038
    12.346702060        15.470308178        30.702207762
    18.695270968        23.636552524         2.912897382
    17.348517964        25.117737795        16.807553038
    16.001765051        26.598922966        30.702207762
    25.653584182         1.379322326         2.912897382
    24.306831178         2.860507597        16.807553038
    22.960078265         4.341692768        30.702207762
    29.308647377        12.507937736         2.912897382
    27.961894373        13.989123007        16.807553038
    26.615141460        15.470308178        30.702207762
    32.963710368        23.636552524         2.912897382
    31.616957364        25.117737795        16.807553038
    30.270204451        26.598922966        30.702207762
    39.922022306         1.379322326         2.912897382
    38.575269303         2.860507597        16.807553038
    37.228516390         4.341692768        30.702207762
    43.577085501        12.507937736         2.912897382
    42.230332498        13.989123007        16.807553038
    40.883579585        15.470308178        30.702207762
    47.232148492        23.636552524         2.912897382
    45.885395489        25.117737795        16.807553038
    44.538642576        26.598922966        30.702207762
    11.951350022         0.814468032         4.193936742
    10.604597018         2.295653302        18.088592398
     9.257843985         3.776838606        31.983248364
    15.606413329        11.943083784         4.193936742
    14.259660326        13.424269054        18.088592398
    12.912907292        14.905454358        31.983248364
    19.261476320        23.071698572         4.193936742
    17.914723317        24.552883842        18.088592398
    16.567970283        26.034069146        31.983248364
    26.219789422         0.814468032         4.193936742
    24.873036419         2.295653302        18.088592398
    23.526283385         3.776838606        31.983248364
    29.874852730        11.943083784         4.193936742
    28.528099726        13.424269054        18.088592398
    27.181346693        14.905454358        31.983248364
    33.529915721        23.071698572         4.193936742
    32.183162717        24.552883842        18.088592398
    30.836409684        26.034069146        31.983248364
    40.488227546         0.814468032         4.193936742
    39.141474543         2.295653302        18.088592398
    37.794721510         3.776838606        31.983248364
    44.143290854        11.943083784         4.193936742
    42.796537851        13.424269054        18.088592398
    41.449784817        14.905454358        31.983248364
    47.798353845        23.071698572         4.193936742
    46.451600842        24.552883842        18.088592398
    45.104847808        26.034069146        31.983248364
    11.663624822         1.612058906         5.478853566
    10.316871849         3.093244143        19.373508911
     8.970118815         4.574429447        33.268164877
    15.318688058        12.740674440         5.478853566
    13.971935085        14.221859678        19.373508911
    12.625182051        15.703044981        33.268164877
    18.973751376        23.869290224         5.478853566
    17.626998403        25.350475461        19.373508911
    16.280245369        26.831660764        33.268164877
    25.932064222         1.612058906         5.478853566
    24.585311249         3.093244143        19.373508911
    23.238558216         4.574429447        33.268164877
    29.587127458        12.740674440         5.478853566
    28.240374485        14.221859678        19.373508911
    26.893621452        15.703044981        33.268164877
    33.242190776        23.869290224         5.478853566
    31.895437803        25.350475461        19.373508911
    30.548684769        26.831660764        33.268164877
    40.200502347         1.612058906         5.478853566
    38.853749374         3.093244143        19.373508911
    37.506996340         4.574429447        33.268164877
    43.855565583        12.740674440         5.478853566
    42.508812610        14.221859678        19.373508911
    41.162059576        15.703044981        33.268164877
    47.510628901        23.869290224         5.478853566
    46.163875927        25.350475461        19.373508911
    44.817122894        26.831660764        33.268164877
    11.803515436         0.989228183         6.866367418
    10.456762462         2.470413421        20.761022763
     9.110009429         3.951598724        34.655678729
    15.458578718        12.117843858         6.866367418
    14.111825744        13.599029095        20.761022763
    12.765072711        15.080214399        34.655678729
    19.113641709        23.246458646         6.866367418
    17.766888735        24.727643883        20.761022763
    16.420135702        26.208829187        34.655678729
    26.071953560         0.989228183         6.866367418
    24.725200587         2.470413421        20.761022763
    23.378447553         3.951598724        34.655678729
    29.727016842        12.117843858         6.866367418
    28.380263869        13.599029095        20.761022763
    27.033510836        15.080214399        34.655678729
    33.382079833        23.246458646         6.866367418
    32.035326860        24.727643883        20.761022763
    30.688573827        26.208829187        34.655678729
    40.340394236         0.989228183         6.866367418
    38.993641263         2.470413421        20.761022763
    37.646888229         3.951598724        34.655678729
    43.995457518        12.117843858         6.866367418
    42.648704545        13.599029095        20.761022763
    41.301951511        15.080214399        34.655678729
    47.650520509        23.246458646         6.866367418
    46.303767536        24.727643883        20.761022763
    44.957014502        26.208829187        34.655678729
    11.483587927         1.952023608         7.969035388
    10.136834954         3.433208845        21.863690733
     8.790082041         4.914394016        35.758345457
    15.138651204        13.080639266         7.969035388
    13.791898231        14.561824504        21.863690733
    12.445145318        16.043009675        35.758345457
    18.793714195        24.209254055         7.969035388
    17.446961222        25.690439292        21.863690733
    16.100208309        27.171624463        35.758345457
    25.752027327         1.952023608         7.969035388
    24.405274354         3.433208845        21.863690733
    23.058521441         4.914394016        35.758345457
    29.407090604        13.080639266         7.969035388
    28.060337631        14.561824504        21.863690733
    26.713584718        16.043009675        35.758345457
    33.062153595        24.209254055         7.969035388
    31.715400622        25.690439292        21.863690733
    30.368647709        27.171624463        35.758345457
    40.020465452         1.952023608         7.969035388
    38.673712479         3.433208845        21.863690733
    37.326959565         4.914394016        35.758345457
    43.675528729        13.080639266         7.969035388
    42.328775756        14.561824504        21.863690733
    40.982022842        16.043009675        35.758345457
    47.330591720        24.209254055         7.969035388
    45.983838747        25.690439292        21.863690733
    44.637085833        27.171624463        35.758345457
    11.691350414         1.028043424         9.192777113
    10.344597441         2.509228661        23.087432459
     8.997844528         3.990413832        36.982087183
    15.346413641        12.156658931         9.192777113
    13.999660668        13.637844168        23.087432459
    12.652907755        15.119029339        36.982087183
    19.001476959        23.285274714         9.192777113
    17.654723986        24.766459951        23.087432459
    16.307971073        26.247645122        36.982087183
    25.959789815         1.028043424         9.192777113
    24.613036841         2.509228661        23.087432459
    23.266283928         3.990413832        36.982087183
    29.614853042        12.156658931         9.192777113
    28.268100068        13.637844168        23.087432459
    26.921347155        15.119029339        36.982087183
    33.269916359        23.285274714         9.192777113
    31.923163386        24.766459951        23.087432459
    30.576410473        26.247645122        36.982087183
    40.228227939         1.028043424         9.192777113
    38.881474966         2.509228661        23.087432459
    37.534722053         3.990413832        36.982087183
    43.883291166        12.156658931         9.192777113
    42.536538193        13.637844168        23.087432459
    41.189785280        15.119029339        36.982087183
    47.538354484        23.285274714         9.192777113
    46.191601511        24.766459951        23.087432459
    44.844848598        26.247645122        36.982087183
    10.601272430         1.456703570        10.435885347
     9.254519397         2.937888874        24.330541314
     7.907766483         4.419074045        38.225196038
    14.256335697        12.585319198        10.435885347
    12.909582663        14.066504501        24.330541314
    11.562829750        15.547689672        38.225196038
    17.911398688        23.713933986        10.435885347
    16.564645654        25.195119289        24.330541314
    15.217892741        26.676304461        38.225196038
    24.869711830         1.456703570        10.435885347
    23.522958797         2.937888874        24.330541314
    22.176205884         4.419074045        38.225196038
    28.524775097        12.585319198        10.435885347
    27.178022064        14.066504501        24.330541314
    25.831269150        15.547689672        38.225196038
    32.179838088        23.713933986        10.435885347
    30.833085055        25.195119289        24.330541314
    29.486332141        26.676304461        38.225196038
    39.138149955         1.456703570        10.435885347
    37.791396921         2.937888874        24.330541314
    36.444644008         4.419074045        38.225196038
    42.793213222        12.585319198        10.435885347
    41.446460188        14.066504501        24.330541314
    40.099707275        15.547689672        38.225196038
    46.448276213        23.713933986        10.435885347
    45.101523179        25.195119289        24.330541314
    43.754770266        26.676304461        38.225196038
    12.912646005        11.742702372        10.505526266
    11.565893092        13.223887543        24.400180991
    10.219139938        14.705072979        38.294838199
    16.567709323        22.871318155        10.505526266
    15.220956410        24.352503326        24.400180991
    13.874203256        25.833688762        38.294838199
    20.222772314        33.999932943        10.505526266
    18.876019401        35.481118114        24.400180991
    17.529266247        36.962303550        38.294838199
    27.181084130        11.742702372        10.505526266
    25.834331216        13.223887543        24.400180991
    24.487578063        14.705072979        38.294838199
    30.836147447        22.871318155        10.505526266
    29.489394534        24.352503326        24.400180991
    28.142641380        25.833688762        38.294838199
    34.491210438        33.999932943        10.505526266
    33.144457525        35.481118114        24.400180991
    31.797704371        36.962303550        38.294838199
    41.449524805        11.742702372        10.505526266
    40.102771892        13.223887543        24.400180991
    38.756018738        14.705072979        38.294838199
    45.104588123        22.871318155        10.505526266
    43.757835210        24.352503326        24.400180991
    42.411082056        25.833688762        38.294838199
    48.759651114        33.999932943        10.505526266
    47.412898201        35.481118114        24.400180991
    46.066145047        36.962303550        38.294838199
    11.966778924        11.921173889         9.409428089
    10.620025951        13.402359126        23.304083434
     9.273273038        14.883544297        37.198738158
    15.621842242        23.049789672         9.409428089
    14.275089269        24.530974909        23.304083434
    12.928336356        26.012160081        37.198738158
    19.276905233        34.178404460         9.409428089
    17.930152260        35.659589698        23.304083434
    16.583399347        37.140774869        37.198738158
    26.235217687        11.921173889         9.409428089
    24.888464713        13.402359126        23.304083434
    23.541711800        14.883544297        37.198738158
    29.890281005        23.049789672         9.409428089
    28.543528031        24.530974909        23.304083434
    27.196775118        26.012160081        37.198738158
    33.545343996        34.178404460         9.409428089
    32.198591022        35.659589698        23.304083434
    30.851838109        37.140774869        37.198738158
    40.503655811        11.921173889         9.409428089
    39.156902838        13.402359126        23.304083434
    37.810149925        14.883544297        37.198738158
    44.158719129        23.049789672         9.409428089
    42.811966156        24.530974909        23.304083434
    41.465213243        26.012160081        37.198738158
    47.813782120        34.178404460         9.409428089
    46.467029147        35.659589698        23.304083434
    45.120276234        37.140774869        37.198738158
    10.607481999        11.095900374         9.415533890
     9.260728905        12.577085743        23.310190478
     7.913975992        14.058270915        37.204845202
    14.262544990        22.224515162         9.415533890
    12.915791896        23.705700532        23.310190478
    11.569038983        25.186885703        37.204845202
    17.917608635        33.353131940         9.415533890
    16.570855541        34.834317310        23.310190478
    15.224102628        36.315502481        37.204845202
    24.875920124        11.095900374         9.415533890
    23.529167030        12.577085743        23.310190478
    22.182414117        14.058270915        37.204845202
    28.530983115        22.224515162         9.415533890
    27.184230021        23.705700532        23.310190478
    25.837477108        25.186885703        37.204845202
    32.186046759        33.353131940         9.415533890
    30.839293665        34.834317310        23.310190478
    29.492540752        36.315502481        37.204845202
    39.144360799        11.095900374         9.415533890
    37.797607706        12.577085743        23.310190478
    36.450854793        14.058270915        37.204845202
    42.799423790        22.224515162         9.415533890
    41.452670697        23.705700532        23.310190478
    40.105917784        25.186885703        37.204845202
    46.454487435        33.353131940         9.415533890
    45.107734341        34.834317310        23.310190478
    43.760981428        36.315502481        37.204845202
     9.963828679        11.312210383         7.982179321
     8.617075766        12.793395554        21.876834045
     7.270322612        14.274580990        35.771491254
    13.618891997        22.440826166         7.982179321
    12.272139084        23.922011337        21.876834045
    10.925385930        25.403196773        35.771491254
    17.273954988        33.569440954         7.982179321
    15.927202075        35.050626125        21.876834045
    14.580448921        36.531811561        35.771491254
    24.232266803        11.312210383         7.982179321
    22.885513890        12.793395554        21.876834045
    21.538760736        14.274580990        35.771491254
    27.887330121        22.440826166         7.982179321
    26.540577208        23.922011337        21.876834045
    25.193824054        25.403196773        35.771491254
    31.542393112        33.569440954         7.982179321
    30.195640199        35.050626125        21.876834045
    28.848887045        36.531811561        35.771491254
    38.500707479        11.312210383         7.982179321
    37.153954566        12.793395554        21.876834045
    35.807201412        14.274580990        35.771491254
    42.155770797        22.440826166         7.982179321
    40.809017884        23.922011337        21.876834045
    39.462264730        25.403196773        35.771491254
    45.810833788        33.569440954         7.982179321
    44.464080875        35.050626125        21.876834045
    43.117327721        36.531811561        35.771491254
    10.821231537        10.637007623         6.878735548
     9.474478564        12.118192860        20.773390893
     8.127725530        13.599378164        34.668046859
    14.476294855        21.765623406         6.878735548
    13.129541882        23.246808644        20.773390893
    11.782788848        24.727993947        34.668046859
    18.131357846        32.894238194         6.878735548
    16.784604873        34.375423432        20.773390893
    15.437851839        35.856608735        34.668046859
    25.089671575        10.637007623         6.878735548
    23.742918602        12.118192860        20.773390893
    22.396165569        13.599378164        34.668046859
    28.744734893        21.765623406         6.878735548
    27.397981920        23.246808644        20.773390893
    26.051228886        24.727993947        34.668046859
    32.399797884        32.894238194         6.878735548
    31.053044911        34.375423432        20.773390893
    29.706291877        35.856608735        34.668046859
    39.358109700        10.637007623         6.878735548
    38.011356727        12.118192860        20.773390893
    36.664603693        13.599378164        34.668046859
    43.013173018        21.765623406         6.878735548
    41.666420044        23.246808644        20.773390893
    40.319667011        24.727993947        34.668046859
    46.668236009        32.894238194         6.878735548
    45.321483035        34.375423432        20.773390893
    43.974730002        35.856608735        34.668046859
    10.023112204        10.209535833         5.656240449
     8.676359171        11.690721137        19.550896416
     7.329606138        13.171906440        33.445552382
    13.678175196        21.338150622         5.656240449
    12.331422162        22.819335925        19.550896416
    10.984669129        24.300521229        33.445552382
    17.333238840        32.466767400         5.656240449
    15.986485807        33.947952703        19.550896416
    14.639732773        35.429138007        33.445552382
    24.291550967        10.209535833         5.656240449
    22.944797933        11.690721137        19.550896416
    21.598044900        13.171906440        33.445552382
    27.946613958        21.338150622         5.656240449
    26.599860924        22.819335925        19.550896416
    25.253107891        24.300521229        33.445552382
    31.601677602        32.466767400         5.656240449
    30.254924569        33.947952703        19.550896416
    28.908171536        35.429138007        33.445552382
    38.559989091        10.209535833         5.656240449
    37.213236058        11.690721137        19.550896416
    35.866483024        13.171906440        33.445552382
    42.215052082        21.338150622         5.656240449
    40.868299049        22.819335925        19.550896416
    39.521546015        24.300521229        33.445552382
    45.870115727        32.466767400         5.656240449
    44.523362694        33.947952703        19.550896416
    43.176609660        35.429138007        33.445552382
     9.021105565        11.258580596         5.077340603
     7.674352622        12.739765800        18.971995638
     6.327599468        14.220951236        32.866652847
    12.676168883        22.387196379         5.077340603
    11.329415940        23.868381583        18.971995638
     9.982662786        25.349567019        32.866652847
    16.331231874        33.515811167         5.077340603
    14.984478931        34.996996371        18.971995638
    13.637725777        36.478181807        32.866652847
    23.289544965        11.258580596         5.077340603
    21.942792022        12.739765800        18.971995638
    20.596038868        14.220951236        32.866652847
    26.944608283        22.387196379         5.077340603
    25.597855340        23.868381583        18.971995638
    24.251102186        25.349567019        32.866652847
    30.599671274        33.515811167         5.077340603
    29.252918331        34.996996371        18.971995638
    27.906165177        36.478181807        32.866652847
    37.557983090        11.258580596         5.077340603
    36.211230147        12.739765800        18.971995638
    34.864476993        14.220951236        32.866652847
    41.213046408        22.387196379         5.077340603
    39.866293465        23.868381583        18.971995638
    38.519540311        25.349567019        32.866652847
    44.868109399        33.515811167         5.077340603
    43.521356456        34.996996371        18.971995638
    42.174603302        36.478181807        32.866652847
     8.524019910        11.048308241         3.668380046
     7.177266967        12.529493445        17.563035081
     5.830513813        14.010678881        31.457692290
    12.179082901        22.176923029         3.668380046
    10.832329958        23.658108233        17.563035081
     9.485576804        25.139293669        31.457692290
    15.834146545        33.305539807         3.668380046
    14.487393602        34.786725011        17.563035081
    13.140640448        36.267910447        31.457692290
    22.792459310        11.048308241         3.668380046
    21.445706367        12.529493445        17.563035081
    20.098953213        14.010678881        31.457692290
    26.447522301        22.176923029         3.668380046
    25.100769358        23.658108233        17.563035081
    23.754016204        25.139293669        31.457692290
    30.102585946        33.305539807         3.668380046
    28.755833002        34.786725011        17.563035081
    27.409079848        36.267910447        31.457692290
    37.060897435        11.048308241         3.668380046
    35.714144491        12.529493445        17.563035081
    34.367391337        14.010678881        31.457692290
    40.715960426        22.176923029         3.668380046
    39.369207482        23.658108233        17.563035081
    38.022454328        25.139293669        31.457692290
    44.371024070        33.305539807         3.668380046
    43.024271127        34.786725011        17.563035081
    41.677517973        36.267910447        31.457692290
     5.817058204         0.463699773         2.507673887
     4.470305245         1.944884994        16.402329077
     3.123552332         3.426070165        30.296983802
     9.472121302        11.592314888         2.507673887
     8.125368344        13.073500108        16.402329077
     6.778615431        14.554685279        30.296983802
    13.127184620        22.720930671         2.507673887
    11.780431661        24.202115891        16.402329077
    10.433678748        25.683301063        30.296983802
    20.085496966         0.463699773         2.507673887
    18.738744008         1.944884994        16.402329077
    17.391991095         3.426070165        30.296983802
    23.740560064        11.592314888         2.507673887
    22.393807106        13.073500108        16.402329077
    21.047054193        14.554685279        30.296983802
    27.395623382        22.720930671         2.507673887
    26.048870424        24.202115891        16.402329077
    24.702117511        25.683301063        30.296983802
    34.353935091         0.463699773         2.507673887
    33.007182132         1.944884994        16.402329077
    31.660429219         3.426070165        30.296983802
    38.008998189        11.592314888         2.507673887
    36.662245231        13.073500108        16.402329077
    35.315492318        14.554685279        30.296983802
    41.664061507        22.720930671         2.507673887
    40.317308548        24.202115891        16.402329077
    38.970555635        25.683301063        30.296983802
     5.312953823         0.353929097         1.143522102
     3.966200843         1.835114343        15.038177524
     2.619447930         3.316299514        28.932832249
     8.968017121        11.482544818         1.143522102
     7.621264140        12.963730064        15.038177524
     6.274511227        14.444915235        28.932832249
    12.623080439        22.611160601         1.143522102
    11.276327458        24.092345847        15.038177524
     9.929574545        25.573531018        28.932832249
    19.581393224         0.353929097         1.143522102
    18.234640243         1.835114343        15.038177524
    16.887887330         3.316299514        28.932832249
    23.236456521        11.482544818         1.143522102
    21.889703540        12.963730064        15.038177524
    20.542950627        14.444915235        28.932832249
    26.891519839        22.611160601         1.143522102
    25.544766858        24.092345847        15.038177524
    24.198013945        25.573531018        28.932832249
    33.849831348         0.353929097         1.143522102
    32.503078367         1.835114343        15.038177524
    31.156325454         3.316299514        28.932832249
    37.504894646        11.482544818         1.143522102
    36.158141665        12.963730064        15.038177524
    34.811388752        14.444915235        28.932832249
    41.159957963        22.611160601         1.143522102
    39.813204983        24.092345847        15.038177524
    38.466452069        25.573531018        28.932832249
     6.121641839         1.196252662         0.270640712
     4.774888834         2.677437934        14.165296388
     3.428135800         4.158623238        28.059952354
     9.776705157        12.324868445         0.270640712
     8.429952152        13.806053717        14.165296388
     7.083199118        15.287239021        28.059952354
    13.431768148        23.453483233         0.270640712
    12.085015143        24.934668505        14.165296388
    10.738262109        26.415853809        28.059952354
    20.390080602         1.196252662         0.270640712
    19.043327596         2.677437934        14.165296388
    17.696574563         4.158623238        28.059952354
    24.045143919        12.324868445         0.270640712
    22.698390914        13.806053717        14.165296388
    21.351637881        15.287239021        28.059952354
    27.700206910        23.453483233         0.270640712
    26.353453905        24.934668505        14.165296388
    25.006700872        26.415853809        28.059952354
    34.658518726         1.196252662         0.270640712
    33.311765721         2.677437934        14.165296388
    31.965012687         4.158623238        28.059952354
    38.313582044        12.324868445         0.270640712
    36.966829039        13.806053717        14.165296388
    35.620076005        15.287239021        28.059952354
    41.968645035        23.453483233         0.270640712
    40.621892030        24.934668505        14.165296388
    39.275138996        26.415853809        28.059952354
     7.358504936         4.508722411         7.573998737
     6.011752023         5.989907582        21.468653461
     4.664998869         7.471093018        35.363310670
    11.013568173        15.637337946         7.573998737
     9.666815259        17.118523117        21.468653461
     8.320062106        18.599708553        35.363310670
    14.668631490        26.765953729         7.573998737
    13.321878577        28.247138900        21.468653461
    11.975125423        29.728324336        35.363310670
    21.626943699         4.508722411         7.573998737
    20.280190786         5.989907582        21.468653461
    18.933437632         7.471093018        35.363310670
    25.282006935        15.637337946         7.573998737
    23.935254022        17.118523117        21.468653461
    22.588500868        18.599708553        35.363310670
    28.937070253        26.765953729         7.573998737
    27.590317340        28.247138900        21.468653461
    26.243564186        29.728324336        35.363310670
    35.895381823         4.508722411         7.573998737
    34.548628910         5.989907582        21.468653461
    33.201875756         7.471093018        35.363310670
    39.550445059        15.637337946         7.573998737
    38.203692146        17.118523117        21.468653461
    36.856938993        18.599708553        35.363310670
    43.205508377        26.765953729         7.573998737
    41.858755464        28.247138900        21.468653461
    40.512002310        29.728324336        35.363310670
     7.662074419         0.645189248         0.152553794
     6.315321452         2.126374478        14.047209071
     4.968568539         3.607559650        27.941863796
    11.317137512        11.773804347         0.152553794
     9.970384545        13.254989578        14.047209071
     8.623631632        14.736174749        27.941863796
    14.972200830        22.902420131         0.152553794
    13.625447863        24.383605361        14.047209071
    12.278694950        25.864790532        27.941863796
    21.930513181         0.645189248         0.152553794
    20.583760215         2.126374478        14.047209071
    19.237007302         3.607559650        27.941863796
    25.585576275        11.773804347         0.152553794
    24.238823308        13.254989578        14.047209071
    22.892070395        14.736174749        27.941863796
    29.240639592        22.902420131         0.152553794
    27.893886626        24.383605361        14.047209071
    26.547133713        25.864790532        27.941863796
    36.198951306         0.645189248         0.152553794
    34.852198339         2.126374478        14.047209071
    33.505445426         3.607559650        27.941863796
    39.854014399        11.773804347         0.152553794
    38.507261432        13.254989578        14.047209071
    37.160508519        14.736174749        27.941863796
    43.509077717        22.902420131         0.152553794
    42.162324750        24.383605361        14.047209071
    40.815571837        25.864790532        27.941863796
     5.375116581         3.648548715         7.594894491
     4.028363488         5.129734084        21.489551079
     2.681610575         6.610919255        35.384205803
     9.030179818        14.777164249         7.594894491
     7.683426724        16.258349619        21.489551079
     6.336673811        17.739534790        35.384205803
    12.685243135        25.905780032         7.594894491
    11.338490042        27.386965402        21.489551079
     9.991737129        28.868150573        35.384205803
    19.643555663         3.648548715         7.594894491
    18.296802569         5.129734084        21.489551079
    16.950049656         6.610919255        35.384205803
    23.298618899        14.777164249         7.594894491
    21.951865805        16.258349619        21.489551079
    20.605112892        17.739534790        35.384205803
    26.953682217        25.905780032         7.594894491
    25.606929123        27.386965402        21.489551079
    24.260176210        28.868150573        35.384205803
    33.911993787         3.648548715         7.594894491
    32.565240694         5.129734084        21.489551079
    31.218487781         6.610919255        35.384205803
    37.567057023        14.777164249         7.594894491
    36.220303930        16.258349619        21.489551079
    34.873551017        17.739534790        35.384205803
    41.222120341        25.905780032         7.594894491
    39.875367248        27.386965402        21.489551079
    38.528614334        28.868150573        35.384205803
     6.238694164         3.235575844         9.061274426
     4.891941191         4.716761081        22.955929771
     3.545188278         6.197946252        36.850584496
     9.893757482        14.364191627         9.061274426
     8.547004509        15.845376864        22.955929771
     7.200251596        17.326562035        36.850584496
    13.548820473        25.492806415         9.061274426
    12.202067500        26.973991652        22.955929771
    10.855314587        28.455176824        36.850584496
    20.507132927         3.235575844         9.061274426
    19.160379953         4.716761081        22.955929771
    17.813627040         6.197946252        36.850584496
    24.162196244        14.364191627         9.061274426
    22.815443271        15.845376864        22.955929771
    21.468690358        17.326562035        36.850584496
    27.817259235        25.492806415         9.061274426
    26.470506262        26.973991652        22.955929771
    25.123753349        28.455176824        36.850584496
    34.775572327         3.235575844         9.061274426
    33.428819354         4.716761081        22.955929771
    32.082066440         6.197946252        36.850584496
    38.430635645        14.364191627         9.061274426
    37.083882671        15.845376864        22.955929771
    35.737129758        17.326562035        36.850584496
    42.085698636        25.492806415         9.061274426
    40.738945662        26.973991652        22.955929771
    39.392192749        28.455176824        36.850584496
     5.979432184         5.856087779         9.435124009
     4.632679271         7.337272950        23.329778733
     3.285926117         8.818458386        37.224435942
     9.634495339        16.984703065         9.435124009
     8.287742426        18.465888236        23.329778733
     6.940989272        19.947073672        37.224435942
    13.289558330        28.113317853         9.435124009
    11.942805417        29.594503024        23.329778733
    10.596052263        31.075688460        37.224435942
    20.247871585         5.856087779         9.435124009
    18.901118671         7.337272950        23.329778733
    17.554365518         8.818458386        37.224435942
    23.902934739        16.984703065         9.435124009
    22.556181826        18.465888236        23.329778733
    21.209428672        19.947073672        37.224435942
    27.557997730        28.113317853         9.435124009
    26.211244817        29.594503024        23.329778733
    24.864491663        31.075688460        37.224435942
    34.516309709         5.856087779         9.435124009
    33.169556796         7.337272950        23.329778733
    31.822803642         8.818458386        37.224435942
    38.171372863        16.984703065         9.435124009
    36.824619950        18.465888236        23.329778733
    35.477866797        19.947073672        37.224435942
    41.826435854        28.113317853         9.435124009
    40.479682941        29.594503024        23.329778733
    39.132929788        31.075688460        37.224435942
     4.720380841         5.701074578         8.182494327
     3.373627928         7.182259749        22.077149052
     2.026874774         8.663445185        35.971806260
     8.375443995        16.829689864         8.182494327
     7.028691082        18.310875035        22.077149052
     5.681937928        19.792060471        35.971806260
    12.030506986        27.958304652         8.182494327
    10.683754073        29.439489823        22.077149052
     9.337000919        30.920675259        35.971806260
    18.988819922         5.701074578         8.182494327
    17.642067009         7.182259749        22.077149052
    16.295313855         8.663445185        35.971806260
    22.643883076        16.829689864         8.182494327
    21.297130163        18.310875035        22.077149052
    19.950377009        19.792060471        35.971806260
    26.298946067        27.958304652         8.182494327
    24.952193154        29.439489823        22.077149052
    23.605440000        30.920675259        35.971806260
    33.257258047         5.701074578         8.182494327
    31.910505133         7.182259749        22.077149052
    30.563751980         8.663445185        35.971806260
    36.912321201        16.829689864         8.182494327
    35.565568288        18.310875035        22.077149052
    34.218815134        19.792060471        35.971806260
    40.567384192        27.958304652         8.182494327
    39.220631279        29.439489823        22.077149052
    37.873878125        30.920675259        35.971806260
     5.084601967         4.508934410        10.980786191
     3.737848933         5.990119713        24.875442157
     2.391096020         7.471304884        38.770096881
     8.739665203        15.637549944        10.980786191
     7.392912169        17.118735248        24.875442157
     6.046159256        18.599920419        38.770096881
    12.394728520        26.766165727        10.980786191
    11.047975487        28.247351031        24.875442157
     9.701222574        29.728536202        38.770096881
    19.353041367         4.508934410        10.980786191
    18.006288333         5.990119713        24.875442157
    16.659535420         7.471304884        38.770096881
    23.008104603        15.637549944        10.980786191
    21.661351569        17.118735248        24.875442157
    20.314598656        18.599920419        38.770096881
    26.663167921        26.766165727        10.980786191
    25.316414887        28.247351031        24.875442157
    23.969661974        29.728536202        38.770096881
    33.621479491         4.508934410        10.980786191
    32.274726458         5.990119713        24.875442157
    30.927973545         7.471304884        38.770096881
    37.276542727        15.637549944        10.980786191
    35.929789694        17.118735248        24.875442157
    34.583036781        18.599920419        38.770096881
    40.931606045        26.766165727        10.980786191
    39.584853012        28.247351031        24.875442157
    38.238100099        29.728536202        38.770096881
     3.879591291         5.907166968        10.298990548
     2.532838197         7.388352337        24.193647136
     1.186085284         8.869537508        38.088301860
     7.534654445        17.035782253        10.298990548
     6.187901352        18.516967623        24.193647136
     4.841148438        19.998152794        38.088301860
    11.189717763        28.164398036        10.298990548
     9.842964669        29.645583406        24.193647136
     8.496211756        31.126768577        38.088301860
    18.148029734         5.907166968        10.298990548
    16.801276641         7.388352337        24.193647136
    15.454523728         8.869537508        38.088301860
    21.803092889        17.035782253        10.298990548
    20.456339795        18.516967623        24.193647136
    19.109586882        19.998152794        38.088301860
    25.458156207        28.164398036        10.298990548
    24.111403113        29.645583406        24.193647136
    22.764650200        31.126768577        38.088301860
    32.416470410         5.907166968        10.298990548
    31.069717317         7.388352337        24.193647136
    29.722964403         8.869537508        38.088301860
    36.071533565        17.035782253        10.298990548
    34.724780471        18.516967623        24.193647136
    33.378027558        19.998152794        38.088301860
    39.726596882        28.164398036        10.298990548
    38.379843789        29.645583406        24.193647136
    37.033090876        31.126768577        38.088301860
     3.959020658         2.601527962        10.000950421
     2.612267564         4.082713332        23.895607009
     1.265514651         5.563898503        37.790261733
     7.614083935        13.730143621        10.000950421
     6.267330841        15.211328991        23.895607009
     4.920577928        16.692514162        37.790261733
    11.269146926        24.858758409        10.000950421
     9.922393832        26.339943779        23.895607009
     8.575640919        27.821128950        37.790261733
    18.227460058         2.601527962        10.000950421
    16.880706964         4.082713332        23.895607009
    15.533954051         5.563898503        37.790261733
    21.882523335        13.730143621        10.000950421
    20.535770241        15.211328991        23.895607009
    19.189017328        16.692514162        37.790261733
    25.537586326        24.858758409        10.000950421
    24.190833232        26.339943779        23.895607009
    22.844080319        27.821128950        37.790261733
    32.495898183         2.601527962        10.000950421
    31.149145089         4.082713332        23.895607009
    29.802392176         5.563898503        37.790261733
    36.150961460        13.730143621        10.000950421
    34.804208366        15.211328991        23.895607009
    33.457455453        16.692514162        37.790261733
    39.806024451        24.858758409        10.000950421
    38.459271357        26.339943779        23.895607009
    37.112518444        27.821128950        37.790261733
     3.045105282         3.530496285        11.355087342
     1.698352248         5.011681589        25.249743308
     0.351599335         6.492866760        39.144398032
     6.700168599        14.659112068        11.355087342
     5.353415566        16.140297372        25.249743308
     4.006662653        17.621482543        39.144398032
    10.355231590        25.787726857        11.355087342
     9.008478557        27.268912160        25.249743308
     7.661725644        28.750097331        39.144398032
    17.313544682         3.530496285        11.355087342
    15.966791648         5.011681589        25.249743308
    14.620038735         6.492866760        39.144398032
    20.968608000        14.659112068        11.355087342
    19.621854966        16.140297372        25.249743308
    18.275102053        17.621482543        39.144398032
    24.623670991        25.787726857        11.355087342
    23.276917957        27.268912160        25.249743308
    21.930165044        28.750097331        39.144398032
    31.581982806         3.530496285        11.355087342
    30.235229773         5.011681589        25.249743308
    28.888476860         6.492866760        39.144398032
    35.237046124        14.659112068        11.355087342
    33.890293091        16.140297372        25.249743308
    32.543540178        17.621482543        39.144398032
    38.892109115        25.787726857        11.355087342
    37.545356082        27.268912160        25.249743308
    36.198603169        28.750097331        39.144398032
     1.399620734         2.988710666         9.916271714
     0.052867640         4.469896035        23.810928302
    -1.293885273         5.951081206        37.705583026
     5.054683929        14.117326076         9.916271714
     3.707930835        15.598511445        23.810928302
     2.361177922        17.079696616        37.705583026
     8.709746920        25.245940864         9.916271714
     7.362993826        26.727126233        23.810928302
     6.016240913        28.208311405        37.705583026
    15.668059337         2.988710666         9.916271714
    14.321306243         4.469896035        23.810928302
    12.974553330         5.951081206        37.705583026
    19.323122532        14.117326076         9.916271714
    17.976369438        15.598511445        23.810928302
    16.629616525        17.079696616        37.705583026
    22.978185523        25.245940864         9.916271714
    21.631432429        26.727126233        23.810928302
    20.284679516        28.208311405        37.705583026
    29.936497461         2.988710666         9.916271714
    28.589744367         4.469896035        23.810928302
    27.242991454         5.951081206        37.705583026
    33.591560656        14.117326076         9.916271714
    32.244807563        15.598511445        23.810928302
    30.898054650        17.079696616        37.705583026
    37.246623647        25.245940864         9.916271714
    35.899870554        26.727126233        23.810928302
    34.553117641        28.208311405        37.705583026
     1.869913109         4.641836496         9.498291412
     0.523160196         6.123021667        23.392946136
    -0.823592958         7.604207103        37.287603345
     5.524976427        15.770452279         9.498291412
     4.178223514        17.251637450        23.392946136
     2.831470360        18.732822886        37.287603345
     9.180039418        26.899067067         9.498291412
     7.833286505        28.380252238        23.392946136
     6.486533351        29.861437674        37.287603345
    16.138352031         4.641836496         9.498291412
    14.791599118         6.123021667        23.392946136
    13.444845964         7.604207103        37.287603345
    19.793415349        15.770452279         9.498291412
    18.446662436        17.251637450        23.392946136
    17.099909282        18.732822886        37.287603345
    23.448478340        26.899067067         9.498291412
    22.101725427        28.380252238        23.392946136
    20.754972273        29.861437674        37.287603345
    30.406790156         4.641836496         9.498291412
    29.060037243         6.123021667        23.392946136
    27.713284089         7.604207103        37.287603345
    34.061853474        15.770452279         9.498291412
    32.715100561        17.251637450        23.392946136
    31.368347407        18.732822886        37.287603345
    37.716916465        26.899067067         9.498291412
    36.370163552        28.380252238        23.392946136
    35.023410398        29.861437674        37.287603345
     2.819571929         2.091064863         8.255582571
     1.472819016         3.572250034        22.150237295
     0.126065862         5.053435470        36.044894504
     6.474635246        13.219680646         8.255582571
     5.127882333        14.700865817        22.150237295
     3.781129179        16.182051253        36.044894504
    10.129698564        24.348296430         8.255582571
     8.782945651        25.829481601        22.150237295
     7.436192497        27.310667037        36.044894504
    17.088011010         2.091064863         8.255582571
    15.741258097         3.572250034        22.150237295
    14.394504943         5.053435470        36.044894504
    20.743074328        13.219680646         8.255582571
    19.396321415        14.700865817        22.150237295
    18.049568261        16.182051253        36.044894504
    24.398137646        24.348296430         8.255582571
    23.051384732        25.829481601        22.150237295
    21.704631579        27.310667037        36.044894504
    31.356450410         2.091064863         8.255582571
    30.009697497         3.572250034        22.150237295
    28.662944343         5.053435470        36.044894504
    35.011513728        13.219680646         8.255582571
    33.664760815        14.700865817        22.150237295
    32.318007661        16.182051253        36.044894504
    38.666577046        24.348296430         8.255582571
    37.319824133        25.829481601        22.150237295
    35.973070979        27.310667037        36.044894504
     3.385780689         3.599671079         7.716836599
     2.039027595         5.080856448        21.611493186
     0.692274682         6.562041619        35.506147911
     7.040844006        14.728286862         7.716836599
     5.694090913        16.209472231        21.611493186
     4.347338000        17.690657403        35.506147911
    10.695906997        25.856901650         7.716836599
     9.349153904        27.338087020        21.611493186
     8.002400991        28.819272191        35.506147911
    17.654220089         3.599671079         7.716836599
    16.307466995         5.080856448        21.611493186
    14.960714082         6.562041619        35.506147911
    21.309283407        14.728286862         7.716836599
    19.962530313        16.209472231        21.611493186
    18.615777400        17.690657403        35.506147911
    24.964346398        25.856901650         7.716836599
    23.617593304        27.338087020        21.611493186
    22.270840391        28.819272191        35.506147911
    31.922658213         3.599671079         7.716836599
    30.575905120         5.080856448        21.611493186
    29.229152207         6.562041619        35.506147911
    35.577721531        14.728286862         7.716836599
    34.230968438        16.209472231        21.611493186
    32.884215524        17.690657403        35.506147911
    39.232784522        25.856901650         7.716836599
    37.886031429        27.338087020        21.611493186
    36.539278515        28.819272191        35.506147911
     0.639789149         2.118687130         7.430128541
    -0.706963944         3.599872500        21.324785129
    -2.053716857         5.081057671        35.219439853
     4.294852345        13.247302540         7.430128541
     2.948099251        14.728487910        21.324785129
     1.601346338        16.209673081        35.219439853
     7.949915662        24.375918323         7.430128541
     6.603162569        25.857103693        21.324785129
     5.256409656        27.338288864        35.219439853
    14.908227832         2.118687130         7.430128541
    13.561474738         3.599872500        21.324785129
    12.214721825         5.081057671        35.219439853
    18.563291027        13.247302540         7.430128541
    17.216537934        14.728487910        21.324785129
    15.869785020        16.209673081        35.219439853
    22.218354345        24.375918323         7.430128541
    20.871601251        25.857103693        21.324785129
    19.524848338        27.338288864        35.219439853
    29.176667232         2.118687130         7.430128541
    27.829914139         3.599872500        21.324785129
    26.483161225         5.081057671        35.219439853
    32.831730427        13.247302540         7.430128541
    31.484977334        14.728487910        21.324785129
    30.138224421        16.209673081        35.219439853
    36.486793745        24.375918323         7.430128541
    35.140040652        25.857103693        21.324785129
    33.793287739        27.338288864        35.219439853
     1.105697525         3.747482639         6.639279435
    -0.241055508         5.228667943        20.533935402
    -1.587808421         6.709853114        34.428590126
     4.760760598        14.876097676         6.639279435
     3.414007564        16.357282980        20.533935402
     2.067254651        17.838468151        34.428590126
     8.415824243        26.004714454         6.639279435
     7.069071209        27.485899758        20.533935402
     5.722318296        28.967084929        34.428590126
    15.374136686         3.747482639         6.639279435
    14.027383653         5.228667943        20.533935402
    12.680630740         6.709853114        34.428590126
    19.029199759        14.876097676         6.639279435
    17.682446726        16.357282980        20.533935402
    16.335693812        17.838468151        34.428590126
    22.684263404        26.004714454         6.639279435
    21.337510370        27.485899758        20.533935402
    19.990757457        28.967084929        34.428590126
    29.642576087         3.747482639         6.639279435
    28.295823053         5.228667943        20.533935402
    26.949070140         6.709853114        34.428590126
    33.297639159        14.876097676         6.639279435
    31.950886126        16.357282980        20.533935402
    30.604133213        17.838468151        34.428590126
    36.952702804        26.004714454         6.639279435
    35.605949770        27.485899758        20.533935402
    34.259196857        28.967084929        34.428590126
     1.852184329         1.135154106         5.505647660
     0.505431295         2.616339410        19.400303627
    -0.841321618         4.097524581        33.294958351
     5.507247463        12.263769330         5.505647660
     4.160494429        13.744954633        19.400303627
     2.813741516        15.226139804        33.294958351
     9.162310781        23.392385113         5.505647660
     7.815557747        24.873570416        19.400303627
     6.468804834        26.354755587        33.294958351
    16.120623570         1.135154106         5.505647660
    14.773870536         2.616339410        19.400303627
    13.427117623         4.097524581        33.294958351
    19.775686704        12.263769330         5.505647660
    18.428933670        13.744954633        19.400303627
    17.082180757        15.226139804        33.294958351
    23.430750021        23.392385113         5.505647660
    22.083996988        24.873570416        19.400303627
    20.737244075        26.354755587        33.294958351
    30.389061694         1.135154106         5.505647660
    29.042308661         2.616339410        19.400303627
    27.695555748         4.097524581        33.294958351
    34.044124828        12.263769330         5.505647660
    32.697371795        13.744954633        19.400303627
    31.350618882        15.226139804        33.294958351
    37.699188146        23.392385113         5.505647660
    36.352435112        24.873570416        19.400303627
    35.005682199        26.354755587        33.294958351
     3.068708247         2.447252653         5.531923725
     1.721955273         3.928437891        19.426579070
     0.375202240         5.409623194        33.321235037
     6.723771401        13.575867939         5.531923725
     5.377018428        15.057053176        19.426579070
     4.030265394        16.538238480        33.321235037
    10.378834392        24.704482727         5.531923725
     9.032081419        26.185667964        19.426579070
     7.685328385        27.666853268        33.321235037
    17.337147328         2.447252653         5.531923725
    15.990394355         3.928437891        19.426579070
    14.643641321         5.409623194        33.321235037
    20.992210482        13.575867939         5.531923725
    19.645457509        15.057053176        19.426579070
    18.298704476        16.538238480        33.321235037
    24.647273473        24.704482727         5.531923725
    23.300520500        26.185667964        19.426579070
    21.953767467        27.666853268        33.321235037
    31.605585453         2.447252653         5.531923725
    30.258832479         3.928437891        19.426579070
    28.912079446         5.409623194        33.321235037
    35.260648607        13.575867939         5.531923725
    33.913895634        15.057053176        19.426579070
    32.567142600        16.538238480        33.321235037
    38.915711598        24.704482727         5.531923725
    37.568958625        26.185667964        19.426579070
    36.222205591        27.666853268        33.321235037
    14.325607089         2.565518536         4.367317586
    12.978854056         4.046703839        18.261973553
    11.632101143         5.527889010        32.156628277
    17.980670162        13.694133573         4.367317586
    16.633917129        15.175318876        18.261973553
    15.287164215        16.656504047        32.156628277
    21.635733807        24.822750351         4.367317586
    20.288980773        26.303935654        18.261973553
    18.942227860        27.785120825        32.156628277
    28.594046490         2.565518536         4.367317586
    27.247293456         4.046703839        18.261973553
    25.900540543         5.527889010        32.156628277
    32.249109562        13.694133573         4.367317586
    30.902356529        15.175318876        18.261973553
    29.555603616        16.656504047        32.156628277
    35.904173207        24.822750351         4.367317586
    34.557420173        26.303935654        18.261973553
    33.210667260        27.785120825        32.156628277
    42.862484614         2.565518536         4.367317586
    41.515731581         4.046703839        18.261973553
    40.168978668         5.527889010        32.156628277
    46.517547687        13.694133573         4.367317586
    45.170794653        15.175318876        18.261973553
    43.824041740        16.656504047        32.156628277
    50.172611331        24.822750351         4.367317586
    48.825858298        26.303935654        18.261973553
    47.479105385        27.785120825        32.156628277
     1.126987274         3.875647589         4.422250233
    -0.219765730         5.356832859        18.316905888
    -1.566518763         6.838018163        32.211561855
     4.782050591        15.004263372         4.422250233
     3.435297588        16.485448642        18.316905888
     2.088544554        17.966633946        32.211561855
     8.437113582        26.132878160         4.422250233
     7.090360579        27.614063430        18.316905888
     5.743607545        29.095248734        32.211561855
    15.395425797         3.875647589         4.422250233
    14.048672793         5.356832859        18.316905888
    12.701919760         6.838018163        32.211561855
    19.050489115        15.004263372         4.422250233
    17.703736111        16.485448642        18.316905888
    16.356983078        17.966633946        32.211561855
    22.705552106        26.132878160         4.422250233
    21.358799102        27.614063430        18.316905888
    20.012046069        29.095248734        32.211561855
    29.663866473         3.875647589         4.422250233
    28.317113469         5.356832859        18.316905888
    26.970360436         6.838018163        32.211561855
    33.318929791        15.004263372         4.422250233
    31.972176787        16.485448642        18.316905888
    30.625423754        17.966633946        32.211561855
    36.973992782        26.132878160         4.422250233
    35.627239778        27.614063430        18.316905888
    34.280486745        29.095248734        32.211561855
     0.942208434         2.597631950         2.320372375
    -0.404544584         4.078817237        16.215028186
    -1.751297498         5.560002408        30.109682910
     4.597271507        13.726246987         2.320372375
     3.250518488        15.207432274        16.215028186
     1.903765575        16.688617445        30.109682910
     8.252335151        24.854863765         2.320372375
     6.905582133        26.336049052        16.215028186
     5.558829220        27.817234223        30.109682910
    15.210646997         2.597631950         2.320372375
    13.863893979         4.078817237        16.215028186
    12.517141066         5.560002408        30.109682910
    18.865710070        13.726246987         2.320372375
    17.518957051        15.207432274        16.215028186
    16.172204138        16.688617445        30.109682910
    22.520773714        24.854863765         2.320372375
    21.174020696        26.336049052        16.215028186
    19.827267783        27.817234223        30.109682910
    29.479086397         2.597631950         2.320372375
    28.132333379         4.078817237        16.215028186
    26.785580466         5.560002408        30.109682910
    33.134149470        13.726246987         2.320372375
    31.787396452        15.207432274        16.215028186
    30.440643538        16.688617445        30.109682910
    36.789213115        24.854863765         2.320372375
    35.442460096        26.336049052        16.215028186
    34.095707183        27.817234223        30.109682910
     2.171298276         1.442717458         3.042186949
     0.824545333         2.923902663        16.936841984
    -0.522207821         4.405088098        30.831499192
     5.826361390        12.571332620         3.042186949
     4.479608447        14.052517824        16.936841984
     3.132855293        15.533703260        30.831499192
     9.481424708        23.699948403         3.042186949
     8.134671764        25.181133607        16.936841984
     6.787918611        26.662319043        30.831499192
    16.439737677         1.442717458         3.042186949
    15.092984733         2.923902663        16.936841984
    13.746231579         4.405088098        30.831499192
    20.094800790        12.571332620         3.042186949
    18.748047847        14.052517824        16.936841984
    17.401294693        15.533703260        30.831499192
    23.749864108        23.699948403         3.042186949
    22.403111165        25.181133607        16.936841984
    21.056358011        26.662319043        30.831499192
    30.708177077         1.442717458         3.042186949
    29.361424134         2.923902663        16.936841984
    28.014670980         4.405088098        30.831499192
    34.363240190        12.571332620         3.042186949
    33.016487247        14.052517824        16.936841984
    31.669734093        15.533703260        30.831499192
    38.018303508        23.699948403         3.042186949
    36.671550565        25.181133607        16.936841984
    35.324797411        26.662319043        30.831499192
     2.746235166         4.293837668         3.091726551
     1.399482222         5.775022872        16.986381586
     0.052729069         7.256208308        30.881038795
     6.401298402        15.422453202         3.091726551
     5.054545459        16.903638407        16.986381586
     3.707792305        18.384823843        30.881038795
    10.056361720        26.551068985         3.091726551
     8.709608776        28.032254190        16.986381586
     7.362855622        29.513439626        30.881038795
    17.014674725         4.293837668         3.091726551
    15.667921782         5.775022872        16.986381586
    14.321168628         7.256208308        30.881038795
    20.669737961        15.422453202         3.091726551
    19.322985018        16.903638407        16.986381586
    17.976231864        18.384823843        30.881038795
    24.324801279        26.551068985         3.091726551
    22.978048336        28.032254190        16.986381586
    21.631295182        29.513439626        30.881038795
    31.283112850         4.293837668         3.091726551
    29.936359907         5.775022872        16.986381586
    28.589606753         7.256208308        30.881038795
    34.938176086        15.422453202         3.091726551
    33.591423143        16.903638407        16.986381586
    32.244669989        18.384823843        30.881038795
    38.593239404        26.551068985         3.091726551
    37.246486461        28.032254190        16.986381586
    35.899733307        29.513439626        30.881038795
     3.634578396         3.033248461         3.637576807
     2.287825363         4.514433764        17.532232773
     0.941072330         5.995619068        31.426888739
     7.289641551        14.161863747         3.637576807
     5.942888517        15.643049050        17.532232773
     4.596135484        17.124234354        31.426888739
    10.944704542        25.290478535         3.637576807
     9.597951508        26.771663838        17.532232773
     8.251198475        28.252849142        31.426888739
    17.903017797         3.033248461         3.637576807
    16.556264763         4.514433764        17.532232773
    15.209511730         5.995619068        31.426888739
    21.558080951        14.161863747         3.637576807
    20.211327918        15.643049050        17.532232773
    18.864574884        17.124234354        31.426888739
    25.213143942        25.290478535         3.637576807
    23.866390909        26.771663838        17.532232773
    22.519637875        28.252849142        31.426888739
    32.171457197         3.033248461         3.637576807
    30.824704164         4.514433764        17.532232773
    29.477951130         5.995619068        31.426888739
    35.826520351        14.161863747         3.637576807
    34.479767318        15.643049050        17.532232773
    33.133014284        17.124234354        31.426888739
    39.481583342        25.290478535         3.637576807
    38.134830309        26.771663838        17.532232773
    36.788077275        28.252849142        31.426888739
     3.529045668         2.204642077         1.143806118
     2.182292642         3.685827373        15.038462006
     0.835539609         5.167012676        28.933117973
     7.184108986        13.333257860         1.143806118
     5.837355960        14.814443156        15.038462006
     4.490602927        16.295628459        28.933117973
    10.839172304        24.461873644         1.143806118
     9.492419278        25.943058939        15.038462006
     8.145666244        27.424244242        28.933117973
    17.797484112         2.204642077         1.143806118
    16.450731086         3.685827373        15.038462006
    15.103978052         5.167012676        28.933117973
    21.452547430        13.333257860         1.143806118
    20.105794404        14.814443156        15.038462006
    18.759041370        16.295628459        28.933117973
    25.107610747        24.461873644         1.143806118
    23.760857721        25.943058939        15.038462006
    22.414104688        27.424244242        28.933117973
    32.065924788         2.204642077         1.143806118
    30.719171762         3.685827373        15.038462006
    29.372418728         5.167012676        28.933117973
    35.720988105        13.333257860         1.143806118
    34.374235080        14.814443156        15.038462006
    33.027482046        16.295628459        28.933117973
    39.376051423        24.461873644         1.143806118
    38.029298397        25.943058939        15.038462006
    36.682545364        27.424244242        28.933117973
     4.545967346         3.530720865         1.425898721
     3.199214402         5.011906070        15.320553755
     1.852461369         6.493091373        29.215209722
     8.201030418        14.659335902         1.425898721
     6.854277475        16.140521106        15.320553755
     5.507524442        17.621706410        29.215209722
    11.856094063        25.787952680         1.425898721
    10.509341120        27.269137885        15.320553755
     9.162588086        28.750323188        29.215209722
    18.814406746         3.530720865         1.425898721
    17.467653803         5.011906070        15.320553755
    16.120900769         6.493091373        29.215209722
    22.469469819        14.659335902         1.425898721
    21.122716875        16.140521106        15.320553755
    19.775963842        17.621706410        29.215209722
    26.124533463        25.787952680         1.425898721
    24.777780520        27.269137885        15.320553755
    23.431027486        28.750323188        29.215209722
    33.082844870         3.530720865         1.425898721
    31.736091927         5.011906070        15.320553755
    30.389338894         6.493091373        29.215209722
    36.737907943        14.659335902         1.425898721
    35.391155000        16.140521106        15.320553755
    34.044401966        17.621706410        29.215209722
    40.392971588        25.787952680         1.425898721
    39.046218644        27.269137885        15.320553755
    37.699465611        28.750323188        29.215209722
     1.539529788         3.224003417         0.442126363
     0.192776803         4.705188667        14.336781825
    -1.153976110         6.186373838        28.231436549
     5.194593024        14.352618952         0.442126363
     3.847840039        15.833804201        14.336781825
     2.501087126        17.314989373        28.231436549
     8.849656342        25.481234735         0.442126363
     7.502903357        26.962419985        14.336781825
     6.156150444        28.443605156        28.231436549
    15.807968271         3.224003417         0.442126363
    14.461215287         4.705188667        14.336781825
    13.114462374         6.186373838        28.231436549
    19.463031507        14.352618952         0.442126363
    18.116278523        15.833804201        14.336781825
    16.769525610        17.314989373        28.231436549
    23.118094825        25.481234735         0.442126363
    21.771341841        26.962419985        14.336781825
    20.424588928        28.443605156        28.231436549
    30.076408947         3.224003417         0.442126363
    28.729655963         4.705188667        14.336781825
    27.382903050         6.186373838        28.231436549
    33.731472183        14.352618952         0.442126363
    32.384719199        15.833804201        14.336781825
    31.037966286        17.314989373        28.231436549
    37.386535501        25.481234735         0.442126363
    36.039782517        26.962419985        14.336781825
    34.693029603        28.443605156        28.231436549
     1.518247802         5.110849152        13.110233791
     0.171494768         6.592034455        27.004889758
    -1.175258145         8.073219626        40.899544482
     5.173310874        16.239464189        13.110233791
     3.826557841        17.720649492        27.004889758
     2.479804928        19.201834663        40.899544482
     8.828374192        27.368079972        13.110233791
     7.481621159        28.849265275        27.004889758
     6.134868245        30.330450446        40.899544482
    15.786687042         5.110849152        13.110233791
    14.439934009         6.592034455        27.004889758
    13.093181096         8.073219626        40.899544482
    19.441750115        16.239464189        13.110233791
    18.094997082        17.720649492        27.004889758
    16.748244168        19.201834663        40.899544482
    23.096813433        27.368079972        13.110233791
    21.750060399        28.849265275        27.004889758
    20.403307486        30.330450446        40.899544482
    30.055125167         5.110849152        13.110233791
    28.708372133         6.592034455        27.004889758
    27.361619220         8.073219626        40.899544482
    33.710188240        16.239464189        13.110233791
    32.363435206        17.720649492        27.004889758
    31.016682293        19.201834663        40.899544482
    37.365251557        27.368079972        13.110233791
    36.018498524        28.849265275        27.004889758
    34.671745611        30.330450446        40.899544482
     1.729161572         5.371087488         1.455346479
     0.382408584         6.852272742        15.350001979
    -0.964344329         8.333457913        29.244656704
     5.384224727        16.499702774         1.455346479
     4.037471738        17.980888028        15.350001979
     2.690718825        19.462073199        29.244656704
     9.039288045        27.628318557         1.455346479
     7.692535056        29.109503811        15.350001979
     6.345782143        30.590688982        29.244656704
    15.997600823         5.371087488         1.455346479
    14.650847835         6.852272742        15.350001979
    13.304094922         8.333457913        29.244656704
    19.652663978        16.499702774         1.455346479
    18.305910989        17.980888028        15.350001979
    16.959158076        19.462073199        29.244656704
    23.307727295        27.628318557         1.455346479
    21.960974307        29.109503811        15.350001979
    20.614221394        30.590688982        29.244656704
    30.266038948         5.371087488         1.455346479
    28.919285959         6.852272742        15.350001979
    27.572533046         8.333457913        29.244656704
    33.921102102        16.499702774         1.455346479
    32.574349114        17.980888028        15.350001979
    31.227596201        19.462073199        29.244656704
    37.576165420        27.628318557         1.455346479
    36.229412432        29.109503811        15.350001979
    34.882659518        30.590688982        29.244656704
     2.999719337         5.936322886         0.632526818
     1.652966360         7.417508127        14.527182202
     0.306213327         8.898693431        28.421838169
     6.654782818        17.064939166         0.632526818
     5.308029841        18.546124408        14.527182202
     3.961276808        20.027309711        28.421838169
    10.309845809        28.193553954         0.632526818
     8.963092832        29.674739196        14.527182202
     7.616339799        31.155924499        28.421838169
    17.268158339         5.936322886         0.632526818
    15.921405362         7.417508127        14.527182202
    14.574652328         8.898693431        28.421838169
    20.923221820        17.064939166         0.632526818
    19.576468843        18.546124408        14.527182202
    18.229715809        20.027309711        28.421838169
    24.578284811        28.193553954         0.632526818
    23.231531834        29.674739196        14.527182202
    21.884778800        31.155924499        28.421838169
    31.536597739         5.936322886         0.632526818
    30.189844762         7.417508127        14.527182202
    28.843091728         8.898693431        28.421838169
    35.191661220        17.064939166         0.632526818
    33.844908243        18.546124408        14.527182202
    32.498155210        20.027309711        28.421838169
    38.846724211        28.193553954         0.632526818
    37.499971234        29.674739196        14.527182202
    36.153218201        31.155924499        28.421838169
    14.903579454         7.671464714        12.465110846
    13.556826420         9.152650017        26.359766813
    12.210073507        10.633835188        40.254421537
    18.558642935        18.800080994        12.465110846
    17.211889901        20.281266298        26.359766813
    15.865136988        21.762451469        40.254421537
    22.213705926        29.928695782        12.465110846
    20.866952892        31.409881086        26.359766813
    19.520199979        32.891066257        40.254421537
    29.172017578         7.671464714        12.465110846
    27.825264545         9.152650017        26.359766813
    26.478511632        10.633835188        40.254421537
    32.827081059        18.800080994        12.465110846
    31.480328026        20.281266298        26.359766813
    30.133575113        21.762451469        40.254421537
    36.482144050        29.928695782        12.465110846
    35.135391017        31.409881086        26.359766813
    33.788638104        32.891066257        40.254421537
    43.440458254         7.671464714        12.465110846
    42.093705221         9.152650017        26.359766813
    40.746952308        10.633835188        40.254421537
    47.095521735        18.800080994        12.465110846
    45.748768702        20.281266298        26.359766813
    44.402015789        21.762451469        40.254421537
    50.750584726        29.928695782        12.465110846
    49.403831693        31.409881086        26.359766813
    48.057078780        32.891066257        40.254421537
    13.781100547         8.218059992        13.551204330
    12.434347634         9.699245163        27.445859054
    11.087594480        11.180430599        41.340516263
    17.436164028        19.346676273        13.551204330
    16.089411115        20.827861444        27.445859054
    14.742657961        22.309046880        41.340516263
    21.091227019        30.475291061        13.551204330
    19.744474106        31.956476232        27.445859054
    18.397720952        33.437661668        41.340516263
    28.049539947         8.218059992        13.551204330
    26.702787034         9.699245163        27.445859054
    25.356033880        11.180430599        41.340516263
    31.704603428        19.346676273        13.551204330
    30.357850515        20.827861444        27.445859054
    29.011097361        22.309046880        41.340516263
    35.359666419        30.475291061        13.551204330
    34.012913506        31.956476232        27.445859054
    32.666160352        33.437661668        41.340516263
    42.317978072         8.218059992        13.551204330
    40.971225159         9.699245163        27.445859054
    39.624472005        11.180430599        41.340516263
    45.973041553        19.346676273        13.551204330
    44.626288640        20.827861444        27.445859054
    43.279535486        22.309046880        41.340516263
    49.628104544        30.475291061        13.551204330
    48.281351631        31.956476232        27.445859054
    46.934598477        33.437661668        41.340516263
    13.971257903         5.483618504        12.038591739
    12.624504870         6.964803807        25.933247706
    11.277751957         8.445988978        39.827902430
    17.626321058        16.612233789        12.038591739
    16.279568024        18.093419093        25.933247706
    14.932815111        19.574604264        39.827902430
    21.281384049        27.740848577        12.038591739
    19.934631015        29.222033881        25.933247706
    18.587878102        30.703219052        39.827902430
    28.239697303         5.483618504        12.038591739
    26.892944270         6.964803807        25.933247706
    25.546191357         8.445988978        39.827902430
    31.894760458        16.612233789        12.038591739
    30.548007424        18.093419093        25.933247706
    29.201254511        19.574604264        39.827902430
    35.549823449        27.740848577        12.038591739
    34.203070415        29.222033881        25.933247706
    32.856317502        30.703219052        39.827902430
    42.508135428         5.483618504        12.038591739
    41.161382394         6.964803807        25.933247706
    39.814629481         8.445988978        39.827902430
    46.163198582        16.612233789        12.038591739
    44.816445549        18.093419093        25.933247706
    43.469692636        19.574604264        39.827902430
    49.818261573        27.740848577        12.038591739
    48.471508540        29.222033881        25.933247706
    47.124755627        30.703219052        39.827902430
    12.732333326         5.729698101        13.237713979
    11.385580292         7.210883404        27.132369945
    10.038827379         8.692068575        41.027024669
    16.387396480        16.858313386        13.237713979
    15.040643447        18.339498690        27.132369945
    13.693890534        19.820683861        41.027024669
    20.042459798        27.986929169        13.237713979
    18.695706765        29.468114473        27.132369945
    17.348953852        30.949299644        41.027024669
    27.000771450         5.729698101        13.237713979
    25.654018417         7.210883404        27.132369945
    24.307265504         8.692068575        41.027024669
    30.655834605        16.858313386        13.237713979
    29.309081571        18.339498690        27.132369945
    27.962328658        19.820683861        41.027024669
    34.310897923        27.986929169        13.237713979
    32.964144889        29.468114473        27.132369945
    31.617391976        30.949299644        41.027024669
    41.269212126         5.729698101        13.237713979
    39.922459093         7.210883404        27.132369945
    38.575706180         8.692068575        41.027024669
    44.924275281        16.858313386        13.237713979
    43.577522247        18.339498690        27.132369945
    42.230769334        19.820683861        41.027024669
    48.579338599        27.986929169        13.237713979
    47.232585565        29.468114473        27.132369945
    45.885832652        30.949299644        41.027024669
    11.566088643         7.292595158        11.969268843
    10.219335729         8.773780329        25.863923567
     8.872582576        10.254965765        39.758580776
    15.221151634        18.421209946        11.969268843
    13.874398720        19.902395117        25.863923567
    12.527645567        21.383580553        39.758580776
    18.876215278        29.549826724        11.969268843
    17.529462365        31.031011895        25.863923567
    16.182709211        32.512197331        39.758580776
    25.834528043         7.292595158        11.969268843
    24.487775130         8.773780329        25.863923567
    23.141021976        10.254965765        39.758580776
    29.489591034        18.421209946        11.969268843
    28.142838121        19.902395117        25.863923567
    26.796084967        21.383580553        39.758580776
    33.144654678        29.549826724        11.969268843
    31.797901765        31.031011895        25.863923567
    30.451148611        32.512197331        39.758580776
    40.102966167         7.292595158        11.969268843
    38.756213254         8.773780329        25.863923567
    37.409460100        10.254965765        39.758580776
    43.758029158        18.421209946        11.969268843
    42.411276245        19.902395117        25.863923567
    41.064523091        21.383580553        39.758580776
    47.413092803        29.549826724        11.969268843
    46.066339890        31.031011895        25.863923567
    44.719586736        32.512197331        39.758580776
    12.989118102         7.468815858        10.872902954
    11.642365189         8.950001029        24.767557678
    10.295612035        10.431186465        38.662214887
    16.644181583        18.597432139        10.872902954
    15.297428670        20.078617310        24.767557678
    13.950675516        21.559802746        38.662214887
    20.299244574        29.726046927        10.872902954
    18.952491661        31.207232098        24.767557678
    17.605738507        32.688417534        38.662214887
    27.257556227         7.468815858        10.872902954
    25.910803314         8.950001029        24.767557678
    24.564050160        10.431186465        38.662214887
    30.912619708        18.597432139        10.872902954
    29.565866795        20.078617310        24.767557678
    28.219113641        21.559802746        38.662214887
    34.567682699        29.726046927        10.872902954
    33.220929786        31.207232098        24.767557678
    31.874176632        32.688417534        38.662214887
    41.525996903         7.468815858        10.872902954
    40.179243990         8.950001029        24.767557678
    38.832490836        10.431186465        38.662214887
    45.181060384        18.597432139        10.872902954
    43.834307471        20.078617310        24.767557678
    42.487554317        21.559802746        38.662214887
    48.836123375        29.726046927        10.872902954
    47.489370462        31.207232098        24.767557678
    46.142617308        32.688417534        38.662214887
    10.925804482         5.118815368        11.083522665
     9.579051448         6.600000671        24.978178631
     8.232298535         8.081185842        38.872833356
    14.580867554        16.247430405        11.083522665
    13.234114521        17.728615708        24.978178631
    11.887361608        19.209800879        38.872833356
    18.235931199        27.376047183        11.083522665
    16.889178165        28.857232486        24.978178631
    15.542425252        30.338417657        38.872833356
    25.194243882         5.118815368        11.083522665
    23.847490848         6.600000671        24.978178631
    22.500737935         8.081185842        38.872833356
    28.849306954        16.247430405        11.083522665
    27.502553921        17.728615708        24.978178631
    26.155801008        19.209800879        38.872833356
    32.504370599        27.376047183        11.083522665
    31.157617566        28.857232486        24.978178631
    29.810864652        30.338417657        38.872833356
    39.462682006         5.118815368        11.083522665
    38.115928973         6.600000671        24.978178631
    36.769176060         8.081185842        38.872833356
    43.117745079        16.247430405        11.083522665
    41.770992046        17.728615708        24.978178631
    40.424239132        19.209800879        38.872833356
    46.772808724        27.376047183        11.083522665
    45.426055690        28.857232486        24.978178631
    44.079302777        30.338417657        38.872833356
    12.543177689         5.142667855         9.989066780
    11.196424595         6.623853225        23.883723368
     9.849671682         8.105038396        37.778378092
    16.198241007        16.271283638         9.989066780
    14.851487913        17.752469008        23.883723368
    13.504735000        19.233654179        37.778378092
    19.853304325        27.399899422         9.989066780
    18.506551231        28.881084791        23.883723368
    17.159798318        30.362269962        37.778378092
    26.811617089         5.142667855         9.989066780
    25.464863996         6.623853225        23.883723368
    24.118111083         8.105038396        37.778378092
    30.466680407        16.271283638         9.989066780
    29.119927313        17.752469008        23.883723368
    27.773174400        19.233654179        37.778378092
    34.121743725        27.399899422         9.989066780
    32.774990631        28.881084791        23.883723368
    31.428237718        30.362269962        37.778378092
    41.080055214         5.142667855         9.989066780
    39.733302120         6.623853225        23.883723368
    38.386549207         8.105038396        37.778378092
    44.735118532        16.271283638         9.989066780
    43.388365438        17.752469008        23.883723368
    42.041612525        19.233654179        37.778378092
    48.390181850        27.399899422         9.989066780
    47.043428756        28.881084791        23.883723368
    45.696675843        30.362269962        37.778378092
    11.798013978         7.089855391         8.793526652
    10.451261065         8.571040562        22.688181376
     9.104507911        10.052225998        36.582838585
    15.453077132        18.218470676         8.793526652
    14.106324219        19.699655847        22.688181376
    12.759571065        21.180841283        36.582838585
    19.108140123        29.347085464         8.793526652
    17.761387210        30.828270635        22.688181376
    16.414634056        32.309456071        36.582838585
    26.066454016         7.089855391         8.793526652
    24.719701103         8.571040562        22.688181376
    23.372947949        10.052225998        36.582838585
    29.721517170        18.218470676         8.793526652
    28.374764257        19.699655847        22.688181376
    27.028011103        21.180841283        36.582838585
    33.376580161        29.347085464         8.793526652
    32.029827248        30.828270635        22.688181376
    30.683074094        32.309456071        36.582838585
    40.334892141         7.089855391         8.793526652
    38.988139227         8.571040562        22.688181376
    37.641386074        10.052225998        36.582838585
    43.989955295        18.218470676         8.793526652
    42.643202382        19.699655847        22.688181376
    41.296449228        21.180841283        36.582838585
    47.645018286        29.347085464         8.793526652
    46.298265373        30.828270635        22.688181376
    44.951512219        32.309456071        36.582838585
    10.494331657         5.842402579         8.758483824
     9.147578684         7.323587817        22.653139169
     7.800825771         8.804772988        36.547793894
    14.149394975        16.971018363         8.758483824
    12.802642001        18.452203600        22.653139169
    11.455889088        19.933388771        36.547793894
    17.804458293        28.099634146         8.758483824
    16.457705319        29.580819383        22.653139169
    15.110952406        31.062004554        36.547793894
    24.762769782         5.842402579         8.758483824
    23.416016808         7.323587817        22.653139169
    22.069263895         8.804772988        36.547793894
    28.417833099        16.971018363         8.758483824
    27.071080126        18.452203600        22.653139169
    25.724327213        19.933388771        36.547793894
    32.072896417        28.099634146         8.758483824
    30.726143444        29.580819383        22.653139169
    29.379390531        31.062004554        36.547793894
    39.031210457         5.842402579         8.758483824
    37.684457484         7.323587817        22.653139169
    36.337704571         8.804772988        36.547793894
    42.686273775        16.971018363         8.758483824
    41.339520802        18.452203600        22.653139169
    39.992767889        19.933388771        36.547793894
    46.341337093        28.099634146         8.758483824
    44.994584120        29.580819383        22.653139169
    43.647831207        31.062004554        36.547793894
    10.668724750         8.359640773        10.392106193
     9.321971837         9.840825944        24.286760917
     7.975218684        11.322011380        38.181418125
    14.323787741        19.488255561        10.392106193
    12.977034828        20.969440732        24.286760917
    11.630281675        22.450626168        38.181418125
    17.978851386        30.616872339        10.392106193
    16.632098473        32.098057510        24.286760917
    15.285345319        33.579242946        38.181418125
    24.937163513         8.359640773        10.392106193
    23.590410600         9.840825944        24.286760917
    22.243657446        11.322011380        38.181418125
    28.592226504        19.488255561        10.392106193
    27.245473591        20.969440732        24.286760917
    25.898720437        22.450626168        38.181418125
    32.247290148        30.616872339        10.392106193
    30.900537235        32.098057510        24.286760917
    29.553784082        33.579242946        38.181418125
    39.205601637         8.359640773        10.392106193
    37.858848724         9.840825944        24.286760917
    36.512095570        11.322011380        38.181418125
    42.860664628        19.488255561        10.392106193
    41.513911715        20.969440732        24.286760917
    40.167158561        22.450626168        38.181418125
    46.515728273        30.616872339        10.392106193
    45.168975360        32.098057510        24.286760917
    43.822222206        33.579242946        38.181418125
     9.551425663         7.996979148         9.133526616
     8.204672569         9.478164518        23.028183203
     6.857919656        10.959349689        36.922837928
    13.206489144        19.125595429         9.133526616
    11.859736050        20.606780799        23.028183203
    10.512983137        22.087965970        36.922837928
    16.861552135        30.254210217         9.133526616
    15.514799041        31.735395587        23.028183203
    14.168046128        33.216580758        36.922837928
    23.819865701         7.996979148         9.133526616
    22.473112607         9.478164518        23.028183203
    21.126359694        10.959349689        36.922837928
    27.474929182        19.125595429         9.133526616
    26.128176088        20.606780799        23.028183203
    24.781423175        22.087965970        36.922837928
    31.129992173        30.254210217         9.133526616
    29.783239079        31.735395587        23.028183203
    28.436486166        33.216580758        36.922837928
    38.088303825         7.996979148         9.133526616
    36.741550732         9.478164518        23.028183203
    35.394797818        10.959349689        36.922837928
    41.743367306        19.125595429         9.133526616
    40.396614213        20.606780799        23.028183203
    39.049861300        22.087965970        36.922837928
    45.398430297        30.254210217         9.133526616
    44.051677204        31.735395587        23.028183203
    42.704924291        33.216580758        36.922837928
     9.283298115         6.395948986        11.858129594
     7.936545202         7.877134157        25.752784318
     6.589792048         9.358319593        39.647441527
    12.938361269        17.524564271        11.858129594
    11.591608356        19.005749442        25.752784318
    10.244855202        20.486934878        39.647441527
    16.593424260        28.653179059        11.858129594
    15.246671347        30.134364230        25.752784318
    13.899918193        31.615549666        39.647441527
    23.551738153         6.395948986        11.858129594
    22.204985240         7.877134157        25.752784318
    20.858232086         9.358319593        39.647441527
    27.206801308        17.524564271        11.858129594
    25.860048394        19.005749442        25.752784318
    24.513295241        20.486934878        39.647441527
    30.861864299        28.653179059        11.858129594
    29.515111385        30.134364230        25.752784318
    28.168358232        31.615549666        39.647441527
    37.820176278         6.395948986        11.858129594
    36.473423365         7.877134157        25.752784318
    35.126670211         9.358319593        39.647441527
    41.475239432        17.524564271        11.858129594
    40.128486519        19.005749442        25.752784318
    38.781733365        20.486934878        39.647441527
    45.130302423        28.653179059        11.858129594
    43.783549510        30.134364230        25.752784318
    42.436796356        31.615549666        39.647441527
     8.619551240         5.982719145        10.354952112
     7.272798327         7.463904316        24.249606836
     5.926045173         8.945089752        38.144264045
    12.274614394        17.111334431        10.354952112
    10.927861481        18.592519602        24.249606836
     9.581108327        20.073705038        38.144264045
    15.929677712        28.239950214        10.354952112
    14.582924799        29.721135385        24.249606836
    13.236171645        31.202320821        38.144264045
    22.887989364         5.982719145        10.354952112
    21.541236451         7.463904316        24.249606836
    20.194483297         8.945089752        38.144264045
    26.543052519        17.111334431        10.354952112
    25.196299606        18.592519602        24.249606836
    23.849546452        20.073705038        38.144264045
    30.198115836        28.239950214        10.354952112
    28.851362923        29.721135385        24.249606836
    27.504609769        31.202320821        38.144264045
    37.156430040         5.982719145        10.354952112
    35.809677127         7.463904316        24.249606836
    34.462923973         8.945089752        38.144264045
    40.811493195        17.111334431        10.354952112
    39.464740282        18.592519602        24.249606836
    38.117987128        20.073705038        38.144264045
    44.466556512        28.239950214        10.354952112
    43.119803599        29.721135385        24.249606836
    41.773050445        31.202320821        38.144264045
     7.078416932         7.641389868        10.277491046
     5.731664019         9.122575039        24.172145770
     4.384910865        10.603760475        38.066802979
    10.733479923        18.770004656        10.277491046
     9.386727010        20.251189827        24.172145770
     8.039973856        21.732375263        38.066802979
    14.388543567        29.898621434        10.277491046
    13.041790654        31.379806605        24.172145770
    11.695037500        32.860992041        38.066802979
    21.346855694         7.641389868        10.277491046
    20.000102781         9.122575039        24.172145770
    18.653349627        10.603760475        38.066802979
    25.001918685        18.770004656        10.277491046
    23.655165772        20.251189827        24.172145770
    22.308412618        21.732375263        38.066802979
    28.656982330        29.898621434        10.277491046
    27.310229417        31.379806605        24.172145770
    25.963476263        32.860992041        38.066802979
    35.615293819         7.641389868        10.277491046
    34.268540906         9.122575039        24.172145770
    32.921787752        10.603760475        38.066802979
    39.270356810        18.770004656        10.277491046
    37.923603897        20.251189827        24.172145770
    36.576850743        21.732375263        38.066802979
    42.925420454        29.898621434        10.277491046
    41.578667541        31.379806605        24.172145770
    40.231914387        32.860992041        38.066802979
     7.017722375         7.064960443        11.862821682
     5.670969342         8.546145747        25.757477648
     4.324216428        10.027330918        39.652132372
    10.672785856        18.193576724        11.862821682
     9.326032823        19.674762027        25.757477648
     7.979279910        21.155947198        39.652132372
    14.327848847        29.322191512        11.862821682
    12.981095814        30.803376815        25.757477648
    11.634342901        32.284561987        39.652132372
    21.286161137         7.064960443        11.862821682
    19.939408104         8.546145747        25.757477648
    18.592655191        10.027330918        39.652132372
    24.941224619        18.193576724        11.862821682
    23.594471585        19.674762027        25.757477648
    22.247718672        21.155947198        39.652132372
    28.596287610        29.322191512        11.862821682
    27.249534576        30.803376815        25.757477648
    25.902781663        32.284561987        39.652132372
    35.554599262         7.064960443        11.862821682
    34.207846229         8.546145747        25.757477648
    32.861093315        10.027330918        39.652132372
    39.209662743        18.193576724        11.862821682
    37.862909710        19.674762027        25.757477648
    36.516156797        21.155947198        39.652132372
    42.864725734        29.322191512        11.862821682
    41.517972701        30.803376815        25.757477648
    40.171219788        32.284561987        39.652132372
     8.481218703         9.730222520        11.487927963
     7.134465790        11.211407691        25.382582688
     5.787712636        12.692593127        39.277239896
    12.136282021        20.858838303        11.487927963
    10.789529108        22.340023474        25.382582688
     9.442775954        23.821208910        39.277239896
    15.791345012        31.987453091        11.487927963
    14.444592099        33.468638262        25.382582688
    13.097838945        34.949823698        39.277239896
    22.749657465         9.730222520        11.487927963
    21.402904552        11.211407691        25.382582688
    20.056151398        12.692593127        39.277239896
    26.404720783        20.858838303        11.487927963
    25.057967870        22.340023474        25.382582688
    23.711214716        23.821208910        39.277239896
    30.059783774        31.987453091        11.487927963
    28.713030861        33.468638262        25.382582688
    27.366277707        34.949823698        39.277239896
    37.018096866         9.730222520        11.487927963
    35.671343953        11.211407691        25.382582688
    34.324590799        12.692593127        39.277239896
    40.673160183        20.858838303        11.487927963
    39.326407270        22.340023474        25.382582688
    37.979654116        23.821208910        39.277239896
    44.328223174        31.987453091        11.487927963
    42.981470261        33.468638262        25.382582688
    41.634717107        34.949823698        39.277239896
     7.476457714         9.153429180        12.907789519
     6.129704681        10.634614483        26.802445485
     4.782951767        12.115799654        40.697100209
    11.131520705        20.282043968        12.907789519
     9.784767672        21.763229271        26.802445485
     8.438014759        23.244414443        40.697100209
    14.786584350        31.410660746        12.907789519
    13.439831316        32.891846049        26.802445485
    12.093078403        34.373031221        40.697100209
    21.744896476         9.153429180        12.907789519
    20.398143443        10.634614483        26.802445485
    19.051390530        12.115799654        40.697100209
    25.399959467        20.282043968        12.907789519
    24.053206434        21.763229271        26.802445485
    22.706453521        23.244414443        40.697100209
    29.055023112        31.410660746        12.907789519
    27.708270079        32.891846049        26.802445485
    26.361517165        34.373031221        40.697100209
    36.013334601         9.153429180        12.907789519
    34.666581568        10.634614483        26.802445485
    33.319828654        12.115799654        40.697100209
    39.668397592        20.282043968        12.907789519
    38.321644559        21.763229271        26.802445485
    36.974891645        23.244414443        40.697100209
    43.323461237        31.410660746        12.907789519
    41.976708203        32.891846049        26.802445485
    40.629955290        34.373031221        40.697100209
     6.285567257        10.942482180        11.630705575
     4.938814344        12.423667351        25.525360299
     3.592061190        13.904852787        39.420017508
     9.940630575        22.071097963        11.630705575
     8.593877662        23.552283134        25.525360299
     7.247124508        25.033468570        39.420017508
    13.595693566        33.199712751        11.630705575
    12.248940653        34.680897923        25.525360299
    10.902187499        36.162083358        39.420017508
    20.554006657        10.942482180        11.630705575
    19.207253744        12.423667351        25.525360299
    17.860500590        13.904852787        39.420017508
    24.209069975        22.071097963        11.630705575
    22.862317062        23.552283134        25.525360299
    21.515563908        25.033468570        39.420017508
    27.864132966        33.199712751        11.630705575
    26.517380053        34.680897923        25.525360299
    25.170626899        36.162083358        39.420017508
    34.822446058        10.942482180        11.630705575
    33.475693144        12.423667351        25.525360299
    32.128939991        13.904852787        39.420017508
    38.477509375        22.071097963        11.630705575
    37.130756462        23.552283134        25.525360299
    35.784003308        25.033468570        39.420017508
    42.132572366        33.199712751        11.630705575
    40.785819453        34.680897923        25.525360299
    39.439066299        36.162083358        39.420017508
     5.605767978         9.287183915        11.385493363
     4.259014945        10.768369219        25.280149329
     2.912262032        12.249554390        39.174804053
     9.260830969        20.415798704        11.385493363
     7.914077936        21.896984007        25.280149329
     6.567325023        23.378169178        39.174804053
    12.915894614        31.544415482        11.385493363
    11.569141580        33.025600785        25.280149329
    10.222388667        34.506785956        39.174804053
    19.874207060         9.287183915        11.385493363
    18.527454026        10.768369219        25.280149329
    17.180701113        12.249554390        39.174804053
    23.529270051        20.415798704        11.385493363
    22.182517017        21.896984007        25.280149329
    20.835764104        23.378169178        39.174804053
    27.184333695        31.544415482        11.385493363
    25.837580662        33.025600785        25.280149329
    24.490827749        34.506785956        39.174804053
    34.142646460         9.287183915        11.385493363
    32.795893426        10.768369219        25.280149329
    31.449140513        12.249554390        39.174804053
    37.797709451        20.415798704        11.385493363
    36.450956417        21.896984007        25.280149329
    35.104203504        23.378169178        39.174804053
    41.452773095        31.544415482        11.385493363
    40.106020062        33.025600785        25.280149329
    38.759267149        34.506785956        39.174804053
     7.356542766        10.761037072         9.186876288
     6.009789793        12.242222310        23.081531633
     4.663036880        13.723407481        36.976186357
    11.011605757        21.889651860         9.186876288
     9.664852784        23.370837098        23.081531633
     8.318099871        24.852022269        36.976186357
    14.666669402        33.018268638         9.186876288
    13.319916429        34.499453876        23.081531633
    11.973163515        35.980639047        36.976186357
    21.624982166        10.761037072         9.186876288
    20.278229193        12.242222310        23.081531633
    18.931476280        13.723407481        36.976186357
    25.280045157        21.889651860         9.186876288
    23.933292184        23.370837098        23.081531633
    22.586539271        24.852022269        36.976186357
    28.935108802        33.018268638         9.186876288
    27.588355829        34.499453876        23.081531633
    26.241602916        35.980639047        36.976186357
    35.893420291        10.761037072         9.186876288
    34.546667318        12.242222310        23.081531633
    33.199914405        13.723407481        36.976186357
    39.548483282        21.889651860         9.186876288
    38.201730309        23.370837098        23.081531633
    36.854977396        24.852022269        36.976186357
    43.203546927        33.018268638         9.186876288
    41.856793953        34.499453876        23.081531633
    40.510041040        35.980639047        36.976186357
     6.561177751         9.133630156         9.191746643
     5.214424838        10.614815327        23.086401367
     3.867671684        12.096000763        36.981058576
    10.216240905        20.262245442         9.191746643
     8.869487992        21.743430613        23.086401367
     7.522734838        23.224616049        36.981058576
    13.871303896        31.390860230         9.191746643
    12.524550983        32.872045401        23.086401367
    11.177797829        34.353230837        36.981058576
    20.829616194         9.133630156         9.191746643
    19.482863281        10.614815327        23.086401367
    18.136110127        12.096000763        36.981058576
    24.484679349        20.262245442         9.191746643
    23.137926436        21.743430613        23.086401367
    21.791173282        23.224616049        36.981058576
    28.139742340        31.390860230         9.191746643
    26.792989427        32.872045401        23.086401367
    25.446236273        34.353230837        36.981058576
    35.098055595         9.133630156         9.191746643
    33.751302682        10.614815327        23.086401367
    32.404549528        12.096000763        36.981058576
    38.753118749        20.262245442         9.191746643
    37.406365836        21.743430613        23.086401367
    36.059612682        23.224616049        36.981058576
    42.408181740        31.390860230         9.191746643
    41.061428827        32.872045401        23.086401367
    39.714675673        34.353230837        36.981058576
     5.405613292        10.907879224         7.946479328
     4.058860198        12.389064594        21.841135916
     2.712107285        13.870249765        35.735790640
     9.060676610        22.036495008         7.946479328
     7.713923516        23.517680377        21.841135916
     6.367170603        24.998865548        35.735790640
    12.715739601        33.165109796         7.946479328
    11.368986507        34.646295165        21.841135916
    10.022233594        36.127480336        35.735790640
    19.674051735        10.907879224         7.946479328
    18.327298642        12.389064594        21.841135916
    16.980545729        13.870249765        35.735790640
    23.329115053        22.036495008         7.946479328
    21.982361959        23.517680377        21.841135916
    20.635609046        24.998865548        35.735790640
    26.984178044        33.165109796         7.946479328
    25.637424950        34.646295165        21.841135916
    24.290672037        36.127480336        35.735790640
    33.942491136        10.907879224         7.946479328
    32.595738042        12.389064594        21.841135916
    31.248985129        13.870249765        35.735790640
    37.597554453        22.036495008         7.946479328
    36.250801360        23.517680377        21.841135916
    34.904048447        24.998865548        35.735790640
    41.252617444        33.165109796         7.946479328
    39.905864351        34.646295165        21.841135916
    38.559111438        36.127480336        35.735790640
     4.791679755        11.721387565         9.268040587
     3.444926662        13.202572935        23.162697175
     2.098173749        14.683758106        37.057351899
     8.446742746        22.850002353         9.268040587
     7.099989653        24.331187723        23.162697175
     5.753236740        25.812372894        37.057351899
    12.101806391        33.978619131         9.268040587
    10.755053297        35.459804501        23.162697175
     9.408300384        36.940989672        37.057351899
    19.060119315        11.721387565         9.268040587
    17.713366221        13.202572935        23.162697175
    16.366613308        14.683758106        37.057351899
    22.715182306        22.850002353         9.268040587
    21.368429212        24.331187723        23.162697175
    20.021676299        25.812372894        37.057351899
    26.370245951        33.978619131         9.268040587
    25.023492857        35.459804501        23.162697175
    23.676739944        36.940989672        37.057351899
    33.328557440        11.721387565         9.268040587
    31.981804346        13.202572935        23.162697175
    30.635051433        14.683758106        37.057351899
    36.983620431        22.850002353         9.268040587
    35.636867337        24.331187723        23.162697175
    34.290114424        25.812372894        37.057351899
    40.638684075        33.978619131         9.268040587
    39.291930982        35.459804501        23.162697175
    37.945178068        36.940989672        37.057351899
     3.210113745        10.196645474         8.782267256
     1.863360651        11.677830844        22.676923843
     0.516607738        13.159016015        36.571578568
     6.865176736        21.325260263         8.782267256
     5.518423642        22.806445632        22.676923843
     4.171670729        24.287630803        36.571578568
    10.520240380        32.453877041         8.782267256
     9.173487287        33.935062410        22.676923843
     7.826734374        35.416247581        36.571578568
    17.478552507        10.196645474         8.782267256
    16.131799414        11.677830844        22.676923843
    14.785046500        13.159016015        36.571578568
    21.133615498        21.325260263         8.782267256
    19.786862405        22.806445632        22.676923843
    18.440109491        24.287630803        36.571578568
    24.788679143        32.453877041         8.782267256
    23.441926049        33.935062410        22.676923843
    22.095173136        35.416247581        36.571578568
    31.746990632        10.196645474         8.782267256
    30.400237538        11.677830844        22.676923843
    29.053484625        13.159016015        36.571578568
    35.402053623        21.325260263         8.782267256
    34.055300529        22.806445632        22.676923843
    32.708547616        24.287630803        36.571578568
    39.057117267        32.453877041         8.782267256
    37.710364174        33.935062410        22.676923843
    36.363611261        35.416247581        36.571578568
     3.887372207         9.404422227        10.268946030
     2.540619234        10.885607464        24.163601375
     1.193866321        12.366792635        38.058256100
     7.542435688        20.533038507        10.268946030
     6.195682715        22.014223745        24.163601375
     4.848929802        23.495408916        38.058256100
    11.197498679        31.661653296        10.268946030
     9.850745706        33.142838533        24.163601375
     8.503992793        34.624023704        38.058256100
    18.155811129         9.404422227        10.268946030
    16.809058156        10.885607464        24.163601375
    15.462305243        12.366792635        38.058256100
    21.810874610        20.533038507        10.268946030
    20.464121637        22.014223745        24.163601375
    19.117368724        23.495408916        38.058256100
    25.465937601        31.661653296        10.268946030
    24.119184628        33.142838533        24.163601375
    22.772431715        34.624023704        38.058256100
    32.424250529         9.404422227        10.268946030
    31.077497556        10.885607464        24.163601375
    29.730744643        12.366792635        38.058256100
    36.079314010        20.533038507        10.268946030
    34.732561037        22.014223745        24.163601375
    33.385808124        23.495408916        38.058256100
    39.734377001        31.661653296        10.268946030
    38.387624028        33.142838533        24.163601375
    37.040871115        34.624023704        38.058256100
     4.719720363         7.618244846         8.880335246
     3.372967270         9.099430216        22.774991833
     2.026214356        10.580615387        36.669646557
     8.374783844        18.746861126         8.880335246
     7.028030751        20.228046496        22.774991833
     5.681277838        21.709231667        36.669646557
    12.029846835        29.875475915         8.880335246
    10.683093742        31.356661284        22.774991833
     9.336340829        32.837846455        36.669646557
    18.988158807         7.618244846         8.880335246
    17.641405713         9.099430216        22.774991833
    16.294652800        10.580615387        36.669646557
    22.643222288        18.746861126         8.880335246
    21.296469194        20.228046496        22.774991833
    19.949716281        21.709231667        36.669646557
    26.298285279        29.875475915         8.880335246
    24.951532185        31.356661284        22.774991833
    23.604779272        32.837846455        36.669646557
    33.256598207         7.618244846         8.880335246
    31.909845113         9.099430216        22.774991833
    30.563092200        10.580615387        36.669646557
    36.911661688        18.746861126         8.880335246
    35.564908594        20.228046496        22.774991833
    34.218155681        21.709231667        36.669646557
    40.566724679        29.875475915         8.880335246
    39.219971585        31.356661284        22.774991833
    37.873218672        32.837846455        36.669646557
     3.035366115         7.975798655         8.851156596
     1.688613021         9.456984025        22.745813184
     0.341860108        10.938169196        36.640467908
     6.690429106        19.104413443         8.851156596
     5.343676012        20.585598813        22.745813184
     3.996923099        22.066783984        36.640467908
    10.345492750        30.233030221         8.851156596
     8.998739657        31.714215591        22.745813184
     7.651986744        33.195400762        36.640467908
    17.303804877         7.975798655         8.851156596
    15.957051783         9.456984025        22.745813184
    14.610298870        10.938169196        36.640467908
    20.958867868        19.104413443         8.851156596
    19.612114775        20.585598813        22.745813184
    18.265361861        22.066783984        36.640467908
    24.613931513        30.233030221         8.851156596
    23.267178419        31.714215591        22.745813184
    21.920425506        33.195400762        36.640467908
    31.572244277         7.975798655         8.851156596
    30.225491184         9.456984025        22.745813184
    28.878738271        10.938169196        36.640467908
    35.227307268        19.104413443         8.851156596
    33.880554175        20.585598813        22.745813184
    32.533801262        22.066783984        36.640467908
    38.882370913        30.233030221         8.851156596
    37.535617819        31.714215591        22.745813184
    36.188864906        33.195400762        36.640467908
     5.325257577         9.158631873         6.952555493
     3.978504604        10.639817110        20.847210839
     2.631751691        12.121002281        34.741865563
     8.980320895        20.287247656         6.952555493
     7.633567921        21.768432893        20.847210839
     6.286815008        23.249618065        34.741865563
    12.635383886        31.415862444         6.952555493
    11.288630912        32.897047682        20.847210839
     9.941877999        34.378232853        34.741865563
    19.593696020         9.158631873         6.952555493
    18.246943047        10.639817110        20.847210839
    16.900190134        12.121002281        34.741865563
    23.248759338        20.287247656         6.952555493
    21.902006365        21.768432893        20.847210839
    20.555253452        23.249618065        34.741865563
    26.903822329        31.415862444         6.952555493
    25.557069356        32.897047682        20.847210839
    24.210316443        34.378232853        34.741865563
    33.862135421         9.158631873         6.952555493
    32.515382447        10.639817110        20.847210839
    31.168629534        12.121002281        34.741865563
    37.517198738        20.287247656         6.952555493
    36.170445765        21.768432893        20.847210839
    34.823692852        23.249618065        34.741865563
    41.172261729        31.415862444         6.952555493
    39.825508756        32.897047682        20.847210839
    38.478755843        34.378232853        34.741865563
     3.625415177         9.390840641         6.759128303
     2.278662144        10.872025944        20.653784269
     0.931909110        12.353211248        34.548440236
     7.280478168        20.519455429         6.759128303
     5.933725135        22.000640732        20.653784269
     4.586972101        23.481826036        34.548440236
    10.935541813        31.648072207         6.759128303
     9.588788779        33.129257510        20.653784269
     8.242035746        34.610442814        34.548440236
    17.893854099         9.390840641         6.759128303
    16.547101066        10.872025944        20.653784269
    15.200348032        12.353211248        34.548440236
    21.548917090        20.519455429         6.759128303
    20.202164057        22.000640732        20.653784269
    18.855411023        23.481826036        34.548440236
    25.203980735        31.648072207         6.759128303
    23.857227701        33.129257510        20.653784269
    22.510474668        34.610442814        34.548440236
    32.162292224         9.390840641         6.759128303
    30.815539190        10.872025944        20.653784269
    29.468786157        12.353211248        34.548440236
    35.817355215        20.519455429         6.759128303
    34.470602181        22.000640732        20.653784269
    33.123849148        23.481826036        34.548440236
    39.472418859        31.648072207         6.759128303
    38.125665826        33.129257510        20.653784269
    36.778912792        34.610442814        34.548440236
     5.342008397         6.953547604         6.075066744
     3.995255423         8.434732842        19.969722089
     2.648502510         9.915918013        33.864376813
     8.997071551        18.082162890         6.075066744
     7.650318578        19.563348127        19.969722089
     6.303565665        21.044533298        33.864376813
    12.652134542        29.210777678         6.075066744
    11.305381569        30.691962915        19.969722089
     9.958628656        32.173148086        33.864376813
    19.610447797         6.953547604         6.075066744
    18.263694824         8.434732842        19.969722089
    16.916941911         9.915918013        33.864376813
    23.265510951        18.082162890         6.075066744
    21.918757978        19.563348127        19.969722089
    20.572005065        21.044533298        33.864376813
    26.920573942        29.210777678         6.075066744
    25.573820969        30.691962915        19.969722089
    24.227068056        32.173148086        33.864376813
    33.878887197         6.953547604         6.075066744
    32.532134224         8.434732842        19.969722089
    31.185381311         9.915918013        33.864376813
    37.533950352        18.082162890         6.075066744
    36.187197378        19.563348127        19.969722089
    34.840444465        21.044533298        33.864376813
    41.189013343        29.210777678         6.075066744
    39.842260369        30.691962915        19.969722089
    38.495507456        32.173148086        33.864376813
     3.611972261         6.825153227         6.365140135
     2.265219288         8.306338465        20.259795481
     0.918466255         9.787523768        34.154451447
     7.267035743        17.953769508         6.365140135
     5.920282769        19.434954745        20.259795481
     4.573529736        20.916140049        34.154451447
    10.922098734        29.082384296         6.365140135
     9.575345760        30.563569533        20.259795481
     8.228592727        32.044754837        34.154451447
    17.880411821         6.825153227         6.365140135
    16.533658848         8.306338465        20.259795481
    15.186905814         9.787523768        34.154451447
    21.535475302        17.953769508         6.365140135
    20.188722329        19.434954745        20.259795481
    18.841969295        20.916140049        34.154451447
    25.190538293        29.082384296         6.365140135
    23.843785320        30.563569533        20.259795481
    22.497032286        32.044754837        34.154451447
    32.148851221         6.825153227         6.365140135
    30.802098248         8.306338465        20.259795481
    29.455345215         9.787523768        34.154451447
    35.803914702        17.953769508         6.365140135
    34.457161729        19.434954745        20.259795481
    33.110408696        20.916140049        34.154451447
    39.458977693        29.082384296         6.365140135
    38.112224720        30.563569533        20.259795481
    36.765471687        32.044754837        34.154451447
     3.986337538         6.827429519         3.974985066
     2.639584535         8.308614790        17.869640722
     1.292831502         9.789800093        31.764296688
     7.641400529        17.956044307         3.974985066
     6.294647526        19.437229578        17.869640722
     4.947894493        20.918414881        31.764296688
    11.296464174        29.084661085         3.974985066
     9.949711171        30.565846356        17.869640722
     8.602958137        32.047031659        31.764296688
    18.254776301         6.827429519         3.974985066
    16.908023297         8.308614790        17.869640722
    15.561270264         9.789800093        31.764296688
    21.909839292        17.956044307         3.974985066
    20.563086288        19.437229578        17.869640722
    19.216333255        20.918414881        31.764296688
    25.564902936        29.084661085         3.974985066
    24.218149933        30.565846356        17.869640722
    22.871396900        32.047031659        31.764296688
    32.523214425         6.827429519         3.974985066
    31.176461422         8.308614790        17.869640722
    29.829708389         9.789800093        31.764296688
    36.178277416        17.956044307         3.974985066
    34.831524413        19.437229578        17.869640722
    33.484771380        20.918414881        31.764296688
    39.833341061        29.084661085         3.974985066
    38.486588058        30.565846356        17.869640722
    37.139835024        32.047031659        31.764296688
     3.090139159         8.267509923         4.690788718
     1.743386156         9.748695193        18.585444374
     0.396633122        11.229880497        32.480100340
     6.745202314        19.396125208         4.690788718
     5.398449310        20.877310479        18.585444374
     4.051696277        22.358495782        32.480100340
    10.400265305        30.524739996         4.690788718
     9.053512301        32.005925267        18.585444374
     7.706759268        33.487110570        32.480100340
    17.358577523         8.267509923         4.690788718
    16.011824519         9.748695193        18.585444374
    14.665071486        11.229880497        32.480100340
    21.013640677        19.396125208         4.690788718
    19.666887674        20.877310479        18.585444374
    18.320134640        22.358495782        32.480100340
    24.668703668        30.524739996         4.690788718
    23.321950665        32.005925267        18.585444374
    21.975197631        33.487110570        32.480100340
    31.627016923         8.267509923         4.690788718
    30.280263920         9.748695193        18.585444374
    28.933510886        11.229880497        32.480100340
    35.282080077        19.396125208         4.690788718
    33.935327074        20.877310479        18.585444374
    32.588574041        22.358495782        32.480100340
    38.937143069        30.524739996         4.690788718
    37.590390065        32.005925267        18.585444374
    36.243637032        33.487110570        32.480100340
     4.809202253         9.721470615         4.198972631
     3.462449220        11.202655919        18.093628597
     2.115696186        12.683841222        31.988284563
     8.464265571        20.850086398         4.198972631
     7.117512537        22.331271702        18.093628597
     5.770759504        23.812457005        31.988284563
    12.119328562        31.978701186         4.198972631
    10.772575528        33.459886490        18.093628597
     9.425822495        34.941071793        31.988284563
    19.077641653         9.721470615         4.198972631
    17.730888620        11.202655919        18.093628597
    16.384135586        12.683841222        31.988284563
    22.732704971        20.850086398         4.198972631
    21.385951938        22.331271702        18.093628597
    20.039198904        23.812457005        31.988284563
    26.387767962        31.978701186         4.198972631
    25.041014929        33.459886490        18.093628597
    23.694261895        34.941071793        31.988284563
    33.346079778         9.721470615         4.198972631
    31.999326744        11.202655919        18.093628597
    30.652573711        12.683841222        31.988284563
    37.001143096        20.850086398         4.198972631
    35.654390062        22.331271702        18.093628597
    34.307637029        23.812457005        31.988284563
    40.656206087        31.978701186         4.198972631
    39.309453053        33.459886490        18.093628597
    37.962700020        34.941071793        31.988284563
     6.111993807         8.594827142         4.472587378
     4.765240804        10.076012413        18.367243034
     3.418487770        11.557197716        32.261899000
     9.767056961        19.723442428         4.472587378
     8.420303958        21.204627698        18.367243034
     7.073550925        22.685813002        32.261899000
    13.422119952        30.852057216         4.472587378
    12.075366949        32.333242487        18.367243034
    10.728613916        33.814427790        32.261899000
    20.380432250         8.594827142         4.472587378
    19.033679247        10.076012413        18.367243034
    17.686926214        11.557197716        32.261899000
    24.035495405        19.723442428         4.472587378
    22.688742401        21.204627698        18.367243034
    21.341989368        22.685813002        32.261899000
    27.690558396        30.852057216         4.472587378
    26.343805392        32.333242487        18.367243034
    24.997052359        33.814427790        32.261899000
    34.648871651         8.594827142         4.472587378
    33.302118647        10.076012413        18.367243034
    31.955365614        11.557197716        32.261899000
    38.303934805        19.723442428         4.472587378
    36.957181802        21.204627698        18.367243034
    35.610428768        22.685813002        32.261899000
    41.958997796        30.852057216         4.472587378
    40.612244793        32.333242487        18.367243034
    39.265491759        33.814427790        32.261899000
     4.691943221         9.213259627         1.813955317
     3.345190248        10.694444864        15.708610662
     1.998437335        12.175630035        29.603265386
     8.347006539        20.341875410         1.813955317
     7.000253566        21.823060647        15.708610662
     5.653500653        23.304245818        29.603265386
    12.002069530        31.470490198         1.813955317
    10.655316557        32.951675435        15.708610662
     9.308563644        34.432860606        29.603265386
    18.960382462         9.213259627         1.813955317
    17.613629489        10.694444864        15.708610662
    16.266876576        12.175630035        29.603265386
    22.615445780        20.341875410         1.813955317
    21.268692806        21.823060647        15.708610662
    19.921939893        23.304245818        29.603265386
    26.270508771        31.470490198         1.813955317
    24.923755797        32.951675435        15.708610662
    23.577002884        34.432860606        29.603265386
    33.228821862         9.213259627         1.813955317
    31.882068889        10.694444864        15.708610662
    30.535315976        12.175630035        29.603265386
    36.883885180        20.341875410         1.813955317
    35.537132207        21.823060647        15.708610662
    34.190379294        23.304245818        29.603265386
    40.538948171        31.470490198         1.813955317
    39.192195198        32.951675435        15.708610662
    37.845442285        34.432860606        29.603265386
     6.359072129         9.425822815         2.250578655
     5.012319110        10.907008102        16.145234467
     3.665566197        12.388193273        30.039889191
    10.014135120        20.554437603         2.250578655
     8.667382101        22.035622890        16.145234467
     7.320629188        23.516808061        30.039889191
    13.669198764        31.683054381         2.250578655
    12.322445746        33.164239668        16.145234467
    10.975692833        34.645424839        30.039889191
    20.627511210         9.425822815         2.250578655
    19.280758192        10.907008102        16.145234467
    17.934005278        12.388193273        30.039889191
    24.282574201        20.554437603         2.250578655
    22.935821183        22.035622890        16.145234467
    21.589068269        23.516808061        30.039889191
    27.937637846        31.683054381         2.250578655
    26.590884827        33.164239668        16.145234467
    25.244131914        34.645424839        30.039889191
    34.895950610         9.425822815         2.250578655
    33.549197592        10.907008102        16.145234467
    32.202444679        12.388193273        30.039889191
    38.551013601        20.554437603         2.250578655
    37.204260583        22.035622890        16.145234467
    35.857507670        23.516808061        30.039889191
    42.206077246        31.683054381         2.250578655
    40.859324227        33.164239668        16.145234467
    39.512571314        34.645424839        30.039889191
     6.636331866         7.139102120         1.190391813
     5.289578863         8.620287390        15.085047469
     3.942825830        10.101472694        28.979703436
    10.291394857        18.267716908         1.190391813
     8.944641854        19.748902178        15.085047469
     7.597888821        21.230087482        28.979703436
    13.946458502        29.396333686         1.190391813
    12.599705499        30.877518956        15.085047469
    11.252952465        32.358704260        28.979703436
    20.904771267         7.139102120         1.190391813
    19.558018263         8.620287390        15.085047469
    18.211265230        10.101472694        28.979703436
    24.559834258        18.267716908         1.190391813
    23.213081254        19.748902178        15.085047469
    21.866328221        21.230087482        28.979703436
    28.214897902        29.396333686         1.190391813
    26.868144899        30.877518956        15.085047469
    25.521391865        32.358704260        28.979703436
    35.173209391         7.139102120         1.190391813
    33.826456388         8.620287390        15.085047469
    32.479703354        10.101472694        28.979703436
    38.828272382        18.267716908         1.190391813
    37.481519379        19.748902178        15.085047469
    36.134766345        21.230087482        28.979703436
    42.483336027        29.396333686         1.190391813
    41.136583023        30.877518956        15.085047469
    39.789829990        32.358704260        28.979703436
     4.768814772         6.828911636         1.662983478
     3.422061783         8.310096890        15.557638978
     2.075308870         9.791282061        29.452293702
     8.423877763        17.957526424         1.662983478
     7.077124774        19.438711678        15.557638978
     5.730371861        20.919896849        29.452293702
    12.078941407        29.086143203         1.662983478
    10.732188419        30.567328456        15.557638978
     9.385435506        32.048513627        29.452293702
    19.037253853         6.828911636         1.662983478
    17.690500865         8.310096890        15.557638978
    16.343747952         9.791282061        29.452293702
    22.692316844        17.957526424         1.662983478
    21.345563856        19.438711678        15.557638978
    19.998810943        20.919896849        29.452293702
    26.347380489        29.086143203         1.662983478
    25.000627500        30.567328456        15.557638978
    23.653874587        32.048513627        29.452293702
    33.305691978         6.828911636         1.662983478
    31.958938989         8.310096890        15.557638978
    30.612186076         9.791282061        29.452293702
    36.960754969        17.957526424         1.662983478
    35.614001980        19.438711678        15.557638978
    34.267249067        20.919896849        29.452293702
    40.615818613        29.086143203         1.662983478
    39.269065625        30.567328456        15.557638978
    37.922312712        32.048513627        29.452293702
     5.349230037         5.715976283         3.306097945
     4.002477093         7.197161487        17.200752979
     2.655724060         8.678346791        31.095408946
     9.004293191        16.844591569         3.306097945
     7.657540248        18.325776773        17.200752979
     6.310787214        19.806962076        31.095408946
    12.659356509        27.973207352         3.306097945
    11.312603566        29.454392556        17.200752979
     9.965850532        30.935577860        31.095408946
    19.617669118         5.715976283         3.306097945
    18.270916175         7.197161487        17.200752979
    16.924163141         8.678346791        31.095408946
    23.272732272        16.844591569         3.306097945
    21.925979329        18.325776773        17.200752979
    20.579226296        19.806962076        31.095408946
    26.927795590        27.973207352         3.306097945
    25.581042647        29.454392556        17.200752979
    24.234289613        30.935577860        31.095408946
    33.886107242         5.715976283         3.306097945
    32.539354299         7.197161487        17.200752979
    31.192601266         8.678346791        31.095408946
    37.541170397        16.844591569         3.306097945
    36.194417454        18.325776773        17.200752979
    34.847664420        19.806962076        31.095408946
    41.196233715        27.973207352         3.306097945
    39.849480771        29.454392556        17.200752979
    38.502727738        30.935577860        31.095408946
     6.633376932         6.651175425         3.848881945
     5.286623988         8.132360629        17.743536979
     3.939870955         9.613545933        31.638192946
    10.288440413        17.779791706         3.848881945
     8.941687470        19.260976910        17.743536979
     7.594934436        20.742162213        31.638192946
    13.943503404        28.908406494         3.848881945
    12.596750461        30.389591698        17.743536979
    11.249997427        31.870777002        31.638192946
    20.901816332         6.651175425         3.848881945
    19.555063389         8.132360629        17.743536979
    18.208310355         9.613545933        31.638192946
    24.556879813        17.779791706         3.848881945
    23.210126870        19.260976910        17.743536979
    21.863373836        20.742162213        31.638192946
    28.211942804        28.908406494         3.848881945
    26.865189861        30.389591698        17.743536979
    25.518436827        31.870777002        31.638192946
    35.170254456         6.651175425         3.848881945
    33.823501513         8.132360629        17.743536979
    32.476748480         9.613545933        31.638192946
    38.825317938        17.779791706         3.848881945
    37.478564994        19.260976910        17.743536979
    36.131811961        20.742162213        31.638192946
    42.480380929        28.908406494         3.848881945
    41.133627985        30.389591698        17.743536979
    39.786874952        31.870777002        31.638192946
     8.158349399         5.674220769         1.946533662
     6.811596410         7.155406022        15.841189163
     5.464843497         8.636591194        29.735843887
    11.813412716        16.802836552         1.946533662
    10.466659728        18.284021806        15.841189163
     9.119906815        19.765206977        29.735843887
    15.468475707        27.931451340         1.946533662
    14.121722719        29.412636594        15.841189163
    12.774969806        30.893821765        29.735843887
    22.426788161         5.674220769         1.946533662
    21.080035173         7.155406022        15.841189163
    19.733282260         8.636591194        29.735843887
    26.081851479        16.802836552         1.946533662
    24.735098490        18.284021806        15.841189163
    23.388345577        19.765206977        29.735843887
    29.736914470        27.931451340         1.946533662
    28.390161481        29.412636594        15.841189163
    27.043408568        30.893821765        29.735843887
    36.695226286         5.674220769         1.946533662
    35.348473297         7.155406022        15.841189163
    34.001720384         8.636591194        29.735843887
    40.350289603        16.802836552         1.946533662
    39.003536615        18.284021806        15.841189163
    37.656783702        19.765206977        29.735843887
    44.005352594        27.931451340         1.946533662
    42.658599606        29.412636594        15.841189163
    41.311846693        30.893821765        29.735843887
     7.050732575         4.295573865         1.888303076
     5.703979587         5.776759119        15.782958576
     4.357226674         7.257944290        29.677613300
    10.705795811        15.424189400         1.888303076
     9.359042823        16.905374653        15.782958576
     8.012289910        18.386559824        29.677613300
    14.360858802        26.552804188         1.888303076
    13.014105814        28.033989441        15.782958576
    11.667352901        29.515174613        29.677613300
    21.319171338         4.295573865         1.888303076
    19.972418349         5.776759119        15.782958576
    18.625665436         7.257944290        29.677613300
    24.974234574        15.424189400         1.888303076
    23.627481586        16.905374653        15.782958576
    22.280728672        18.386559824        29.677613300
    28.629297565        26.552804188         1.888303076
    27.282544577        28.033989441        15.782958576
    25.935791663        29.515174613        29.677613300
    35.587610738         4.295573865         1.888303076
    34.240857750         5.776759119        15.782958576
    32.894104837         7.257944290        29.677613300
    39.242673974        15.424189400         1.888303076
    37.895920986        16.905374653        15.782958576
    36.549168073        18.386559824        29.677613300
    42.897736965        26.552804188         1.888303076
    41.550983977        28.033989441        15.782958576
    40.204231064        29.515174613        29.677613300
     8.821092712         3.630125499         3.440359734
     7.474339769         5.111310703        17.335014768
     6.127586615         6.592496139        31.229671977
    12.476155948        14.758741033         3.440359734
    11.129403005        16.239926237        17.335014768
     9.782649851        17.721111673        31.229671977
    16.131219266        25.887356816         3.440359734
    14.784466323        27.368542020        17.335014768
    13.437713169        28.849727456        31.229671977
    23.089531474         3.630125499         3.440359734
    21.742778531         5.111310703        17.335014768
    20.396025377         6.592496139        31.229671977
    26.744594710        14.758741033         3.440359734
    25.397841767        16.239926237        17.335014768
    24.051088613        17.721111673        31.229671977
    30.399658028        25.887356816         3.440359734
    29.052905085        27.368542020        17.335014768
    27.706151931        28.849727456        31.229671977
    37.357969599         3.630125499         3.440359734
    36.011216656         5.111310703        17.335014768
    34.664463502         6.592496139        31.229671977
    41.013032835        14.758741033         3.440359734
    39.666279892        16.239926237        17.335014768
    38.319526738        17.721111673        31.229671977
    44.668096153        25.887356816         3.440359734
    43.321343209        27.368542020        17.335014768
    41.974590056        28.849727456        31.229671977
     7.316826507         4.010730434         4.477467671
     5.970073564         5.491915638        18.372122706
     4.623320530         6.973100942        32.266778672
    10.971889825        15.139346217         4.477467671
     9.625136881        16.620531421        18.372122706
     8.278383848        18.101716725        32.266778672
    14.626953142        26.267962000         4.477467671
    13.280200199        27.749147204        18.372122706
    11.933447166        29.230332508        32.266778672
    21.585265269         4.010730434         4.477467671
    20.238512326         5.491915638        18.372122706
    18.891759293         6.973100942        32.266778672
    25.240328587        15.139346217         4.477467671
    23.893575644        16.620531421        18.372122706
    22.546822610        18.101716725        32.266778672
    28.895391905        26.267962000         4.477467671
    27.548638962        27.749147204        18.372122706
    26.201885928        29.230332508        32.266778672
    35.853704669         4.010730434         4.477467671
    34.506951726         5.491915638        18.372122706
    33.160198693         6.973100942        32.266778672
    39.508767987        15.139346217         4.477467671
    38.162015044        16.620531421        18.372122706
    36.815262011        18.101716725        32.266778672
    43.163831305        26.267962000         4.477467671
    41.817078362        27.749147204        18.372122706
    40.470325328        29.230332508        32.266778672
     9.391366683         4.962101774         5.427117614
     8.044613710         6.443287012        19.321772959
     6.697860677         7.924472315        33.216428925
    13.046429838        16.090717060         5.427117614
    11.699676865        17.571902297        19.321772959
    10.352923831        19.053087601        33.216428925
    16.701493156        27.219332843         5.427117614
    15.354740182        28.700518080        19.321772959
    14.007987149        30.181703384        33.216428925
    23.659805446         4.962101774         5.427117614
    22.313052473         6.443287012        19.321772959
    20.966299439         7.924472315        33.216428925
    27.314868600        16.090717060         5.427117614
    25.968115627        17.571902297        19.321772959
    24.621362593        19.053087601        33.216428925
    30.969931918        27.219332843         5.427117614
    29.623178945        28.700518080        19.321772959
    28.276425911        30.181703384        33.216428925
    37.928243570         4.962101774         5.427117614
    36.581490597         6.443287012        19.321772959
    35.234737564         7.924472315        33.216428925
    41.583306725        16.090717060         5.427117614
    40.236553752        17.571902297        19.321772959
    38.889800718        19.053087601        33.216428925
    45.238370043        27.219332843         5.427117614
    43.891617069        28.700518080        19.321772959
    42.544864036        30.181703384        33.216428925
     8.441433296         6.225060048         5.025572663
     7.094680262         7.706245352        18.920228629
     5.747927229         9.187430655        32.814884596
    12.096496450        17.353675334         5.025572663
    10.749743417        18.834860637        18.920228629
     9.402990383        20.316045941        32.814884596
    15.751559441        28.482290122         5.025572663
    14.404806408        29.963475426        18.920228629
    13.058053374        31.444660729        32.814884596
    22.709872058         6.225060048         5.025572663
    21.363119025         7.706245352        18.920228629
    20.016365991         9.187430655        32.814884596
    26.364935212        17.353675334         5.025572663
    25.018182179        18.834860637        18.920228629
    23.671429146        20.316045941        32.814884596
    30.019998204        28.482290122         5.025572663
    28.673245170        29.963475426        18.920228629
    27.326492137        31.444660729        32.814884596
    36.978310183         6.225060048         5.025572663
    35.631557149         7.706245352        18.920228629
    34.284804116         9.187430655        32.814884596
    40.633373337        17.353675334         5.025572663
    39.286620304        18.834860637        18.920228629
    37.939867270        20.316045941        32.814884596
    44.288436328        28.482290122         5.025572663
    42.941683295        29.963475426        18.920228629
    41.594930261        31.444660729        32.814884596
     9.431936711         6.715866275         3.146917902
     8.085183708         8.197051545        17.041573558
     6.738430795         9.678236716        30.936228282
    13.086999702        17.844481063         3.146917902
    11.740246699        19.325666333        17.041573558
    10.393493786        20.806851504        30.936228282
    16.742063347        28.973097841         3.146917902
    15.395310344        30.454283111        17.041573558
    14.048557431        31.935468282        30.936228282
    23.700374836         6.715866275         3.146917902
    22.353621833         8.197051545        17.041573558
    21.006868919         9.678236716        30.936228282
    27.355437827        17.844481063         3.146917902
    26.008684824        19.325666333        17.041573558
    24.661931910        20.806851504        30.936228282
    31.010501472        28.973097841         3.146917902
    29.663748468        30.454283111        17.041573558
    28.316995555        31.935468282        30.936228282
    37.968815512         6.715866275         3.146917902
    36.622062508         8.197051545        17.041573558
    35.275309595         9.678236716        30.936228282
    41.623878503        17.844481063         3.146917902
    40.277125499        19.325666333        17.041573558
    38.930372586        20.806851504        30.936228282
    45.278942147        28.973097841         3.146917902
    43.932189144        30.454283111        17.041573558
    42.585436231        31.935468282        30.936228282
    10.355855977         7.194284442         4.497999127
     9.009102944         8.675469745        18.392655094
     7.662349910        10.156655049        32.287311060
    14.010918968        18.322899230         4.497999127
    12.664165935        19.804084533        18.392655094
    11.317412901        21.285269837        32.287311060
    17.665982613        29.451516008         4.497999127
    16.319229579        30.932701311        18.392655094
    14.972476546        32.413886615        32.287311060
    24.624294102         7.194284442         4.497999127
    23.277541068         8.675469745        18.392655094
    21.930788035        10.156655049        32.287311060
    28.279357093        18.322899230         4.497999127
    26.932604059        19.804084533        18.392655094
    25.585851026        21.285269837        32.287311060
    31.934420737        29.451516008         4.497999127
    30.587667704        30.932701311        18.392655094
    29.240914670        32.413886615        32.287311060
    38.892734778         7.194284442         4.497999127
    37.545981744         8.675469745        18.392655094
    36.199228711        10.156655049        32.287311060
    42.547797769        18.322899230         4.497999127
    41.201044735        19.804084533        18.392655094
    39.854291702        21.285269837        32.287311060
    46.202861413        29.451516008         4.497999127
    44.856108380        30.932701311        18.392655094
    43.509355346        32.413886615        32.287311060
    10.716276180         4.563162283         2.752601462
     9.369523207         6.044347521        16.647256808
     8.022770294         7.525532692        30.541911532
    14.371339334        15.691777569         2.752601462
    13.024586361        17.172962806        16.647256808
    11.677833448        18.654147977        30.541911532
    18.026402652        26.820393352         2.752601462
    16.679649679        28.301578589        16.647256808
    15.332896766        29.782763761        30.541911532
    24.984716218         4.563162283         2.752601462
    23.637963245         6.044347521        16.647256808
    22.291210332         7.525532692        30.541911532
    28.639779373        15.691777569         2.752601462
    27.293026399        17.172962806        16.647256808
    25.946273486        18.654147977        30.541911532
    32.294842690        26.820393352         2.752601462
    30.948089717        28.301578589        16.647256808
    29.601336804        29.782763761        30.541911532
    39.253154343         4.563162283         2.752601462
    37.906401369         6.044347521        16.647256808
    36.559648456         7.525532692        30.541911532
    42.908217497        15.691777569         2.752601462
    41.561464524        17.172962806        16.647256808
    40.214711611        18.654147977        30.541911532
    46.563280815        26.820393352         2.752601462
    45.216527842        28.301578589        16.647256808
    43.869774928        29.782763761        30.541911532
    11.419737904         5.947395255         2.172490860
    10.072984946         7.428580476        16.067146050
     8.726231912         8.909765779        29.961802017
    15.074800895        17.076010043         2.172490860
    13.728047937        18.557195264        16.067146050
    12.381294903        20.038380568        29.961802017
    18.729864540        28.204626821         2.172490860
    17.383111581        29.685812042        16.067146050
    16.036358548        31.166997346        29.961802017
    25.688177942         5.947395255         2.172490860
    24.341424984         7.428580476        16.067146050
    22.994671950         8.909765779        29.961802017
    29.343240933        17.076010043         2.172490860
    27.996487975        18.557195264        16.067146050
    26.649734941        20.038380568        29.961802017
    32.998304578        28.204626821         2.172490860
    31.651551619        29.685812042        16.067146050
    30.304798586        31.166997346        29.961802017
    39.956616067         5.947395255         2.172490860
    38.609863108         7.428580476        16.067146050
    37.263110075         8.909765779        29.961802017
    43.611679058        17.076010043         2.172490860
    42.264926099        18.557195264        16.067146050
    40.918173066        20.038380568        29.961802017
    47.266742702        28.204626821         2.172490860
    45.919989744        29.685812042        16.067146050
    44.573236710        31.166997346        29.961802017
    12.953533936         4.598953080         3.087291926
    11.606780903         6.080138383        16.981947892
    10.260027869         7.561323687        30.876603859
    16.608597091        15.727568365         3.087291926
    15.261844057        17.208753669        16.981947892
    13.915091024        18.689938973        30.876603859
    20.263660082        26.856183154         3.087291926
    18.916907048        28.337368457        16.981947892
    17.570154015        29.818553761        30.876603859
    27.221973337         4.598953080         3.087291926
    25.875220303         6.080138383        16.981947892
    24.528467270         7.561323687        30.876603859
    30.877036491        15.727568365         3.087291926
    29.530283458        17.208753669        16.981947892
    28.183530424        18.689938973        30.876603859
    34.532099482        26.856183154         3.087291926
    33.185346449        28.337368457        16.981947892
    31.838593415        29.818553761        30.876603859
    41.490411461         4.598953080         3.087291926
    40.143658428         6.080138383        16.981947892
    38.796905394         7.561323687        30.876603859
    45.145474616        15.727568365         3.087291926
    43.798721582        17.208753669        16.981947892
    42.451968549        18.689938973        30.876603859
    48.800537607        26.856183154         3.087291926
    47.453784573        28.337368457        16.981947892
    46.107031540        29.818553761        30.876603859
    12.218378893         4.481630995         4.633173059
    10.871625890         5.962816266        18.527828715
     9.524872977         7.444001437        32.422483439
    15.873442129        15.610246530         4.633173059
    14.526689126        17.091431800        18.527828715
    13.179936213        18.572616971        32.422483439
    19.528505447        26.738862313         4.633173059
    18.181752444        28.220047583        18.527828715
    16.834999531        29.701232754        32.422483439
    26.486818293         4.481630995         4.633173059
    25.140065290         5.962816266        18.527828715
    23.793312377         7.444001437        32.422483439
    30.141881529        15.610246530         4.633173059
    28.795128526        17.091431800        18.527828715
    27.448375613        18.572616971        32.422483439
    33.796944847        26.738862313         4.633173059
    32.450191844        28.220047583        18.527828715
    31.103438931        29.701232754        32.422483439
    40.755256418         4.481630995         4.633173059
    39.408503415         5.962816266        18.527828715
    38.061750501         7.444001437        32.422483439
    44.410319654        15.610246530         4.633173059
    43.063566651        17.091431800        18.527828715
    41.716813738        18.572616971        32.422483439
    48.065382972        26.738862313         4.633173059
    46.718629968        28.220047583        18.527828715
    45.371877055        29.701232754        32.422483439
    13.985951544         5.920964288         4.988393737
    12.639198510         7.402149591        18.883049703
    11.292445477         8.883334895        32.777705669
    17.641014698        17.049579573         4.988393737
    16.294261665        18.530764877        18.883049703
    14.947508631        20.011950180        32.777705669
    21.296077689        28.178194362         4.988393737
    19.949324656        29.659379665        18.883049703
    18.602571622        31.140564969        32.777705669
    28.254390944         5.920964288         4.988393737
    26.907637911         7.402149591        18.883049703
    25.560884877         8.883334895        32.777705669
    31.909454099        17.049579573         4.988393737
    30.562701065        18.530764877        18.883049703
    29.215948032        20.011950180        32.777705669
    35.564517090        28.178194362         4.988393737
    34.217764056        29.659379665        18.883049703
    32.871011023        31.140564969        32.777705669
    42.522829069         5.920964288         4.988393737
    41.176076035         7.402149591        18.883049703
    39.829323002         8.883334895        32.777705669
    46.177892223        17.049579573         4.988393737
    44.831139190        18.530764877        18.883049703
    43.484386156        20.011950180        32.777705669
    49.832955214        28.178194362         4.988393737
    48.486202181        29.659379665        18.883049703
    47.139449147        31.140564969        32.777705669
    12.543100487         6.786465385         5.219266322
    11.196347453         8.267650689        19.113922288
     9.849594420         9.748835992        33.008578255
    16.198163641        17.915080671         5.219266322
    14.851410608        19.396265974        19.113922288
    13.504657574        20.877451278        33.008578255
    19.853226632        29.043695459         5.219266322
    18.506473599        30.524880762        19.113922288
    17.159720565        32.006066066        33.008578255
    26.811538611         6.786465385         5.219266322
    25.464785578         8.267650689        19.113922288
    24.118032544         9.748835992        33.008578255
    30.466601766        17.915080671         5.219266322
    29.119848732        19.396265974        19.113922288
    27.773095699        20.877451278        33.008578255
    34.121664757        29.043695459         5.219266322
    32.774911723        30.524880762        19.113922288
    31.428158690        32.006066066        33.008578255
    41.079979287         6.786465385         5.219266322
    39.733226254         8.267650689        19.113922288
    38.386473220         9.748835992        33.008578255
    44.735042442        17.915080671         5.219266322
    43.388289408        19.396265974        19.113922288
    42.041536375        20.877451278        33.008578255
    48.390105433        29.043695459         5.219266322
    47.043352399        30.524880762        19.113922288
    45.696599366        32.006066066        33.008578255
    12.715278477         8.240508861         3.843150690
    11.368525473         9.721694132        17.737806346
    10.021772560        11.202879303        31.632461070
    16.370341631        19.369124147         3.843150690
    15.023588628        20.850309417        17.737806346
    13.676835715        22.331494589        31.632461070
    20.025404622        30.497738935         3.843150690
    18.678651619        31.978924206        17.737806346
    17.331898706        33.460109377        31.632461070
    26.983717239         8.240508861         3.843150690
    25.636964236         9.721694132        17.737806346
    24.290211323        11.202879303        31.632461070
    30.638780393        19.369124147         3.843150690
    29.292027390        20.850309417        17.737806346
    27.945274477        22.331494589        31.632461070
    34.293843384        30.497738935         3.843150690
    32.947090381        31.978924206        17.737806346
    31.600337468        33.460109377        31.632461070
    41.252155364         8.240508861         3.843150690
    39.905402360         9.721694132        17.737806346
    38.558649447        11.202879303        31.632461070
    44.907218518        19.369124147         3.843150690
    43.560465515        20.850309417        17.737806346
    42.213712602        22.331494589        31.632461070
    48.562281509        30.497738935         3.843150690
    47.215528506        31.978924206        17.737806346
    45.868775593        33.460109377        31.632461070
    14.349663389         8.194449089         4.009724777
    13.002910446         9.675634293        17.904379812
    11.656157412        11.156819596        31.799035779
    18.004726870        19.323065369         4.009724777
    16.657973927        20.804250573        17.904379812
    15.311220894        22.285435877        31.799035779
    21.659789861        30.451680157         4.009724777
    20.313036918        31.932865362        17.904379812
    18.966283885        33.414050665        31.799035779
    28.618102789         8.194449089         4.009724777
    27.271349846         9.675634293        17.904379812
    25.924596813        11.156819596        31.799035779
    32.273166271        19.323065369         4.009724777
    30.926413327        20.804250573        17.904379812
    29.579660294        22.285435877        31.799035779
    35.928229262        30.451680157         4.009724777
    34.581476318        31.932865362        17.904379812
    33.234723285        33.414050665        31.799035779
    42.886540914         8.194449089         4.009724777
    41.539787971         9.675634293        17.904379812
    40.193034937        11.156819596        31.799035779
    46.541604395        19.323065369         4.009724777
    45.194851452        20.804250573        17.904379812
    43.848098418        22.285435877        31.799035779
    50.196667386        30.451680157         4.009724777
    48.849914443        31.932865362        17.904379812
    47.503161409        33.414050665        31.799035779
    14.627045302         6.891215830         1.784024933
    13.280292314         8.372401084        15.678680434
    11.933539280         9.853586387        29.573336400
    18.282108783        18.019832110         1.784024933
    16.935355795        19.501017364        15.678680434
    15.588602761        20.982202668        29.573336400
    21.937171774        29.148446898         1.784024933
    20.590418786        30.629632152        15.678680434
    19.243665752        32.110817456        29.573336400
    28.895484702         6.891215830         1.784024933
    27.548731714         8.372401084        15.678680434
    26.201978681         9.853586387        29.573336400
    32.550548184        18.019832110         1.784024933
    31.203795195        19.501017364        15.678680434
    29.857042162        20.982202668        29.573336400
    36.205611175        29.148446898         1.784024933
    34.858858186        30.629632152        15.678680434
    33.512105153        32.110817456        29.573336400
    43.163922827         6.891215830         1.784024933
    41.817169839         8.372401084        15.678680434
    40.470416805         9.853586387        29.573336400
    46.818986308        18.019832110         1.784024933
    45.472233320        19.501017364        15.678680434
    44.125480286        20.982202668        29.573336400
    50.474049299        29.148446898         1.784024933
    49.127296311        30.629632152        15.678680434
    47.780543277        32.110817456        29.573336400
    12.926118386         6.677857713         1.566723935
    11.579365367         8.159043000        15.461379747
    10.232612454         9.640228171        29.356034471
    16.581181867        17.806473994         1.566723935
    15.234428848        19.287659281        15.461379747
    13.887675935        20.768844452        29.356034471
    20.236244858        28.935088782         1.566723935
    18.889491839        30.416274069        15.461379747
    17.542738926        31.897459240        29.356034471
    27.194557786         6.677857713         1.566723935
    25.847804767         8.159043000        15.461379747
    24.501051854         9.640228171        29.356034471
    30.849621267        17.806473994         1.566723935
    29.502868249        19.287659281        15.461379747
    28.156115336        20.768844452        29.356034471
    34.504684258        28.935088782         1.566723935
    33.157931240        30.416274069        15.461379747
    31.811178327        31.897459240        29.356034471
    41.462995910         6.677857713         1.566723935
    40.116242892         8.159043000        15.461379747
    38.769489979         9.640228171        29.356034471
    45.118059392        17.806473994         1.566723935
    43.771306373        19.287659281        15.461379747
    42.424553460        20.768844452        29.356034471
    48.773122383        28.935088782         1.566723935
    47.426369364        30.416274069        15.461379747
    46.079616451        31.897459240        29.356034471
    14.151867675         8.291236728         0.204833893
    12.805114711         9.772421955        14.099489141
    11.458361798        11.253607126        27.994143866
    17.806931156        19.419853008         0.204833893
    16.460178193        20.901038235        14.099489141
    15.113425279        22.382223406        27.994143866
    21.461994147        30.548467796         0.204833893
    20.115241184        32.029653023        14.099489141
    18.768488270        33.510838194        27.994143866
    28.420305800         8.291236728         0.204833893
    27.073552836         9.772421955        14.099489141
    25.726799923        11.253607126        27.994143866
    32.075369281        19.419853008         0.204833893
    30.728616317        20.901038235        14.099489141
    29.381863404        22.382223406        27.994143866
    35.730432272        30.548467796         0.204833893
    34.383679308        32.029653023        14.099489141
    33.036926395        33.510838194        27.994143866
    42.688746476         8.291236728         0.204833893
    41.341993512         9.772421955        14.099489141
    39.995240599        11.253607126        27.994143866
    46.343809957        19.419853008         0.204833893
    44.997056993        20.901038235        14.099489141
    43.650304080        22.382223406        27.994143866
    49.998872948        30.548467796         0.204833893
    48.652119984        32.029653023        14.099489141
    47.305367071        33.510838194        27.994143866
    12.767204470         9.143587163         1.130058437
    11.420451504        10.624772392        15.024713704
    10.073698591        12.105957564        28.919368429
    16.422267788        20.272202947         1.130058437
    15.075514822        21.753388176        15.024713704
    13.728761909        23.234573347        28.919368429
    20.077330779        31.400817735         1.130058437
    18.730577813        32.882002964        15.024713704
    17.383824900        34.363188135        28.919368429
    27.035642594         9.143587163         1.130058437
    25.688889629        10.624772392        15.024713704
    24.342136716        12.105957564        28.919368429
    30.690705912        20.272202947         1.130058437
    29.343952946        21.753388176        15.024713704
    27.997200033        23.234573347        28.919368429
    34.345768903        31.400817735         1.130058437
    32.999015937        32.882002964        15.024713704
    31.652263024        34.363188135        28.919368429
    41.304083270         9.143587163         1.130058437
    39.957330305        10.624772392        15.024713704
    38.610577392        12.105957564        28.919368429
    44.959146588        20.272202947         1.130058437
    43.612393622        21.753388176        15.024713704
    42.265640709        23.234573347        28.919368429
    48.614209579        31.400817735         1.130058437
    47.267456613        32.882002964        15.024713704
    45.920703700        34.363188135        28.919368429
    15.565346417         9.290812661         2.231762942
    14.218593383        10.771997964        16.126418909
    12.871840470        12.253183135        30.021073633
    19.220409408        20.419427449         2.231762942
    17.873656374        21.900612752        16.126418909
    16.526903461        23.381797923        30.021073633
    22.875473052        31.548044227         2.231762942
    21.528720019        33.029229530        16.126418909
    20.181967106        34.510414701        30.021073633
    29.833785817         9.290812661         2.231762942
    28.487032783        10.771997964        16.126418909
    27.140279870        12.253183135        30.021073633
    33.488848808        20.419427449         2.231762942
    32.142095774        21.900612752        16.126418909
    30.795342861        23.381797923        30.021073633
    37.143912453        31.548044227         2.231762942
    35.797159419        33.029229530        16.126418909
    34.450406506        34.510414701        30.021073633
    44.102223942         9.290812661         2.231762942
    42.755470908        10.771997964        16.126418909
    41.408717995        12.253183135        30.021073633
    47.757286933        20.419427449         2.231762942
    46.410533899        21.900612752        16.126418909
    45.063780986        23.381797923        30.021073633
    51.412350577        31.548044227         2.231762942
    50.065597544        33.029229530        16.126418909
    48.718844631        34.510414701        30.021073633
    14.279111402        10.315587030         2.665665845
    12.932358459        11.796772234        16.560320880
    11.585605426        13.277957538        30.454976846
    17.934174720        21.444202813         2.665665845
    16.587421777        22.925388017        16.560320880
    15.240668743        24.406573321        30.454976846
    21.589237711        32.572817601         2.665665845
    20.242484768        34.054002805        16.560320880
    18.895731734        35.535188109        30.454976846
    28.547550803        10.315587030         2.665665845
    27.200797859        11.796772234        16.560320880
    25.854044826        13.277957538        30.454976846
    32.202614120        21.444202813         2.665665845
    30.855861177        22.925388017        16.560320880
    29.509108144        24.406573321        30.454976846
    35.857677111        32.572817601         2.665665845
    34.510924168        34.054002805        16.560320880
    33.164171135        35.535188109        30.454976846
    42.815988927        10.315587030         2.665665845
    41.469235984        11.796772234        16.560320880
    40.122482950        13.277957538        30.454976846
    46.471052245        21.444202813         2.665665845
    45.124299302        22.925388017        16.560320880
    43.777546268        24.406573321        30.454976846
    50.126115236        32.572817601         2.665665845
    48.779362293        34.054002805        16.560320880
    47.432609259        35.535188109        30.454976846
    16.102765251        10.714803273         0.051119359
    14.756012297        12.195988489        13.945774505
    13.409259384        13.677173660        27.840429230
    19.757828242        21.843418061         0.051119359
    18.411075288        23.324603277        13.945774505
    17.064322375        24.805788448        27.840429230
    23.412891887        32.972034839         0.051119359
    22.066138933        34.453220055        13.945774505
    20.719386020        35.934405226        27.840429230
    30.371204651        10.714803273         0.051119359
    29.024451697        12.195988489        13.945774505
    27.677698784        13.677173660        27.840429230
    34.026267642        21.843418061         0.051119359
    32.679514688        23.324603277        13.945774505
    31.332761775        24.805788448        27.840429230
    37.681331287        32.972034839         0.051119359
    36.334578333        34.453220055        13.945774505
    34.987825420        35.934405226        27.840429230
    44.639642776        10.714803273         0.051119359
    43.292889822        12.195988489        13.945774505
    41.946136909        13.677173660        27.840429230
    48.294705767        21.843418061         0.051119359
    46.947952813        23.324603277        13.945774505
    45.601199900        24.805788448        27.840429230
    51.949769412        32.972034839         0.051119359
    50.603016458        34.453220055        13.945774505
    49.256263544        35.934405226        27.840429230
    14.372241162        11.078774373         0.225135819
    13.025488136        12.559959669        14.119791707
    11.678735102        14.041144972        28.014447674
    18.027304479        22.207390156         0.225135819
    16.680551453        23.688575452        14.119791707
    15.333798420        25.169760755        28.014447674
    21.682367470        33.336004944         0.225135819
    20.335614444        34.817190240        14.119791707
    18.988861411        36.298375543        28.014447674
    28.640679286        11.078774373         0.225135819
    27.293926260        12.559959669        14.119791707
    25.947173227        14.041144972        28.014447674
    32.295742604        22.207390156         0.225135819
    30.948989578        23.688575452        14.119791707
    29.602236545        25.169760755        28.014447674
    35.950805595        33.336004944         0.225135819
    34.604052569        34.817190240        14.119791707
    33.257299536        36.298375543        28.014447674
    42.909119962        11.078774373         0.225135819
    41.562366936        12.559959669        14.119791707
    40.215613903        14.041144972        28.014447674
    46.564183280        22.207390156         0.225135819
    45.217430254        23.688575452        14.119791707
    43.870677220        25.169760755        28.014447674
    50.219246271        33.336004944         0.225135819
    48.872493245        34.817190240        14.119791707
    47.525740212        36.298375543        28.014447674
    11.967972720         1.882501013         0.876885080
    10.621219694         3.363686308        14.771540969
     9.274466661         4.844871612        28.666196935
    15.623036038        13.011116796         0.876885080
    14.276283012        14.492302091        14.771540969
    12.929529978        15.973487395        28.666196935
    19.278099356        24.139732579         0.876885080
    17.931346330        25.620917874        14.771540969
    16.584593296        27.102103178        28.666196935
    26.236412120         1.882501013         0.876885080
    24.889659094         3.363686308        14.771540969
    23.542906061         4.844871612        28.666196935
    29.891475438        13.011116796         0.876885080
    28.544722412        14.492302091        14.771540969
    27.197969379        15.973487395        28.666196935
    33.546538756        24.139732579         0.876885080
    32.199785730        25.620917874        14.771540969
    30.853032696        27.102103178        28.666196935
    40.504850245         1.882501013         0.876885080
    39.158097219         3.363686308        14.771540969
    37.811344185         4.844871612        28.666196935
    44.159913563        13.011116796         0.876885080
    42.813160537        14.492302091        14.771540969
    41.466407503        15.973487395        28.666196935
    47.814976880        24.139732579         0.876885080
    46.468223854        25.620917874        14.771540969
    45.121470821        27.102103178        28.666196935
    13.134077990         1.058273833         1.974234155
    11.787325017         2.539459071        15.868889500
    10.440572104         4.020644242        29.763544224
    16.789141145        12.186889119         1.974234155
    15.442388171        13.668074356        15.868889500
    14.095635258        15.149259527        29.763544224
    20.444204136        23.315503907         1.974234155
    19.097451162        24.796689144        15.868889500
    17.750698249        26.277874316        29.763544224
    27.402517391         1.058273833         1.974234155
    26.055764417         2.539459071        15.868889500
    24.709011504         4.020644242        29.763544224
    31.057580545        12.186889119         1.974234155
    29.710827572        13.668074356        15.868889500
    28.364074659        15.149259527        29.763544224
    34.712643536        23.315503907         1.974234155
    33.365890563        24.796689144        15.868889500
    32.019137650        26.277874316        29.763544224
    41.670955515         1.058273833         1.974234155
    40.324202542         2.539459071        15.868889500
    38.977449629         4.020644242        29.763544224
    45.326018669        12.186889119         1.974234155
    43.979265696        13.668074356        15.868889500
    42.632512783        15.149259527        29.763544224
    48.981081660        23.315503907         1.974234155
    47.634328687        24.796689144        15.868889500
    46.287575774        26.277874316        29.763544224
    10.365056422         1.019753291         2.860286866
     9.018303418         2.500938561        16.754942521
     7.671550505         3.982123733        30.649597246
    14.020119637        12.148368763         2.860286866
    12.673366634        13.629554034        16.754942521
    11.326613721        15.110739205        30.649597246
    17.675182628        23.276983551         2.860286866
    16.328429625        24.758168822        16.754942521
    14.981676712        26.239353993        30.649597246
    24.633494546         1.019753291         2.860286866
    23.286741543         2.500938561        16.754942521
    21.939988630         3.982123733        30.649597246
    28.288557762        12.148368763         2.860286866
    26.941804758        13.629554034        16.754942521
    25.595051845        15.110739205        30.649597246
    31.943620753        23.276983551         2.860286866
    30.596867749        24.758168822        16.754942521
    29.250114836        26.239353993        30.649597246
    38.901935222         1.019753291         2.860286866
    37.555182219         2.500938561        16.754942521
    36.208429306         3.982123733        30.649597246
    42.556998438        12.148368763         2.860286866
    41.210245434        13.629554034        16.754942521
    39.863492521        15.110739205        30.649597246
    46.212061429        23.276983551         2.860286866
    44.865308425        24.758168822        16.754942521
    43.518555512        26.239353993        30.649597246
    11.115551121         2.432351169         3.139757095
     9.768798088         3.913536473        17.034413062
     8.422045175         5.394721644        30.929067786
    14.770614439        13.560966952         3.139757095
    13.423861405        15.042152256        17.034413062
    12.077108492        16.523337427        30.929067786
    18.425677757        24.689582735         3.139757095
    17.078924723        26.170768039        17.034413062
    15.732171810        27.651953210        30.929067786
    25.383990521         2.432351169         3.139757095
    24.037237488         3.913536473        17.034413062
    22.690484575         5.394721644        30.929067786
    29.039053839        13.560966952         3.139757095
    27.692300806        15.042152256        17.034413062
    26.345547893        16.523337427        30.929067786
    32.694117157        24.689582735         3.139757095
    31.347364123        26.170768039        17.034413062
    30.000611210        27.651953210        30.929067786
    39.652428646         2.432351169         3.139757095
    38.305675612         3.913536473        17.034413062
    36.958922699         5.394721644        30.929067786
    43.307491964        13.560966952         3.139757095
    41.960738930        15.042152256        17.034413062
    40.613986017        16.523337427        30.929067786
    46.962555282        24.689582735         3.139757095
    45.615802248        26.170768039        17.034413062
    44.269049335        27.651953210        30.929067786
    15.069944198        10.889546614         4.342303056
    13.723191165        12.370731917        18.236959023
    12.376438252        13.851917088        32.131613747
    18.725007516        22.018162397         4.342303056
    17.378254483        23.499347700        18.236959023
    16.031501569        24.980532871        32.131613747
    22.380070507        33.146777185         4.342303056
    21.033317474        34.627962489        18.236959023
    19.686564560        36.109147660        32.131613747
    29.338383599        10.889546614         4.342303056
    27.991630565        12.370731917        18.236959023
    26.644877652        13.851917088        32.131613747
    32.993446916        22.018162397         4.342303056
    31.646693883        23.499347700        18.236959023
    30.299940970        24.980532871        32.131613747
    36.648509907        33.146777185         4.342303056
    35.301756874        34.627962489        18.236959023
    33.955003961        36.109147660        32.131613747
    43.606821723        10.889546614         4.342303056
    42.260068690        12.370731917        18.236959023
    40.913315776        13.851917088        32.131613747
    47.261885041        22.018162397         4.342303056
    45.915132007        23.499347700        18.236959023
    44.568379094        24.980532871        32.131613747
    50.916948032        33.146777185         4.342303056
    49.570194998        34.627962489        18.236959023
    48.223442085        36.109147660        32.131613747
    13.073145186         0.703831513         3.989339600
    11.726392183         2.185016783        17.883995256
    10.379639270         3.666201954        31.778649980
    16.728208422        11.832447047         3.989339600
    15.381455419        13.313632318        17.883995256
    14.034702506        14.794817489        31.778649980
    20.383271740        22.961062830         3.989339600
    19.036518737        24.442248101        17.883995256
    17.689765824        25.923433272        31.778649980
    27.341584587         0.703831513         3.989339600
    25.994831583         2.185016783        17.883995256
    24.648078670         3.666201954        31.778649980
    30.996647823        11.832447047         3.989339600
    29.649894819        13.313632318        17.883995256
    28.303141906        14.794817489        31.778649980
    34.651711140        22.961062830         3.989339600
    33.304958137        24.442248101        17.883995256
    31.958205224        25.923433272        31.778649980
    41.610022711         0.703831513         3.989339600
    40.263269708         2.185016783        17.883995256
    38.916516795         3.666201954        31.778649980
    45.265085947        11.832447047         3.989339600
    43.918332944        13.313632318        17.883995256
    42.571580031        14.794817489        31.778649980
    48.920149265        22.961062830         3.989339600
    47.573396262        24.442248101        17.883995256
    46.226643349        25.923433272        31.778649980
    12.298401083         2.457747007         5.506057613
    10.951648049         3.938932310        19.400713579
     9.604895136         5.420117481        33.295368303
    15.953464360        13.586362666         5.506057613
    14.606711326        15.067547969        19.400713579
    13.259958413        16.548733140        33.295368303
    19.608527677        24.714978449         5.506057613
    18.261774644        26.196163752        19.400713579
    16.915021731        27.677348923        33.295368303
    26.566840483         2.457747007         5.506057613
    25.220087449         3.938932310        19.400713579
    23.873334536         5.420117481        33.295368303
    30.221903760        13.586362666         5.506057613
    28.875150726        15.067547969        19.400713579
    27.528397813        16.548733140        33.295368303
    33.876967078        24.714978449         5.506057613
    32.530214044        26.196163752        19.400713579
    31.183461131        27.677348923        33.295368303
    40.835278607         2.457747007         5.506057613
    39.488525574         3.938932310        19.400713579
    38.141772661         5.420117481        33.295368303
    44.490341884        13.586362666         5.506057613
    43.143588851        15.067547969        19.400713579
    41.796835938        16.548733140        33.295368303
    48.145405202        24.714978449         5.506057613
    46.798652169        26.196163752        19.400713579
    45.451899256        27.677348923        33.295368303
    10.624902130         2.037982206         5.397871881
     9.278149157         3.519167443        19.292527227
     7.931396123         5.000352747        33.187183193
    14.279965244        13.166597367         5.397871881
    12.933212270        14.647782604        19.292527227
    11.586459237        16.128967908        33.187183193
    17.935028561        24.295213150         5.397871881
    16.588275588        25.776398388        19.292527227
    15.241522555        27.257583691        33.187183193
    24.893340893         2.037982206         5.397871881
    23.546587919         3.519167443        19.292527227
    22.199834886         5.000352747        33.187183193
    28.548404006        13.166597367         5.397871881
    27.201651033        14.647782604        19.292527227
    25.854897999        16.128967908        33.187183193
    32.203467324        24.295213150         5.397871881
    30.856714351        25.776398388        19.292527227
    29.509961317        27.257583691        33.187183193
    39.161779017         2.037982206         5.397871881
    37.815026044         3.519167443        19.292527227
    36.468273010         5.000352747        33.187183193
    42.816842131        13.166597367         5.397871881
    41.470089157        14.647782604        19.292527227
    40.123336124        16.128967908        33.187183193
    46.471905448        24.295213150         5.397871881
    45.125152475        25.776398388        19.292527227
    43.778399442        27.257583691        33.187183193
    16.338290600        11.588006396         7.122193662
    14.991537626        13.069191633        21.016849007
    13.644784713        14.550376804        34.911503731
    19.993353591        22.716621184         7.122193662
    18.646600617        24.197806421        21.016849007
    17.299847704        25.678991592        34.911503731
    23.648417235        33.845237962         7.122193662
    22.301664262        35.326423199        21.016849007
    20.954911349        36.807608370        34.911503731
    30.606728724        11.588006396         7.122193662
    29.259975751        13.069191633        21.016849007
    27.913222838        14.550376804        34.911503731
    34.261791715        22.716621184         7.122193662
    32.915038742        24.197806421        21.016849007
    31.568285829        25.678991592        34.911503731
    37.916855360        33.845237962         7.122193662
    36.570102386        35.326423199        21.016849007
    35.223349473        36.807608370        34.911503731
    44.875169400        11.588006396         7.122193662
    43.528416427        13.069191633        21.016849007
    42.181663514        14.550376804        34.911503731
    48.530232391        22.716621184         7.122193662
    47.183479418        24.197806421        21.016849007
    45.836726505        25.678991592        34.911503731
    52.185296036        33.845237962         7.122193662
    50.838543062        35.326423199        21.016849007
    49.491790149        36.807608370        34.911503731
    14.641887739        11.415127047         6.904875583
    13.295134766        12.896312284        20.799530928
    11.948381732        14.377497588        34.694186894
    18.296951057        22.543742830         6.904875583
    16.950198084        24.024928068        20.799530928
    15.603445050        25.506113371        34.694186894
    21.952014048        33.672357618         6.904875583
    20.605261075        35.153542856        20.799530928
    19.258508041        36.634728159        34.694186894
    28.910327139        11.415127047         6.904875583
    27.563574166        12.896312284        20.799530928
    26.216821133        14.377497588        34.694186894
    32.565390457        22.543742830         6.904875583
    31.218637484        24.024928068        20.799530928
    29.871884450        25.506113371        34.694186894
    36.220453448        33.672357618         6.904875583
    34.873700475        35.153542856        20.799530928
    33.526947441        36.634728159        34.694186894
    43.178765264        11.415127047         6.904875583
    41.832012291        12.896312284        20.799530928
    40.485259257        14.377497588        34.694186894
    46.833828582        22.543742830         6.904875583
    45.487075608        24.024928068        20.799530928
    44.140322575        25.506113371        34.694186894
    50.488891573        33.672357618         6.904875583
    49.142138599        35.153542856        20.799530928
    47.795385566        36.634728159        34.694186894
    12.111570327         2.822616593         8.188608204
    10.764817354         4.303801830        22.083263549
     9.418064440         5.784987001        35.977918273
    15.766633522        13.951232003         8.188608204
    14.419880549        15.432417240        22.083263549
    13.073127636        16.913602411        35.977918273
    19.421696513        25.079846791         8.188608204
    18.074943540        26.561032028        22.083263549
    16.728190627        28.042217199        35.977918273
    26.380009727         2.822616593         8.188608204
    25.033256754         4.303801830        22.083263549
    23.686503841         5.784987001        35.977918273
    30.035072922        13.951232003         8.188608204
    28.688319949        15.432417240        22.083263549
    27.341567036        16.913602411        35.977918273
    33.690135913        25.079846791         8.188608204
    32.343382940        26.561032028        22.083263549
    30.996630027        28.042217199        35.977918273
    40.648447852         2.822616593         8.188608204
    39.301694878         4.303801830        22.083263549
    37.954941965         5.784987001        35.977918273
    44.303511047        13.951232003         8.188608204
    42.956758074        15.432417240        22.083263549
    41.610005160        16.913602411        35.977918273
    47.958574038        25.079846791         8.188608204
    46.611821065        26.561032028        22.083263549
    45.265068151        28.042217199        35.977918273
    10.453952702         2.409185823         8.008631789
     9.107199728         3.890371061        21.903287135
     7.760446815         5.371556232        35.797941859
    14.109015856        13.537801109         8.008631789
    12.762262883        15.018986346        21.903287135
    11.415509970        16.500171517        35.797941859
    17.764078847        24.666415897         8.008631789
    16.417325874        26.147601135        21.903287135
    15.070572961        27.628786306        35.797941859
    24.722392102         2.409185823         8.008631789
    23.375639129         3.890371061        21.903287135
    22.028886215         5.371556232        35.797941859
    28.377455256        13.537801109         8.008631789
    27.030702283        15.018986346        21.903287135
    25.683949370        16.500171517        35.797941859
    32.032518247        24.666415897         8.008631789
    30.685765274        26.147601135        21.903287135
    29.339012361        27.628786306        35.797941859
    38.990830226         2.409185823         8.008631789
    37.644077253         3.890371061        21.903287135
    36.297324340         5.371556232        35.797941859
    42.645893381        13.537801109         8.008631789
    41.299140407        15.018986346        21.903287135
    39.952387494        16.500171517        35.797941859
    46.300956372        24.666415897         8.008631789
    44.954203398        26.147601135        21.903287135
    43.607450485        27.628786306        35.797941859
    15.091355949        11.117496350         9.107365462
    13.744602976        12.598681588        23.002020807
    12.397850063        14.079866759        36.896675532
    18.746418940        22.246111139         9.107365462
    17.399665967        23.727296376        23.002020807
    16.052913054        25.208481547        36.896675532
    22.401482584        33.374727917         9.107365462
    21.054729611        34.855913154        23.002020807
    19.707976698        36.337098325        36.896675532
    29.359794073        11.117496350         9.107365462
    28.013041100        12.598681588        23.002020807
    26.666288187        14.079866759        36.896675532
    33.014857064        22.246111139         9.107365462
    31.668104091        23.727296376        23.002020807
    30.321351178        25.208481547        36.896675532
    36.669920709        33.374727917         9.107365462
    35.323167736        34.855913154        23.002020807
    33.976414823        36.337098325        36.896675532
    43.628234749        11.117496350         9.107365462
    42.281481776        12.598681588        23.002020807
    40.934728863        14.079866759        36.896675532
    47.283297740        22.246111139         9.107365462
    45.936544767        23.727296376        23.002020807
    44.589791854        25.208481547        36.896675532
    50.938361385        33.374727917         9.107365462
    49.591608412        34.855913154        23.002020807
    48.244855499        36.337098325        36.896675532
    12.770223051         1.102697414         9.486959343
    11.423470138         2.583882585        23.381614067
    10.076716984         4.065068021        37.276271276
    16.425286126        12.231312459         9.486959343
    15.078533213        13.712497630        23.381614067
    13.731780059        15.193683066        37.276271276
    20.080349444        23.359928242         9.486959343
    18.733596531        24.841113413        23.381614067
    17.386843377        26.322298849        37.276271276
    27.038661175         1.102697414         9.486959343
    25.691908262         2.583882585        23.381614067
    24.345155109         4.065068021        37.276271276
    30.693724251        12.231312459         9.486959343
    29.346971338        13.712497630        23.381614067
    28.000218184        15.193683066        37.276271276
    34.348787569        23.359928242         9.486959343
    33.002034655        24.841113413        23.381614067
    31.655281502        26.322298849        37.276271276
    41.307101851         1.102697414         9.486959343
    39.960348938         2.583882585        23.381614067
    38.613595784         4.065068021        37.276271276
    44.962164927        12.231312459         9.486959343
    43.615412014        13.712497630        23.381614067
    42.268658860        15.193683066        37.276271276
    48.617228244        23.359928242         9.486959343
    47.270475331        24.841113413        23.381614067
    45.923722178        26.322298849        37.276271276
    10.486796958         2.624755616        10.179432374
     9.140043984         4.105940853        24.074087719
     7.793291071         5.587126024        37.968742443
    14.141860071        13.753370777        10.179432374
    12.795107098        15.234556015        24.074087719
    11.448354185        16.715741186        37.968742443
    17.796923062        24.881985565        10.179432374
    16.450170089        26.363170803        24.074087719
    15.103417176        27.844355974        37.968742443
    24.755235082         2.624755616        10.179432374
    23.408482109         4.105940853        24.074087719
    22.061729196         5.587126024        37.968742443
    28.410298196        13.753370777        10.179432374
    27.063545223        15.234556015        24.074087719
    25.716792309        16.715741186        37.968742443
    32.065361187        24.881985565        10.179432374
    30.718608214        26.363170803        24.074087719
    29.371855300        27.844355974        37.968742443
    39.023675758         2.624755616        10.179432374
    37.676922785         4.105940853        24.074087719
    36.330169872         5.587126024        37.968742443
    42.678738872        13.753370777        10.179432374
    41.331985898        15.234556015        24.074087719
    39.985232985        16.715741186        37.968742443
    46.333801863        24.881985565        10.179432374
    44.987048889        26.363170803        24.074087719
    43.640295976        27.844355974        37.968742443
    11.147225671         1.484636220        11.445719049
     9.800472638         2.965821524        25.340375016
     8.453719725         4.447006695        39.235029740
    14.802289020        12.613252096        11.445719049
    13.455535986        14.094437400        25.340375016
    12.108783073        15.575622571        39.235029740
    18.457352338        23.741867879        11.445719049
    17.110599304        25.223053183        25.340375016
    15.763846391        26.704238354        39.235029740
    25.415665072         1.484636220        11.445719049
    24.068912038         2.965821524        25.340375016
    22.722159125         4.447006695        39.235029740
    29.070728420        12.613252096        11.445719049
    27.723975387        14.094437400        25.340375016
    26.377222474        15.575622571        39.235029740
    32.725791738        23.741867879        11.445719049
    31.379038704        25.223053183        25.340375016
    30.032285791        26.704238354        39.235029740
    39.684103196         1.484636220        11.445719049
    38.337350163         2.965821524        25.340375016
    36.990597250         4.447006695        39.235029740
    43.339166545        12.613252096        11.445719049
    41.992413511        14.094437400        25.340375016
    40.645660598        15.575622571        39.235029740
    46.994229862        23.741867879        11.445719049
    45.647476829        25.223053183        25.340375016
    44.300723916        26.704238354        39.235029740
    13.282076056        10.696010493        10.459284915
    11.935323022        12.177195796        24.353940881
    10.588570109        13.658380968        38.248595605
    16.937139047        21.824625281        10.459284915
    15.590386013        23.305810585        24.353940881
    14.243633100        24.786995756        38.248595605
    20.592202692        32.953242059        10.459284915
    19.245449658        34.434427363        24.353940881
    17.898696745        35.915612534        38.248595605
    27.550515456        10.696010493        10.459284915
    26.203762423        12.177195796        24.353940881
    24.857009510        13.658380968        38.248595605
    31.205578447        21.824625281        10.459284915
    29.858825414        23.305810585        24.353940881
    28.512072501        24.786995756        38.248595605
    34.860642092        32.953242059        10.459284915
    33.513889058        34.434427363        24.353940881
    32.167136145        35.915612534        38.248595605
    41.818953581        10.696010493        10.459284915
    40.472200547        12.177195796        24.353940881
    39.125447634        13.658380968        38.248595605
    45.474016572        21.824625281        10.459284915
    44.127263538        23.305810585        24.353940881
    42.780510625        24.786995756        38.248595605
    49.129080216        32.953242059        10.459284915
    47.782327183        34.434427363        24.353940881
    46.435574270        35.915612534        38.248595605
    12.446386991        11.947273229        11.415601237
    11.099633958        13.428458533        25.310257203
     9.752881044        14.909643704        39.204911928
    16.101449982        23.075888017        11.415601237
    14.754696949        24.557073321        25.310257203
    13.407944035        26.038258492        39.204911928
    19.756513627        34.204504795        11.415601237
    18.409760593        35.685690099        25.310257203
    17.063007680        37.166875270        39.204911928
    26.714825116        11.947273229        11.415601237
    25.368072082        13.428458533        25.310257203
    24.021319169        14.909643704        39.204911928
    30.369888107        23.075888017        11.415601237
    29.023135073        24.557073321        25.310257203
    27.676382160        26.038258492        39.204911928
    34.024951751        34.204504795        11.415601237
    32.678198718        35.685690099        25.310257203
    31.331445805        37.166875270        39.204911928
    40.983265792        11.947273229        11.415601237
    39.636512758        13.428458533        25.310257203
    38.289759845        14.909643704        39.204911928
    44.638328783        23.075888017        11.415601237
    43.291575749        24.557073321        25.310257203
    41.944822836        26.038258492        39.204911928
    48.293392427        34.204504795        11.415601237
    46.946639394        35.685690099        25.310257203
    45.599886481        37.166875270        39.204911928
    12.320401524        11.605195850         8.374312766
    10.973648430        13.086381220        22.268969354
     9.626895517        14.567566391        36.163624078
    15.975464841        22.733811634         8.374312766
    14.628711748        24.214997003        22.268969354
    13.281958835        25.696182174        36.163624078
    19.630527832        33.862426422         8.374312766
    18.283774739        35.343611791        22.268969354
    16.937021826        36.824796963        36.163624078
    26.588839648        11.605195850         8.374312766
    25.242086554        13.086381220        22.268969354
    23.895333641        14.567566391        36.163624078
    30.243902966        22.733811634         8.374312766
    28.897149872        24.214997003        22.268969354
    27.550396959        25.696182174        36.163624078
    33.898965957        33.862426422         8.374312766
    32.552212863        35.343611791        22.268969354
    31.205459950        36.824796963        36.163624078
    40.857280324        11.605195850         8.374312766
    39.510527230        13.086381220        22.268969354
    38.163774317        14.567566391        36.163624078
    44.512343642        22.733811634         8.374312766
    43.165590548        24.214997003        22.268969354
    41.818837635        25.696182174        36.163624078
    48.167406633        33.862426422         8.374312766
    46.820653539        35.343611791        22.268969354
    45.473900626        36.824796963        36.163624078
     7.921601724         1.896017071         9.518264774
     6.574848811         3.377202242        23.412919498
     5.228095657         4.858387678        37.307576707
    11.576664940        13.024632543         9.518264774
    10.229912027        14.505817714        23.412919498
     8.883158873        15.987003150        37.307576707
    15.231728258        24.153248326         9.518264774
    13.884975345        25.634433497        23.412919498
    12.538222191        27.115618933        37.307576707
    22.190040487         1.896017071         9.518264774
    20.843287573         3.377202242        23.412919498
    19.496534420         4.858387678        37.307576707
    25.845103702        13.024632543         9.518264774
    24.498350789        14.505817714        23.412919498
    23.151597635        15.987003150        37.307576707
    29.500167020        24.153248326         9.518264774
    28.153414107        25.634433497        23.412919498
    26.806660953        27.115618933        37.307576707
    36.458478611         1.896017071         9.518264774
    35.111725698         3.377202242        23.412919498
    33.764972544         4.858387678        37.307576707
    40.113541827        13.024632543         9.518264774
    38.766788914        14.505817714        23.412919498
    37.420035760        15.987003150        37.307576707
    43.768605145        24.153248326         9.518264774
    42.421852232        25.634433497        23.412919498
    41.075099078        27.115618933        37.307576707
     9.906073094        11.446794733        10.063953222
     8.559320180        12.927979904        23.958607946
     7.212567027        14.409165340        37.853265155
    13.561136411        22.575410516        10.063953222
    12.214383498        24.056595687        23.958607946
    10.867630344        25.537781123        37.853265155
    17.216199402        33.704025304        10.063953222
    15.869446489        35.185210475        23.958607946
    14.522693335        36.666395911        37.853265155
    24.174511218        11.446794733        10.063953222
    22.827758305        12.927979904        23.958607946
    21.481005151        14.409165340        37.853265155
    27.829574536        22.575410516        10.063953222
    26.482821623        24.056595687        23.958607946
    25.136068469        25.537781123        37.853265155
    31.484637527        33.704025304        10.063953222
    30.137884614        35.185210475        23.958607946
    28.791131460        36.666395911        37.853265155
    38.442951894        11.446794733        10.063953222
    37.096198981        12.927979904        23.958607946
    35.749445827        14.409165340        37.853265155
    42.098015212        22.575410516        10.063953222
    40.751262299        24.056595687        23.958607946
    39.404509145        25.537781123        37.853265155
    45.753078203        33.704025304        10.063953222
    44.406325290        35.185210475        23.958607946
    43.059572136        36.666395911        37.853265155
    10.690485609         9.981708395         9.618174443
     9.343732515        11.462893765        23.512831030
     7.996979602        12.944078936        37.407485754
    14.345548927        21.110324178         9.618174443
    12.998795833        22.591509548        23.512831030
    11.652042920        24.072694719        37.407485754
    18.000611918        32.238938966         9.618174443
    16.653858824        33.720124336        23.512831030
    15.307105911        35.201309507        37.407485754
    24.958925647         9.981708395         9.618174443
    23.612172553        11.462893765        23.512831030
    22.265419640        12.944078936        37.407485754
    28.613988965        21.110324178         9.618174443
    27.267235871        22.591509548        23.512831030
    25.920482958        24.072694719        37.407485754
    32.269051956        32.238938966         9.618174443
    30.922298862        33.720124336        23.512831030
    29.575545949        35.201309507        37.407485754
    39.227363772         9.981708395         9.618174443
    37.880610678        11.462893765        23.512831030
    36.533857765        12.944078936        37.407485754
    42.882427089        21.110324178         9.618174443
    41.535673996        22.591509548        23.512831030
    40.188921083        24.072694719        37.407485754
    46.537490080        32.238938966         9.618174443
    45.190736987        33.720124336        23.512831030
    43.843984074        35.201309507        37.407485754
     9.005728701        11.019624528         7.880383873
     7.658975728        12.500809766        21.775039218
     6.312222814        13.981994937        35.669693943
    12.660791692        22.148239316         7.880383873
    11.314038719        23.629424554        21.775039218
     9.967285805        25.110609725        35.669693943
    16.315855336        33.276856094         7.880383873
    14.969102363        34.758041332        21.775039218
    13.622349450        36.239226503        35.669693943
    23.274167463        11.019624528         7.880383873
    21.927414490        12.500809766        21.775039218
    20.580661577        13.981994937        35.669693943
    26.929230454        22.148239316         7.880383873
    25.582477481        23.629424554        21.775039218
    24.235724568        25.110609725        35.669693943
    30.584294099        33.276856094         7.880383873
    29.237541126        34.758041332        21.775039218
    27.890788212        36.239226503        35.669693943
    37.542606864        11.019624528         7.880383873
    36.195853890        12.500809766        21.775039218
    34.849100977        13.981994937        35.669693943
    41.197669855        22.148239316         7.880383873
    39.850916881        23.629424554        21.775039218
    38.504163968        25.110609725        35.669693943
    44.852733499        33.276856094         7.880383873
    43.505980526        34.758041332        21.775039218
    42.159227613        36.239226503        35.669693943
     6.280951283         1.246382847         7.833167332
     4.934198310         2.727568084        21.727822678
     3.587445397         4.208753255        35.622477402
     9.936014611        12.374998661         7.833167332
     8.589261638        13.856183898        21.727822678
     7.242508725        15.337369070        35.622477402
    13.591077929        23.503614444         7.833167332
    12.244324956        24.984799682        21.727822678
    10.897572043        26.465984853        35.622477402
    20.549390046         1.246382847         7.833167332
    19.202637072         2.727568084        21.727822678
    17.855884159         4.208753255        35.622477402
    24.204453374        12.374998661         7.833167332
    22.857700400        13.856183898        21.727822678
    21.510947487        15.337369070        35.622477402
    27.859516692        23.503614444         7.833167332
    26.512763718        24.984799682        21.727822678
    25.166010805        26.465984853        35.622477402
    34.817829446         1.246382847         7.833167332
    33.471076473         2.727568084        21.727822678
    32.124323560         4.208753255        35.622477402
    38.472892774        12.374998661         7.833167332
    37.126139801        13.856183898        21.727822678
    35.779386888        15.337369070        35.622477402
    42.127956092        23.503614444         7.833167332
    40.781203119        24.984799682        21.727822678
    39.434450205        26.465984853        35.622477402
    11.623169193        11.457232322         6.668920213
    10.276416159        12.938417625        20.563576179
     8.929663246        14.419602796        34.458230903
    15.278232510        22.585848105         6.668920213
    13.931479477        24.067033408        20.563576179
    12.584726564        25.548218579        34.458230903
    18.933295501        33.714462893         6.668920213
    17.586542468        35.195648196        20.563576179
    16.239789555        36.676833367        34.458230903
    25.891607317        11.457232322         6.668920213
    24.544854284        12.938417625        20.563576179
    23.198101371        14.419602796        34.458230903
    29.546670635        22.585848105         6.668920213
    28.199917601        24.067033408        20.563576179
    26.853164688        25.548218579        34.458230903
    33.201733626        33.714462893         6.668920213
    31.854980592        35.195648196        20.563576179
    30.508227679        36.676833367        34.458230903
    40.160047993        11.457232322         6.668920213
    38.813294960        12.938417625        20.563576179
    37.466542047        14.419602796        34.458230903
    43.815111311        22.585848105         6.668920213
    42.468358277        24.067033408        20.563576179
    41.121605364        25.548218579        34.458230903
    47.470174302        33.714462893         6.668920213
    46.123421268        35.195648196        20.563576179
    44.776668355        36.676833367        34.458230903
    11.485193313         9.928213640         7.279194125
    10.138440220        11.409399010        21.173850713
     8.791687307        12.890584181        35.068505437
    15.140256631        21.056829423         7.279194125
    13.793503537        22.538014793        21.173850713
    12.446750624        24.019199964        35.068505437
    18.795319622        32.185444211         7.279194125
    17.448566528        33.666629581        21.173850713
    16.101813615        35.147814752        35.068505437
    25.753632076         9.928213640         7.279194125
    24.406878982        11.409399010        21.173850713
    23.060126069        12.890584181        35.068505437
    29.408695394        21.056829423         7.279194125
    28.061942300        22.538014793        21.173850713
    26.715189387        24.019199964        35.068505437
    33.063758385        32.185444211         7.279194125
    31.717005291        33.666629581        21.173850713
    30.370252378        35.147814752        35.068505437
    40.022070200         9.928213640         7.279194125
    38.675317107        11.409399010        21.173850713
    37.328564194        12.890584181        35.068505437
    43.677133518        21.056829423         7.279194125
    42.330380424        22.538014793        21.173850713
    40.983627511        24.019199964        35.068505437
    47.332196509        32.185444211         7.279194125
    45.985443415        33.666629581        21.173850713
    44.638690502        35.147814752        35.068505437
     9.418056881         9.252389726         5.925326158
     8.071303907        10.733574963        19.819981503
     6.724550874        12.214760267        33.714637470
    13.073120199        20.381005509         5.925326158
    11.726367225        21.862190746        19.819981503
    10.379614192        23.343376050        33.714637470
    16.728183190        31.509620297         5.925326158
    15.381430216        32.990805534        19.819981503
    14.034677183        34.471990838        33.714637470
    23.686496919         9.252389726         5.925326158
    22.339743946        10.733574963        19.819981503
    20.992990912        12.214760267        33.714637470
    27.341560237        20.381005509         5.925326158
    25.994807263        21.862190746        19.819981503
    24.648054230        23.343376050        33.714637470
    30.996623228        31.509620297         5.925326158
    29.649870254        32.990805534        19.819981503
    28.303117221        34.471990838        33.714637470
    37.954935043         9.252389726         5.925326158
    36.608182070        10.733574963        19.819981503
    35.261429037        12.214760267        33.714637470
    41.609998361        20.381005509         5.925326158
    40.263245388        21.862190746        19.819981503
    38.916492354        23.343376050        33.714637470
    45.265061352        31.509620297         5.925326158
    43.918308379        32.990805534        19.819981503
    42.571555345        34.471990838        33.714637470
    10.820927532         9.985030076         4.908397490
     9.474174528        11.466215346        18.803053146
     8.127421615        12.947400517        32.697707870
    14.475990523        21.113644864         4.908397490
    13.129237519        22.594830134        18.803053146
    11.782484606        24.076015305        32.697707870
    18.131054167        32.242261642         4.908397490
    16.784301164        33.723446912        18.803053146
    15.437548251        35.204632083        32.697707870
    25.089367570         9.985030076         4.908397490
    23.742614566        11.466215346        18.803053146
    22.395861653        12.947400517        32.697707870
    28.744430561        21.113644864         4.908397490
    27.397677557        22.594830134        18.803053146
    26.050924644        24.076015305        32.697707870
    32.399494205        32.242261642         4.908397490
    31.052741202        33.723446912        18.803053146
    29.705988289        35.204632083        32.697707870
    39.357805694         9.985030076         4.908397490
    38.011052691        11.466215346        18.803053146
    36.664299778        12.947400517        32.697707870
    43.012868685        21.113644864         4.908397490
    41.666115682        22.594830134        18.803053146
    40.319362769        24.076015305        32.697707870
    46.667932330        32.242261642         4.908397490
    45.321179327        33.723446912        18.803053146
    43.974426413        35.204632083        32.697707870
     8.298336126        11.453188086         5.898291682
     6.951583153        12.934373324        19.792947028
     5.604830119        14.415558627        33.687602994
    11.953399444        22.581803869         5.898291682
    10.606646471        24.062989107        19.792947028
     9.259893437        25.544174410        33.687602994
    15.608462435        33.710418658         5.898291682
    14.261709462        35.191603895        19.792947028
    12.914956428        36.672789198        33.687602994
    22.566775526        11.453188086         5.898291682
    21.220022553        12.934373324        19.792947028
    19.873269520        14.415558627        33.687602994
    26.221838844        22.581803869         5.898291682
    24.875085871        24.062989107        19.792947028
    23.528332838        25.544174410        33.687602994
    29.876901835        33.710418658         5.898291682
    28.530148862        35.191603895        19.792947028
    27.183395829        36.672789198        33.687602994
    36.835214927        11.453188086         5.898291682
    35.488461953        12.934373324        19.792947028
    34.141708920        14.415558627        33.687602994
    40.490278245        22.581803869         5.898291682
    39.143525271        24.062989107        19.792947028
    37.796772238        25.544174410        33.687602994
    44.145341236        33.710418658         5.898291682
    42.798588262        35.191603895        19.792947028
    41.451835229        36.672789198        33.687602994
     5.852824394         1.099380152         5.121797421
     4.506071391         2.580565423        19.016453077
     3.159318357         4.061750726        32.911109043
     9.507887569        12.227995500         5.121797421
     8.161134566        13.709180771        19.016453077
     6.814381532        15.190366074        32.911109043
    13.162950560        23.356610288         5.121797421
    11.816197557        24.837795559        19.016453077
    10.469444523        26.318980862        32.911109043
    20.121263157         1.099380152         5.121797421
    18.774510153         2.580565423        19.016453077
    17.427757120         4.061750726        32.911109043
    23.776326331        12.227995500         5.121797421
    22.429573328        13.709180771        19.016453077
    21.082820295        15.190366074        32.911109043
    27.431389322        23.356610288         5.121797421
    26.084636319        24.837795559        19.016453077
    24.737883286        26.318980862        32.911109043
    34.389702557         1.099380152         5.121797421
    33.042949553         2.580565423        19.016453077
    31.696196520         4.061750726        32.911109043
    38.044765732        12.227995500         5.121797421
    36.698012728        13.709180771        19.016453077
    35.351259695        15.190366074        32.911109043
    41.699828723        23.356610288         5.121797421
    40.353075719        24.837795559        19.016453077
    39.006322686        26.318980862        32.911109043
     7.405372020        11.381664575         3.565240142
     6.058618987        12.862849879        17.459896108
     4.711866074        14.344035050        31.354550832
    11.060435011        22.510279363         3.565240142
     9.713681978        23.991464667        17.459896108
     8.366929065        25.472649838        31.354550832
    14.715498656        33.638896141         3.565240142
    13.368745622        35.120081445        17.459896108
    12.021992709        36.601266616        31.354550832
    21.673810464        11.381664575         3.565240142
    20.327057430        12.862849879        17.459896108
    18.980304517        14.344035050        31.354550832
    25.328873455        22.510279363         3.565240142
    23.982120421        23.991464667        17.459896108
    22.635367508        25.472649838        31.354550832
    28.983937099        33.638896141         3.565240142
    27.637184066        35.120081445        17.459896108
    26.290431153        36.601266616        31.354550832
    35.942251140        11.381664575         3.565240142
    34.595498106        12.862849879        17.459896108
    33.248745193        14.344035050        31.354550832
    39.597314131        22.510279363         3.565240142
    38.250561097        23.991464667        17.459896108
    36.903808184        25.472649838        31.354550832
    43.252377775        33.638896141         3.565240142
    41.905624742        35.120081445        17.459896108
    40.558871829        36.601266616        31.354550832
     8.480918886         9.926581180         3.630622218
     7.134165943        11.407766384        17.525277253
     5.787412789        12.888951820        31.419934461
    12.135981877        21.055195968         3.630622218
    10.789228934        22.536381172        17.525277253
     9.442475780        24.017566608        31.419934461
    15.791045522        32.183812746         3.630622218
    14.444292579        33.664997950        17.525277253
    13.097539425        35.146183386        31.419934461
    22.749358286         9.926581180         3.630622218
    21.402605343        11.407766384        17.525277253
    20.055852189        12.888951820        31.419934461
    26.404421277        21.055195968         3.630622218
    25.057668334        22.536381172        17.525277253
    23.710915180        24.017566608        31.419934461
    30.059484922        32.183812746         3.630622218
    28.712731979        33.664997950        17.525277253
    27.365978825        35.146183386        31.419934461
    37.017796411         9.926581180         3.630622218
    35.671043468        11.407766384        17.525277253
    34.324290314        12.888951820        31.419934461
    40.672859402        21.055195968         3.630622218
    39.326106459        22.536381172        17.525277253
    37.979353305        24.017566608        31.419934461
    44.327923047        32.183812746         3.630622218
    42.981170103        33.664997950        17.525277253
    41.634416949        35.146183386        31.419934461
    10.371728074        10.924210865         2.931545232
     9.024975071        12.405396135        16.826200888
     7.678222037        13.886581439        30.720856854
    14.026791065        22.052825653         2.931545232
    12.680038062        23.534010924        16.826200888
    11.333285028        25.015196227        30.720856854
    17.681854710        33.181442431         2.931545232
    16.335101706        34.662627702        16.826200888
    14.988348673        36.143813005        30.720856854
    24.640168112        10.924210865         2.931545232
    23.293415109        12.405396135        16.826200888
    21.946662075        13.886581439        30.720856854
    28.295231103        22.052825653         2.931545232
    26.948478100        23.534010924        16.826200888
    25.601725066        25.015196227        30.720856854
    31.950294748        33.181442431         2.931545232
    30.603541744        34.662627702        16.826200888
    29.256788711        36.143813005        30.720856854
    38.908606237        10.924210865         2.931545232
    37.561853233        12.405396135        16.826200888
    36.215100200        13.886581439        30.720856854
    42.563669228        22.052825653         2.931545232
    41.216916224        23.534010924        16.826200888
    39.870163191        25.015196227        30.720856854
    46.218732872        33.181442431         2.931545232
    44.871979869        34.662627702        16.826200888
    43.525226836        36.143813005        30.720856854
     5.966660781         1.548537671         2.755863066
     4.619907748         3.029722975        16.650519032
     3.273154835         4.510908146        30.545173756
     9.621723854        12.677152708         2.755863066
     8.274970821        14.158338011        16.650519032
     6.928217908        15.639523182        30.545173756
    13.276787499        23.805769486         2.755863066
    11.930034465        25.286954789        16.650519032
    10.583281552        26.768139961        30.545173756
    20.235099544         1.548537671         2.755863066
    18.888346510         3.029722975        16.650519032
    17.541593597         4.510908146        30.545173756
    23.890162616        12.677152708         2.755863066
    22.543409583        14.158338011        16.650519032
    21.196656670        15.639523182        30.545173756
    27.545226261        23.805769486         2.755863066
    26.198473228        25.286954789        16.650519032
    24.851720314        26.768139961        30.545173756
    34.503537668         1.548537671         2.755863066
    33.156784635         3.029722975        16.650519032
    31.810031722         4.510908146        30.545173756
    38.158600741        12.677152708         2.755863066
    36.811847708        14.158338011        16.650519032
    35.465094794        15.639523182        30.545173756
    41.813664386        23.805769486         2.755863066
    40.466911352        25.286954789        16.650519032
    39.120158439        26.768139961        30.545173756
     8.881878556        10.456317876         0.771511402
     7.535125545        11.937503154        14.666167136
     6.188372632        13.418688325        28.560821860
    12.536941874        21.584933659         0.771511402
    11.190188863        23.066118937        14.666167136
     9.843435950        24.547304108        28.560821860
    16.192004865        32.713548447         0.771511402
    14.845251854        34.194733725        14.666167136
    13.498498941        35.675918897        28.560821860
    23.150317318        10.456317876         0.771511402
    21.803564307        11.937503154        14.666167136
    20.456811394        13.418688325        28.560821860
    26.805380636        21.584933659         0.771511402
    25.458627625        23.066118937        14.666167136
    24.111874712        24.547304108        28.560821860
    30.460443627        32.713548447         0.771511402
    29.113690616        34.194733725        14.666167136
    27.766937703        35.675918897        28.560821860
    37.418755443        10.456317876         0.771511402
    36.072002432        11.937503154        14.666167136
    34.725249519        13.418688325        28.560821860
    41.073818761        21.584933659         0.771511402
    39.727065750        23.066118937        14.666167136
    38.380312837        24.547304108        28.560821860
    44.728881752        32.713548447         0.771511402
    43.382128741        34.194733725        14.666167136
    42.035375828        35.675918897        28.560821860
     4.262946269         0.646254682         1.137305582
     2.916193273         2.127439944        15.031961160
     1.569440360         3.608625115        28.926615884
     7.918009321        11.774869656         1.137305582
     6.571256326        13.256054919        15.031961160
     5.224503412        14.737240090        28.926615884
    11.573072966        22.903486435         1.137305582
    10.226319970        24.384671697        15.031961160
     8.879567057        25.865856868        28.926615884
    18.531384713         0.646254682         1.137305582
    17.184631717         2.127439944        15.031961160
    15.837878804         3.608625115        28.926615884
    22.186447765        11.774869656         1.137305582
    20.839694769        13.256054919        15.031961160
    19.492941856        14.737240090        28.926615884
    25.841511409        22.903486435         1.137305582
    24.494758414        24.384671697        15.031961160
    23.148005501        25.865856868        28.926615884
    32.799825389         0.646254682         1.137305582
    31.453072393         2.127439944        15.031961160
    30.106319480         3.608625115        28.926615884
    36.454888441        11.774869656         1.137305582
    35.108135445        13.256054919        15.031961160
    33.761382532        14.737240090        28.926615884
    40.109952085        22.903486435         1.137305582
    38.763199090        24.384671697        15.031961160
    37.416446176        25.865856868        28.926615884
     4.489139057         2.655469173        13.084523585
     3.142386024         4.136654477        26.979179551
     1.795633111         5.617839648        40.873834275
     8.144202171        13.784084334        13.084523585
     6.797449137        15.265269638        26.979179551
     5.450696224        16.746454809        40.873834275
    11.799265489        24.912700117        13.084523585
    10.452512455        26.393885421        26.979179551
     9.105759542        27.875070592        40.873834275
    18.757577501         2.655469173        13.084523585
    17.410824467         4.136654477        26.979179551
    16.064071554         5.617839648        40.873834275
    22.412640614        13.784084334        13.084523585
    21.065887581        15.265269638        26.979179551
    19.719134668        16.746454809        40.873834275
    26.067703932        24.912700117        13.084523585
    24.720950899        26.393885421        26.979179551
    23.374197986        27.875070592        40.873834275
    33.026016901         2.655469173        13.084523585
    31.679263868         4.136654477        26.979179551
    30.332510955         5.617839648        40.873834275
    36.681080015        13.784084334        13.084523585
    35.334326981        15.265269638        26.979179551
    33.987574068        16.746454809        40.873834275
    40.336143332        24.912700117        13.084523585
    38.989390299        26.393885421        26.979179551
    37.642637386        27.875070592        40.873834275
     6.054621565         2.306473629         0.412828455
     4.707868580         3.787658879        14.307483917
     3.361115667         5.268844050        28.202138641
     9.709684801        13.435089164         0.412828455
     8.362931817        14.916274413        14.307483917
     7.016178903        16.397459585        28.202138641
    13.364748119        24.563704947         0.412828455
    12.017995134        26.044890197        14.307483917
    10.671242221        27.526075368        28.202138641
    20.323060965         2.306473629         0.412828455
    18.976307981         3.787658879        14.307483917
    17.629555068         5.268844050        28.202138641
    23.978124201        13.435089164         0.412828455
    22.631371217        14.916274413        14.307483917
    21.284618304        16.397459585        28.202138641
    27.633187519        24.563704947         0.412828455
    26.286434535        26.044890197        14.307483917
    24.939681621        27.526075368        28.202138641
    34.591500365         2.306473629         0.412828455
    33.244747381         3.787658879        14.307483917
    31.897994468         5.268844050        28.202138641
    38.246563602        13.435089164         0.412828455
    36.899810617        14.916274413        14.307483917
    35.553057704        16.397459585        28.202138641
    41.901626919        24.563704947         0.412828455
    40.554873935        26.044890197        14.307483917
    39.208121022        27.526075368        28.202138641
     7.247043181         5.197337443         6.688367469
     5.900290208         6.678522680        20.583022815
     4.553537295         8.159707851        34.477677539
    10.902106336        16.325952728         6.688367469
     9.555353362        17.807137966        20.583022815
     8.208600449        19.288323137        34.477677539
    14.557169653        27.454568512         6.688367469
    13.210416680        28.935753749        20.583022815
    11.863663767        30.416938920        34.477677539
    21.515481944         5.197337443         6.688367469
    20.168728970         6.678522680        20.583022815
    18.821976057         8.159707851        34.477677539
    25.170545098        16.325952728         6.688367469
    23.823792125        17.807137966        20.583022815
    22.477039212        19.288323137        34.477677539
    28.825608416        27.454568512         6.688367469
    27.478855443        28.935753749        20.583022815
    26.132102529        30.416938920        34.477677539
    35.783920068         5.197337443         6.688367469
    34.437167095         6.678522680        20.583022815
    33.090414182         8.159707851        34.477677539
    39.438983223        16.325952728         6.688367469
    38.092230249        17.807137966        20.583022815
    36.745477336        19.288323137        34.477677539
    43.094046540        27.454568512         6.688367469
    41.747293567        28.935753749        20.583022815
    40.400540654        30.416938920        34.477677539
     7.938342787         5.053576290         8.373148751
     6.591589814         6.534761527        22.267804096
     5.244836901         8.015946698        36.162458820
    11.593406105        16.182192073         8.373148751
    10.246653132        17.663377311        22.267804096
     8.899900219        19.144562482        36.162458820
    15.248469096        27.310806861         8.373148751
    13.901716123        28.791992099        22.267804096
    12.554963210        30.273177270        36.162458820
    22.206780912         5.053576290         8.373148751
    20.860027939         6.534761527        22.267804096
    19.513275025         8.015946698        36.162458820
    25.861844230        16.182192073         8.373148751
    24.515091256        17.663377311        22.267804096
    23.168338343        19.144562482        36.162458820
    29.516907221        27.310806861         8.373148751
    28.170154247        28.791992099        22.267804096
    26.823401334        30.273177270        36.162458820
    36.475221588         5.053576290         8.373148751
    35.128468615         6.534761527        22.267804096
    33.781715701         8.015946698        36.162458820
    40.130284906        16.182192073         8.373148751
    38.783531932        17.663377311        22.267804096
    37.436779019        19.144562482        36.162458820
    43.785347897        27.310806861         8.373148751
    42.438594923        28.791992099        22.267804096
    41.091842010        30.273177270        36.162458820
     7.924799939         3.638095060         7.049152625
     6.578046965         5.119280298        20.943807970
     5.231294052         6.600465469        34.838462694
    11.579863175        14.766710595         7.049152625
    10.233110201        16.247895832        20.943807970
     8.886357288        17.729081003        34.838462694
    15.234926492        25.895326378         7.049152625
    13.888173519        27.376511615        20.943807970
    12.541420606        28.857696786        34.838462694
    22.193238701         3.638095060         7.049152625
    20.846485728         5.119280298        20.943807970
    19.499732815         6.600465469        34.838462694
    25.848301937        14.766710595         7.049152625
    24.501548964        16.247895832        20.943807970
    23.154796051        17.729081003        34.838462694
    29.503365255        25.895326378         7.049152625
    28.156612282        27.376511615        20.943807970
    26.809859369        28.857696786        34.838462694
    36.461676826         3.638095060         7.049152625
    35.114923852         5.119280298        20.943807970
    33.768170939         6.600465469        34.838462694
    40.116740062        14.766710595         7.049152625
    38.769987088        16.247895832        20.943807970
    37.423234175        17.729081003        34.838462694
    43.771803379        25.895326378         7.049152625
    42.425050406        27.376511615        20.943807970
    41.078297493        28.857696786        34.838462694
     6.873122480         2.695214668        13.297084977
     5.526369447         4.176399971        27.191740944
     4.179616533         5.657585143        41.086395668
    10.528185757        13.823830327        13.297084977
     9.181432724        15.305015630        27.191740944
     7.834679810        16.786200801        41.086395668
    14.183248748        24.952445115        13.297084977
    12.836495715        26.433630418        27.191740944
    11.489742801        27.914815589        41.086395668
    21.141560605         2.695214668        13.297084977
    19.794807571         4.176399971        27.191740944
    18.448054658         5.657585143        41.086395668
    24.796623882        13.823830327        13.297084977
    23.449870848        15.305015630        27.191740944
    22.103117935        16.786200801        41.086395668
    28.451686873        24.952445115        13.297084977
    27.104933839        26.433630418        27.191740944
    25.758180926        27.914815589        41.086395668
    35.410001281         2.695214668        13.297084977
    34.063248247         4.176399971        27.191740944
    32.716495334         5.657585143        41.086395668
    39.065064558        13.823830327        13.297084977
    37.718311524        15.305015630        27.191740944
    36.371558611        16.786200801        41.086395668
    42.720127549        24.952445115        13.297084977
    41.373374515        26.433630418        27.191740944
    40.026621602        27.914815589        41.086395668
    10.024148084        12.192527286        13.893985136
     8.677395051        13.673712589        27.788641102
     7.330642137        15.154897761        41.683295826
    13.679211075        23.321142074        13.893985136
    12.332458042        24.802327378        27.788641102
    10.985705128        26.283512549        41.683295826
    17.334274720        34.449758852        13.893985136
    15.987521686        35.930944156        27.788641102
    14.640768773        37.412129327        41.683295826
    24.292586209        12.192527286        13.893985136
    22.945833175        13.673712589        27.788641102
    21.599080262        15.154897761        41.683295826
    27.947649200        23.321142074        13.893985136
    26.600896166        24.802327378        27.788641102
    25.254143253        26.283512549        41.683295826
    31.602712844        34.449758852        13.893985136
    30.255959811        35.930944156        27.788641102
    28.909206898        37.412129327        41.683295826
    38.561026885        12.192527286        13.893985136
    37.214273851        13.673712589        27.788641102
    35.867520938        15.154897761        41.683295826
    42.216089876        23.321142074        13.893985136
    40.869336842        24.802327378        27.788641102
    39.522583929        26.283512549        41.683295826
    45.871153520        34.449758852        13.893985136
    44.524400487        35.930944156        27.788641102
    43.177647574        37.412129327        41.683295826
     8.314028610         0.867145744         1.085388180
     6.967275606         2.348331015        14.980043836
     5.620522693         3.829516186        28.874698560
    11.969091703        11.995760843         1.085388180
    10.622338700        13.476946114        14.980043836
     9.275585786        14.958131285        28.874698560
    15.624155021        23.124376626         1.085388180
    14.277402017        24.605561897        14.980043836
    12.930649104        26.086747068        28.874698560
    22.582467372         0.867145744         1.085388180
    21.235714369         2.348331015        14.980043836
    19.888961456         3.829516186        28.874698560
    26.237530465        11.995760843         1.085388180
    24.890777462        13.476946114        14.980043836
    23.544024549        14.958131285        28.874698560
    29.892593783        23.124376626         1.085388180
    28.545840780        24.605561897        14.980043836
    27.199087867        26.086747068        28.874698560
    36.850905497         0.867145744         1.085388180
    35.504152493         2.348331015        14.980043836
    34.157399580         3.829516186        28.874698560
    40.505968590        11.995760843         1.085388180
    39.159215587        13.476946114        14.980043836
    37.812462673        14.958131285        28.874698560
    44.161031908        23.124376626         1.085388180
    42.814278904        24.605561897        14.980043836
    41.467525991        26.086747068        28.874698560
