# Amorphous model                       
   1.00000000000000     
     9.5505628626870163    1.0798163638589966   -8.1776101777648531
    -0.0000000000261707   11.5868223015172926   -0.3561500000153228
    -0.0000000002945663    0.0000000000738517   22.3017584291295670
   C    H 
   110   126
Direct
     0.1829746555382020    0.6642856567046522    0.0588714686215554
     0.9020364914984998    1.1094853599163317    0.7888988537331689
     1.3263419080983092    0.2131669586153337    0.4406748248720596
     1.3401995466517003    0.2278603337449358    1.3825828408825622
     0.9368833676733445    0.8781800822996209    0.3038512309985006
     0.6838035641607806    0.8420418136317704    0.2265337398161108
     0.7545489832333668    0.5765694942640547    0.6097879302259384
     1.1798754293443383    0.9451922803492945   -0.6657416938427831
     1.2740764882316553    0.3239437999187703    1.3232819382669041
     1.3483982844697902    0.4118227820185033    0.7667865240072882
     1.1915267966272307    0.8897916402995982    0.3935908733075577
     1.0775183581983701    0.8515658926363007    0.3787219114325466
     1.2030112996181412    0.4286117756135654    1.3137864935908055
     0.8210585696997353    0.8352612920783598    0.2954577208110604
     0.6623920651407363    0.5140445146383934    0.6027100997738398
     1.3233219527916049    0.3133898795690006    1.2746869837182000
     0.7132999748065459    0.7033477104277860    0.6769559661579193
     0.7993159800184529    0.6672780791328901    0.6593196687424306
     1.0761537252380580    0.6466851541143682    0.1726046773019213
     0.1620595589806705    1.2932773697455164   -0.1104473560452817
    -0.2241752525198472    1.3120638566974665   -0.0342935502846743
    -0.2571549947047920    0.8365743336968258    0.8246205882856903
    -0.2676391536224680    1.3592052134633241   -0.1041993123229662
     0.0399866937729980    1.3367117316045041    0.6088049183138989
    -0.0398065483284876    1.3846070897328742    0.4108783633255156
     0.0568790407205885    1.3865565817082948    0.5519482862544715
    -0.3629966420772655    1.3518537756867968    0.3364754402199897
    -0.3928062981999747    1.3958383271207844    0.3837579359050776
     0.3273095981594802    1.3200572057874298    0.8020010403985570
    -0.0201900874519112    1.3361998070547991    0.4723423524550540
     0.1367592314580677    1.4722937841650783    0.5806243094678438
     0.2429127899176300    1.2812808369114095    0.8696416559926873
    -0.0790335199809373    1.3212875533917681    0.3428155658322507
     0.6294147413139116    0.6370963896050643    0.6694283430991324
     1.1211865977428686    1.0182219683209397    0.9107691735146162
     0.2642150428340873    1.1007782631777463    0.1269623107296888
     1.1200098387539732    0.8223852926801973    0.8106690877932317
     0.4888372556026468    1.1500010876932325    0.6773400604654668
     0.5913098179258330    1.3273852277644576    0.6796797702756755
     0.3512851166244069    1.4374590094136210    0.5366613000498931
     1.0918417309139152    0.7939265090697070    1.6955165140731581
     0.4602430843762318    1.5227861000853142    0.6773475001001447
     0.4494316176864950    1.1804424744165107    0.1363467774824365
     0.5038121152562414    1.4478135596314214    0.6351763359758348
     0.5458323910818419    1.1368542922961296    0.2130563788367953
     1.4318267776098499    1.1302622436211982    1.3893143502056509
     0.5102665973197290    1.0679787737007445    0.2476567860053929
     0.9283310989900122    1.9467009082555466    0.2474459252012089
     1.0016405771971562    0.8938723140017661    1.6599833071888437
     0.6054570966522385    1.5212416673021842    0.6385656071197852
    -0.5009831761992469    1.5327432628097466    0.2492770608399410
     1.1442934991707430    0.7541620377272167    1.7692852791570797
     1.4948546184496769    1.0380885597106528    1.4434425859860283
    -0.4367189948474068    1.4245077146576826    0.2622499914502484
    -0.3870864090690621    1.5234805757110297   -0.1080778595280272
     1.3982215479566249    1.1964991568225718   -0.1813809472895742
     1.0488598372441196    1.9549946767577420   -0.7432879306224691
     0.3637784924781109    1.0429196113352013    0.1973829702173449
     0.4308128194630308    1.0606436480682970    0.6854160347997166
    -0.0905818323131131    0.8283203978986736   -0.1245680426302852
     0.1000602021448933    1.0872245795692159    0.0598399938649331
     0.2830499370158406    1.1055070522962074    0.6469300127737033
     0.5180906731217134    0.9536161360676924    0.7369535368092326
     0.0037843573068309    1.2044393253063781    0.0328643075013071
     1.0418525413136930    0.9341632122447940    0.7830437407894245
     1.0182326346305108    1.0225335133702269    0.8264518657274283
     0.3115485400230206    1.1713585327435712    0.0986287000234528
     0.9734505905961935    0.9688322086824386    0.7010278559389210
     0.5325254047689451    1.2305128827332077    0.6667578380843983
     0.0771344595072338    0.9767587467250145    0.0495483523603056
    -0.5630635880969617    1.4271107584358029    0.0538129826856369
     1.4239697639590434    1.1427377128057545    0.5082990852469350
     0.6529820684117642    0.9229977721151474    0.7648068219469604
    -0.4537111194552648    0.7987693720830782    0.8147176215982251
     1.4977612844374726    1.0406489717392731    1.5060599543011011
    -0.2890079693866192    1.3792640132564342   -0.0036013070266462
     0.2160395653518460    0.6391457699249401    0.0090853512372735
     0.3140045257588716    0.6792363342885647    0.0106479314692333
    -0.5235330241368884    1.5795552143008997    0.2991187047247132
    -0.0709403465018155    0.1466184003250921    0.4018758421703131
    -0.0334930086202736    0.2121890476653255    0.4680128038550936
     0.1393816204251853    0.4713967590580339    0.0731307074114422
    -0.4785357535264829    1.5066805455036958    0.3637827602228940
    -0.2801938163079550    0.8217987604416870   -0.0028983271853251
     0.3735934957628886    0.7931633148261076    0.1177640071188106
    -0.1552266842361678    1.1938791774143167   -0.0041681625555360
    -0.4251492842434303    0.8353218084543307   -0.0443893077453249
     0.0615342565394026    0.4703953552523907   -0.1925640483685983
     0.0264642931717783    0.6634655726023106    0.0853106334918646
    -0.4899184671837912    0.9351868623449267   -0.0322866405111688
    -0.2528009997390878    1.1873801421971262    0.1232768253876362
    -0.4093789053688486    1.0241103588005560    0.0172671213979041
     0.1509927539761431    0.4546511766161844   -0.2126289577534781
    -0.2626433708896605    1.0134373583990179    0.0564335357051971
     0.1160458957861440    0.5950135602661679    0.0644884229695539
    -0.2658690295068280    1.5077876290774570    0.1641046285581025
    -0.1107477467484318    1.1684276177220134    0.0745711846730185
    -0.2030269664892961    0.9172069634006137    0.0395093958408667
    -0.1975523656179337    1.1226505097743946    0.0927368564898534
     0.2909419528029254    0.7385771224415913    0.1254011207993269
    -0.2268353406122103    1.1049653487968587   -0.0722204253842267
    -0.1435732991849096    0.7779541804029441    0.3597131188399509
     0.4019741345999512    0.7607363716409026    0.0698548034728238
    -0.0948756751851098    0.2043306402630040    0.3376525610634748
    -0.3538333678189360    1.4866593889159332   -0.0358933365164040
    -0.3219979020823601    0.7655692573379499    0.8357857192154240
    -0.3289446573446095    1.4664997314278139   -0.1358877053546592
     0.2219709226464108    1.3482512548752890   -0.1924832988603444
     0.0433159501085777    1.3895077969082370   -0.1502740658738907
    -0.5318869765029466    0.8956617193925841    0.7705503337899176
     0.6888010159576213    0.9798928984165653    0.7456204068611593
    -0.4729385084695610    1.4262464385227984    0.1145940081869194
    -0.0217597968767421    0.9358210618703753    0.0071100729202927
     1.5582991710644034    0.9772997348277569    0.5546634902830950
    -0.6575071468846734    1.4512200029555899    0.0494489796499078
    -0.2671943050950629    1.3514170792086073    0.0532437554335213
     1.4949716133373325    1.1780882186553294   -0.1140000571374848
    -0.0133744041287340    1.0955905621091988    0.1110622550385052
     0.1731702990179139    1.2419261418303209   -0.0632493886528754
    -0.0361734961270661    1.2311125385914390    0.1144605744689396
     0.3284747543318333    1.3574417398187308    0.5473642807422714
    -0.0262010649371778    1.4153821629680003   -0.1399063140153967
     0.3235173310480113    0.5114171255192973   -0.2401166350182998
    -0.2216425103231364    1.2948636158416278   -0.1204149674990409
    -0.4508789384852109    1.6100751789704197   -0.1281066571606213
     1.4223506881700234    1.1320503740443975    0.5539711950783340
     1.1668856264678360    0.7959811519537026    0.8728716287733509
     0.3487954662911735    0.9755194075564070    0.2256275024863551
    -0.5033618912006229    1.2317626832708473    0.1232714292321629
     0.0999590511672053    1.2580197174288119    0.6333975604146057
    -0.2731749534688961    1.2876047605818350    0.3648319034669075
    -0.0458102485983574    0.7722602022391913   -0.0689928015117385
     0.1485147596640459    0.5336230165560762   -0.2386392149745574
     0.2440246601330447    1.2262815751785920    0.0429668170883841
     0.0925325392946213    1.3933482839480757    0.6617056808511437
    -0.3488491925214683    1.1603531129014721    0.0977960862183704
     1.4227202307028448    0.1242971425993848    0.3352465882127458
     0.4542682331408027    0.3838772697364534   -0.2029417750493798
     0.8344476432816326    1.9675908592299165    0.1909457246484427
     1.1437782493111039    1.5256960547722251    0.5450166927254048
     0.5548561661727829    1.5593313726645817    0.7367416514848606
     1.3218596886065248    1.1426574774461564    0.8082886761731957
     0.2837872018892800    0.7403435556886855    0.1699175977827432
    -0.2619377546341257    0.9024456127626377    0.5082849402219819
    -0.2004348516582006    1.2561576930362219    0.1634019592704289
     0.6407743120672206    1.4494361478919802    0.5607169114986972
    -0.3562369154063891    1.5558326774826075    0.1026940969515732
     1.1377694373573446    0.7578176324448012    1.6722020562810631
     0.4228714955706208    1.8504057415220005    0.1606509841888371
     1.2128269020222735    0.6807910467908272    1.7932925975434575
     0.2825624428070217    1.5124035865665262    0.5161297504397744
    -0.3251999992854671    1.1477610464425003   -0.1363152813186460
     0.7606580558196532    1.4081500310179118    0.1755504739250610
    -0.4502497931296668    1.1012229484112537    0.0284238376011258
    -0.2248199924109230    0.7464974559802772   -0.0162630152511217
    -0.3957379274301427    1.4167436465350314    0.2354670913461079
     0.6555816043761017    1.1465619342463162    0.2466469216037106
    -0.2653706103886229    0.6927884534640038    0.8815545511902791
     0.0151187449538015    0.7539455097375235    0.0709622988593122
    -0.1800049178491341    1.5468785391361188    0.1831842216819417
     0.6974793707846981    1.3412834631572048    0.7315695615354582
    -0.0708556888178176    1.6301735963010058    0.0575978616904214
     0.4125299191879482    1.1759430495656817   -0.2222650952289623
    -0.0285800701749713    0.5476731974596216   -0.2253605194385525
     0.4119448064915658    1.5996159258357117    0.6336944370866131
     1.0714629974225258    1.2623504947360533    1.0820227465180798
     1.5560211669606629    0.9695469223388331    1.4389365941090935
     0.3862377616798300    1.4192920938456610    0.5012551733426838
     1.2212039907986070    0.9655536110075359    0.9567020447164365
    -0.3223250278828012    1.3751844426739084    0.4474822039634626
     0.5722259328086962    1.0013977165013157    0.2932434355742366
    -0.0946897493957660    0.9273772126674675    0.0597075403935299
     0.9079335236580168    1.0565615846397973    0.6776216866408942
     1.0961229672729831    0.5552743731402211    0.1929868602904194
    -0.6409974624490765    0.9125676586202811    0.7412810949636747
     1.2386445624470042    0.2444381034152036    0.4323159165133376
     0.2743022548330468    1.1948075083650451    0.6734951468455379
     1.1751808919315523    0.6879878609125727    0.2200571219854970
     0.9247016888773687    1.1686925624974407    0.7632231539552157
    -0.3778548678643801    1.5332940339330978   -0.0061422493478092
    -1.0665642669279800    0.9218817208607022   -0.1141122349385932
    -0.0689122884733429    1.3260124287888495    0.5708450403308643
     0.8071677124256154    1.0899324496039855    0.7442179639707081
     0.8816749103475274    1.1654000809419760    0.8245197582787950
     1.2704406249036486    0.9685811918194501   -0.6598796728085653
     0.8608727972377629    0.7323328482342555    0.6603481474734731
     1.2641207337017659    0.3814656331994899    0.2277670179243379
     0.5568114005502223    0.6676024546716851    0.6763744700162384
     0.9601738853975356    0.9229807399292405    1.5984732316052011
    -0.1601571661353749    1.0626837367244197   -0.0797903670193052
    -0.0400849638975951    0.7057572740923583    0.3886611558363243
    -0.2226196754164352    0.7643394901877335    0.3600253050287968
     0.3168121231715482    1.2095546222866924    0.8977920956504096
     0.7184420567685980    0.7747333928727745    0.7113888979333277
     1.0067836628819178    0.7030171008359979    0.1788327357167177
     0.1633277989506596    0.9150094829373365    0.0897957225002235
    -0.6029034368566685    1.6487375468321430    0.2881607094582568
    -0.5362200386530700    1.4916551597348873    0.0343637426176587
    -0.3319298394968131    1.5002919952634959    0.8146880399707419
    -0.0878782803735861    1.3729401255093692    0.3004651072271972
    -0.4794198289306990    0.7524734712041913    0.9383818311470851
     0.2391403453645042    1.1463541362158658    0.5919696750957000
     0.0214710388597374    1.4568259479839691    0.4165977359306225
     0.6713652381292711    0.5094512768717799    1.1808504937446007
    -0.0778465047685554    0.1467317155881732    0.3015662171145266
     0.1659749785921666    0.4453911470256244    0.0386124427198370
    -0.0794896244247772    0.7984713226942931   -0.1696412470760937
     0.5059043586189330    1.7678136933602384    0.0809004161122337
    -0.5899382428233466    0.9106608588097201   -0.0486331900003881
     1.0793846764512993    1.0882098296730518    0.9269638693777040
    -0.0816264446433108    0.0545546704305991    0.4066286868135983
     0.3936542655194410    1.4872865478988404    0.6876018208347587
     0.1789165443868544    1.5123386711901743    0.6379857549496997
     0.2284087199761657    1.0435069819359153    0.6428110648483515
     1.0225701382286867    1.9978242085418738   -0.7977755702319491
     1.2991115479609303    0.8736306049283441    0.4458876594433889
     1.1883567503290593    0.5065998630467268    1.2820270599938985
     0.8267257879130542    0.5441596548112189    0.5951111715763139
    -0.0031598757087133    1.2569860594820130   -0.0073674208331846
     0.0485358304560579    0.4520625888876491    0.0697322115283573
     0.1653201634277048    0.5788064361151078   -0.0336221985009881
    -0.4816613877232214    1.5323719878538009    0.4089205132353244
     1.1063527272705544    0.8036518369417274    0.4328280894104193
     0.6402457404970627    0.9120845127756207    0.1829731969586556
     0.0081274905110566    0.1676673189720883    0.5241223040499421
     0.6227134603718465    0.7725684311241907    0.2199994512300696
     1.4370875750460550    0.2953630561346399    1.3097008128204293
     0.2980172220530181    0.4052986716595997    0.7061986579702038
    -0.5402984030111744    1.6000226479969706    0.2004689983676343
     1.1662955897526091    0.4503975415328058    1.3469956279391406
     0.4377474181253364    0.3492331287625932    0.0301191188758957
    -0.4911303658298954    0.7426980414610952    0.8342833349464810
     1.2841518982728726    0.2371187783922835    1.2362388244892157
     0.2449561558988381    0.4529391473085623    0.1327868849297890
     0.3293837129408008    0.6486108206394475   -0.0310760517406176
    -0.2802886133064846    1.0452907307804529   -0.0680811302316059
Lattice velocities and vectors
           1
 -0.63187765E-03 -0.66709475E-04 -0.50675541E-03
  0.86699389E-03  0.35104737E-03  0.19606735E-03
  0.11954115E-02 -0.13963620E-02 -0.71558768E-03
  0.95504524E+01  0.10798770E+01 -0.81776352E+01
 -0.26167898E-10  0.11586954E+02 -0.35636177E+00
 -0.29456608E-09  0.73856088E-10  0.22301472E+02
 
  0.73050365E-02 -0.21422482E-01 -0.11191482E-02
 -0.16312907E-02 -0.78422182E-02  0.14878671E-02
 -0.48960180E-02 -0.12551795E-01 -0.23614269E-02
 -0.33755127E-02 -0.12281066E-01  0.42704081E-02
  0.10082331E-01 -0.73135552E-02 -0.80834788E-02
 -0.96942862E-03 -0.84128978E-02  0.43794396E-03
  0.94285378E-02 -0.25101144E-02  0.15653223E-03
  0.25166754E-02  0.53298422E-02 -0.89740361E-03
  0.10895904E-01  0.15409106E-01 -0.98953954E-03
 -0.32908385E-02  0.17529071E-01 -0.89323555E-02
 -0.57501461E-02  0.20991117E-02 -0.11351716E-01
 -0.93196753E-02  0.98357465E-02  0.50096778E-02
 -0.71802905E-02  0.42811510E-03  0.33542479E-02
  0.14875900E-01 -0.35329676E-02 -0.10933178E-01
 -0.77233292E-02  0.14738042E-02 -0.12309928E-01
  0.13078324E-01 -0.14105471E-01  0.12233687E-01
 -0.81878580E-02  0.76926116E-03 -0.99093875E-02
  0.64023303E-02  0.97320627E-02  0.16941876E-02
  0.12451047E-01  0.16941658E-02 -0.59084871E-02
 -0.43020920E-02 -0.21427204E-02  0.95614261E-02
  0.17688330E-02  0.10943298E-01 -0.35928853E-02
 -0.29183521E-02 -0.97201556E-02  0.22832703E-02
 -0.10661323E-01 -0.14478804E-01 -0.75904422E-02
  0.13212205E-02  0.35143453E-02 -0.99129545E-02
 -0.67645368E-02  0.31009789E-02 -0.12792173E-02
  0.32790422E-02  0.11500079E-01 -0.17032648E-01
 -0.78107709E-02 -0.24482434E-02 -0.37083282E-02
 -0.15243241E-01 -0.36967003E-02 -0.41168122E-02
 -0.74765008E-02 -0.36528562E-02  0.13923913E-01
  0.33414874E-02  0.10567004E-02 -0.59787302E-02
  0.59753696E-02  0.70964932E-02 -0.12609622E-01
  0.16487997E-02  0.21191935E-01  0.16914153E-01
  0.92945481E-02  0.21713257E-02 -0.33669536E-02
  0.58405677E-02  0.35673028E-02  0.10223597E-01
 -0.14096071E-01 -0.64314432E-02  0.21328213E-02
 -0.34750575E-02 -0.25913898E-02  0.44980584E-02
 -0.94244259E-02 -0.57650921E-02 -0.49409702E-03
  0.59601309E-02  0.61531078E-02 -0.68886463E-02
 -0.70244095E-02  0.92731854E-02  0.21542621E-02
  0.33811535E-02  0.34518471E-03  0.11493924E-01
 -0.25291271E-02  0.14304919E-01 -0.43811108E-03
 -0.79547929E-02 -0.50218089E-03  0.31597221E-02
 -0.82772700E-02 -0.80632945E-02  0.15050266E-01
 -0.77936733E-02 -0.14340637E-01 -0.40497597E-02
 -0.96828773E-02 -0.64479210E-02  0.12878466E-01
 -0.69725800E-03 -0.12976413E-01  0.17052996E-02
 -0.89706283E-02 -0.51265109E-02  0.10302933E-01
  0.22698908E-02 -0.43472785E-03 -0.95735259E-03
  0.23588736E-02 -0.29360184E-02  0.70093421E-02
 -0.38780903E-02 -0.11099489E-02  0.18928624E-01
 -0.53846829E-02  0.53262936E-02  0.37351180E-02
  0.57567606E-04 -0.12843089E-01 -0.58665850E-02
 -0.10499175E-01 -0.31899906E-02  0.60807600E-02
  0.57988275E-02 -0.26514842E-02  0.12681075E-01
  0.53319965E-02 -0.44913520E-02  0.59310461E-02
 -0.59826700E-02 -0.57421646E-02  0.44496947E-02
  0.76587562E-02 -0.31804032E-02 -0.37040580E-02
  0.96268484E-02  0.10649244E-01  0.92170613E-03
 -0.43653801E-03 -0.12196077E-01 -0.32229112E-02
  0.39559030E-02  0.65186417E-02  0.89948131E-02
 -0.23518965E-02 -0.12798980E-01  0.24727331E-02
 -0.12387556E-01 -0.70875269E-02 -0.10826327E-01
  0.95172036E-02 -0.23319662E-02 -0.32457156E-02
 -0.52776901E-02 -0.41059174E-02  0.25873379E-02
 -0.78291473E-02 -0.55986901E-03 -0.36432577E-02
 -0.34158772E-02 -0.34792884E-02 -0.19531098E-01
  0.33046221E-02  0.17898603E-02 -0.20848723E-02
 -0.42796277E-03 -0.88327217E-02  0.12511921E-01
  0.14712743E-01 -0.73059967E-02 -0.40312383E-02
 -0.10410531E-01 -0.17446800E-02  0.82331249E-02
  0.19454082E-01  0.17591773E-01 -0.18614909E-02
 -0.68190115E-02 -0.34891782E-02  0.57501168E-02
 -0.97662765E-02 -0.10686595E-01  0.51029117E-02
  0.54920066E-02 -0.13104581E-01  0.21640387E-02
  0.26797550E-03 -0.58716591E-04  0.70580847E-02
  0.48672332E-04  0.10466249E-01 -0.10052102E-01
  0.91810221E-02  0.20313937E-01  0.50337995E-02
  0.56714212E-02 -0.13721527E-01  0.65868895E-03
 -0.46726986E-02  0.77783942E-02 -0.56565808E-03
 -0.26329737E-02  0.49775801E-02 -0.14591356E-02
 -0.10713153E-01  0.38837996E-02 -0.30872321E-02
  0.12372791E-01 -0.58421127E-02  0.58149805E-02
  0.65036979E-02 -0.83219034E-02 -0.67358905E-02
 -0.12828538E-01 -0.18554654E-02  0.10932474E-01
 -0.73666966E-02 -0.82867708E-02 -0.31063106E-02
  0.92343506E-02  0.58793768E-02  0.69965568E-02
  0.20758482E-02 -0.65323040E-03  0.23201917E-02
  0.52195026E-02  0.61567546E-02 -0.15991723E-02
  0.10943191E-01  0.83035424E-02 -0.30203136E-02
  0.29022227E-02 -0.34043567E-02 -0.25231338E-02
 -0.11724660E-01  0.89629495E-02  0.81555357E-02
  0.67028267E-02 -0.23153446E-02 -0.15228476E-01
 -0.87489116E-02 -0.56159895E-02  0.88681986E-02
 -0.10677438E-01 -0.93616278E-02 -0.22016536E-01
  0.22624091E-02  0.27869175E-02  0.31780871E-02
  0.13176310E-02  0.43504657E-02 -0.13798656E-01
 -0.18056042E-03 -0.30572470E-02 -0.64866849E-02
  0.23039566E-02  0.65379419E-02 -0.10278271E-01
  0.11164450E-01 -0.16605086E-01  0.14940681E-01
 -0.69774687E-02 -0.12992698E-01 -0.30962486E-02
  0.94239197E-02 -0.12024146E-01 -0.11048435E-01
  0.22673546E-02  0.10868896E-01  0.32840008E-02
 -0.16828414E-01  0.17646192E-01  0.71666553E-02
 -0.17931427E-02  0.66162461E-02 -0.49316826E-02
 -0.54848183E-02 -0.35246649E-02 -0.64012311E-02
 -0.92530325E-02  0.55794077E-02 -0.43861746E-02
  0.21323211E-01  0.64950390E-02  0.12242982E-02
 -0.12754096E-01 -0.10285263E-01  0.12469408E-01
  0.42201749E-02 -0.98274862E-02  0.41778755E-02
  0.22882964E-02  0.13169734E-01 -0.21534207E-02
  0.19644514E-01 -0.11880525E-01  0.67081952E-01
 -0.31057449E-01  0.36410777E-01  0.25304175E-01
  0.33235324E-02 -0.21655808E-01 -0.16678808E-01
  0.15871224E-01 -0.33363255E-01  0.27223582E-01
 -0.81626809E-02 -0.12266404E-01 -0.33198796E-02
  0.41365034E-01 -0.53588119E-01  0.14334742E-02
 -0.10741227E-01  0.18644289E-01 -0.19927898E-01
 -0.20299160E-01 -0.64534867E-01 -0.35249421E-01
 -0.10205258E-03 -0.52057985E-01 -0.36521979E-01
  0.55529960E-01  0.18834253E-01  0.13578064E-01
 -0.76135484E-02 -0.12219301E-01 -0.34929266E-02
 -0.37075104E-01 -0.26296237E-01 -0.24192636E-01
 -0.30288775E-02 -0.11056184E-01  0.45541504E-02
 -0.58263246E-02 -0.15314466E-01  0.18271854E-01
  0.36149203E-01 -0.29801300E-01  0.73516603E-04
  0.32824392E-01 -0.20379100E-01  0.56827793E-02
 -0.19138339E-03 -0.51498949E-01 -0.12300508E-01
  0.20316975E-01 -0.11137058E-01 -0.45332219E-01
 -0.19283600E-01  0.12134959E-01 -0.94270110E-02
  0.29045193E-01 -0.33912869E-01 -0.12243801E-01
  0.10697719E-01  0.24008631E-01  0.38861800E-01
 -0.11968348E-01 -0.60814116E-03 -0.33843523E-01
  0.78445645E-02 -0.38294423E-01  0.44124820E-01
  0.43916748E-02 -0.18621737E-01 -0.40928634E-02
 -0.25579428E-01  0.28422668E-01 -0.25664241E-01
  0.19233644E-01 -0.37395961E-01 -0.34024952E-01
 -0.88941030E-02 -0.78378410E-02  0.65226411E-01
  0.28975403E-01 -0.25976706E-01  0.18943386E-01
 -0.27981197E-01 -0.15876635E-01 -0.33318949E-01
 -0.46448609E-01  0.75089919E-02  0.22792795E-01
  0.30009551E-01 -0.16914031E-01 -0.26425273E-01
  0.52833139E-01  0.26991970E-01  0.29886308E-01
 -0.46360819E-01 -0.56832038E-01 -0.97209272E-02
  0.50648874E-03  0.33865129E-01  0.26686601E-02
  0.11705599E-01  0.12097819E-01 -0.22179289E-01
 -0.83446949E-02 -0.57967598E-01 -0.30300662E-01
 -0.45717031E-01  0.72567260E-02 -0.18976344E-01
  0.44500828E-01 -0.48424629E-01 -0.71087102E-01
 -0.45481833E-02  0.14503142E-01  0.67375776E-01
  0.53973742E-01 -0.15579081E-01 -0.81218595E-02
 -0.60753365E-01 -0.37496508E-01  0.13914682E-01
 -0.14690700E-01  0.60139266E-01  0.41910591E-02
  0.71167374E-02 -0.56615607E-02  0.61978573E-01
 -0.17296081E-03  0.24371047E-01  0.43145559E-01
  0.24883726E-01  0.18706517E-01 -0.44776764E-04
 -0.13841475E-01 -0.57985429E-01 -0.10635850E-01
 -0.23707032E-01 -0.72363617E-03  0.35732236E-02
 -0.11941911E-01 -0.14142076E-01 -0.93245216E-02
  0.12705053E-01  0.13512840E-01  0.20190762E-01
 -0.47183200E-01  0.11649289E-01 -0.17539763E-01
  0.25585482E-02 -0.17830337E-02  0.22915111E-01
 -0.41748686E-01  0.94734353E-02 -0.15729776E-01
  0.12529738E-02  0.65354023E-02 -0.32064984E-01
  0.16980710E-01 -0.12621175E-01  0.30094814E-01
  0.53210924E-01  0.60588219E-01 -0.56427650E-01
 -0.15530544E-01  0.88978659E-02  0.29706492E-01
 -0.11759035E-01 -0.72346420E-01  0.60937691E-01
 -0.22758296E-01  0.17248385E-01  0.26621076E-01
 -0.61189028E-02 -0.64233662E-02  0.89465991E-02
  0.17718345E-01 -0.33970660E-01  0.35548194E-02
 -0.14950203E-01 -0.67237198E-04 -0.87938807E-02
 -0.11810855E-01  0.26766752E-01 -0.24778357E-01
  0.51917330E-01 -0.13815600E-01  0.28754837E-01
 -0.59774646E-01 -0.32534534E-01  0.51629992E-02
 -0.27908959E-01 -0.48973677E-01 -0.24354359E-01
  0.72073828E-02 -0.92283331E-04 -0.30678683E-02
  0.37327664E-01  0.29215120E-01 -0.55642194E-01
 -0.22550493E-01  0.15223809E-01 -0.32566034E-01
  0.11825117E-01 -0.16091022E-01 -0.17558299E-01
 -0.17000435E-01  0.40399794E-01  0.61614676E-02
  0.46041479E-01  0.40232984E-01  0.14101148E-01
  0.61142521E-01  0.33238452E-02 -0.11052301E-01
  0.13583360E-01 -0.22996359E-01  0.60439120E-01
 -0.24794074E-01  0.43902283E-01 -0.65433710E-02
 -0.16771025E-01 -0.31689454E-02 -0.53095767E-01
 -0.46037041E-01 -0.16317615E-01  0.44672145E-01
  0.31266356E-01  0.11339372E-02  0.12837661E-01
  0.20700109E-02  0.78874078E-02  0.79934404E-01
 -0.20051498E-02 -0.30241945E-01 -0.12745731E-01
  0.19523131E-01  0.47984229E-01  0.34794522E-01
 -0.32029027E-01 -0.29826210E-01  0.16429854E-01
 -0.25116431E-01  0.51912315E-01 -0.29339587E-02
 -0.88598938E-02  0.27074779E-01  0.36290646E-02
  0.31559401E-01 -0.94329968E-02 -0.16156554E-01
  0.80145375E-02  0.18902941E-01 -0.51945944E-01
 -0.18124210E-01 -0.43782963E-02 -0.98944846E-02
 -0.35030755E-02  0.22251445E-02  0.70571749E-02
  0.36070078E-01  0.24688051E-01 -0.22535615E-01
  0.30105590E-01 -0.17722120E-01  0.12476065E-01
  0.40679725E-01  0.15300190E-01 -0.14282852E-01
  0.10146949E-01 -0.36642745E-03  0.89051185E-02
 -0.88360030E-02  0.48654851E-01  0.12959366E-02
  0.22525108E-01 -0.67778855E-01 -0.32799864E-01
 -0.49990379E-01 -0.33262854E-01 -0.26023220E-01
 -0.94303974E-01 -0.42251906E-02 -0.28427543E-01
 -0.90404265E-02  0.63287713E-01 -0.46214509E-01
  0.16525619E-01 -0.12590912E-01  0.17750928E-01
  0.26272954E-01  0.21651301E-01  0.79075413E-02
  0.18508285E-01 -0.13241853E-01 -0.92055591E-02
  0.13741223E-01 -0.25281396E-01  0.11055705E-01
  0.51687523E-02  0.31875435E-01  0.15162424E-01
  0.29610985E-01 -0.27078299E-01  0.14653559E-01
  0.42644383E-01  0.57732343E-01  0.42055949E-01
  0.15396754E-01 -0.54633394E-01  0.28084921E-02
 -0.15546655E-01 -0.48284669E-01  0.21481983E-01
  0.28427758E-01  0.28682571E-01  0.55492917E-03
 -0.31325791E-01  0.26138296E-01  0.26593469E-02
  0.55390724E-01  0.43726291E-01 -0.75315403E-02
 -0.78758783E-02 -0.22070638E-01 -0.37721377E-01
 -0.37619784E-01  0.11846756E-01 -0.23172651E-02
  0.15911233E-01  0.35936336E-01 -0.13538897E-01
 -0.15565006E-01 -0.21863707E-01 -0.21878832E-01
  0.18393725E-01 -0.60744402E-01 -0.65253906E-02
  0.53556736E-01  0.13893446E-01 -0.36771737E-02
 -0.11532085E-01 -0.18236503E-01 -0.25733435E-01
  0.53585445E-03  0.98914291E-02  0.43120955E-01
 -0.39565459E-02  0.19595703E-01 -0.29147181E-01
 -0.47310493E-01 -0.17807122E-01  0.63150601E-02
 -0.48524433E-01 -0.41586227E-01  0.25636202E-01
 -0.18656630E-01 -0.18024433E-02 -0.15180961E-01
  0.56273678E-02  0.63860910E-01  0.96026632E-04
  0.17433008E-01  0.78425850E-03  0.38838781E-01
 -0.40679136E-02 -0.28486533E-01  0.18854969E-01
  0.50516365E-02 -0.57134896E-01 -0.52005498E-01
  0.23708593E-01 -0.46276786E-01  0.50143479E-01
 -0.32319071E-01 -0.19171214E-01  0.27733409E-02
 
           1
  0.400000000000000     
  0.10000000E+01  0.00000000E+00  0.00000000E+00  0.00000000E+00
  0.18328061E+00  0.66351760E+00  0.58951312E-01
  0.90196817E+00  0.10922100E+00  0.78889626E+00
  0.32613685E+00  0.21275276E+00  0.44055066E+00
  0.34005817E+00  0.22744955E+00  0.38260103E+00
  0.93730564E+00  0.87788825E+00  0.30385643E+00
  0.68376296E+00  0.84175517E+00  0.22652213E+00
  0.75494388E+00  0.57644604E+00  0.60993357E+00
  0.17998083E+00  0.94536645E+00  0.33428364E+00
  0.27453284E+00  0.32443322E+00  0.32343935E+00
  0.34826045E+00  0.41244076E+00  0.76658565E+00
  0.19128596E+00  0.88988655E+00  0.39330048E+00
  0.77128024E-01  0.85194182E+00  0.37867464E+00
  0.20271057E+00  0.42865458E+00  0.31373707E+00
  0.82168161E+00  0.83508126E+00  0.29548721E+00
  0.66206859E+00  0.51412554E+00  0.60237199E+00
  0.32386971E+00  0.31285189E+00  0.27509867E+00
  0.71295704E+00  0.70340623E+00  0.67665342E+00
  0.79958413E+00  0.66758905E+00  0.65945335E+00
  0.76675210E-01  0.64669504E+00  0.17269008E+00
  0.16187938E+00  0.29322019E+00  0.88965715E+00
  0.77589883E+00  0.31243473E+00  0.96567510E+00
  0.74272278E+00  0.83625017E+00  0.82461154E+00
  0.73191432E+00  0.35874700E+00  0.89549349E+00
  0.40042030E-01  0.33682790E+00  0.60864927E+00
  0.95991013E+00  0.38474055E+00  0.41075366E+00
  0.57016376E-01  0.38694078E+00  0.55169929E+00
  0.63667622E+00  0.35179975E+00  0.33628811E+00
  0.60655527E+00  0.39577021E+00  0.38344890E+00
  0.32699646E+00  0.31996029E+00  0.80213441E+00
  0.97994986E+00  0.33622324E+00  0.47228681E+00
  0.13700950E+00  0.47251544E+00  0.58049345E+00
  0.24298185E+00  0.28200598E+00  0.86998194E+00
  0.92135576E+00  0.32132623E+00  0.34289854E+00
  0.62965936E+00  0.63719674E+00  0.66970302E+00
  0.12059621E+00  0.18054967E-01  0.91058827E+00
  0.26406950E+00  0.10070237E+00  0.12698841E+00
  0.11961512E+00  0.82222306E+00  0.81051289E+00
  0.48908688E+00  0.15019024E+00  0.67731106E+00
  0.59101562E+00  0.32773277E+00  0.67961608E+00
  0.35142673E+00  0.43745773E+00  0.53691936E+00
  0.91735804E-01  0.79443021E+00  0.69547786E+00
  0.45990992E+00  0.52279981E+00  0.67728222E+00
  0.44908494E+00  0.18019643E+00  0.13648567E+00
  0.50348569E+00  0.44734892E+00  0.63497658E+00
  0.54542684E+00  0.13666950E+00  0.21313571E+00
  0.43179757E+00  0.12981700E+00  0.38932711E+00
  0.50989088E+00  0.67836814E-01  0.24770154E+00
  0.92842617E+00  0.94667704E+00  0.24746323E+00
  0.17393735E-02  0.89376175E+00  0.66014349E+00
  0.60529467E+00  0.52121849E+00  0.63884518E+00
  0.49879130E+00  0.53294815E+00  0.24926463E+00
  0.14429591E+00  0.75371845E+00  0.76917385E+00
  0.49441488E+00  0.38019418E-01  0.44338930E+00
  0.56352388E+00  0.42439355E+00  0.26256467E+00
  0.61313691E+00  0.52330471E+00  0.89210760E+00
  0.39797098E+00  0.19632428E+00  0.81860419E+00
  0.49180608E-01  0.95485499E+00  0.25676102E+00
  0.36418169E+00  0.43249663E-01  0.19755262E+00
  0.43079454E+00  0.60224324E-01  0.68534482E+00
  0.90958385E+00  0.82852999E+00  0.87565739E+00
  0.99961698E-01  0.86791919E-01  0.59841311E-01
  0.28253111E+00  0.10531073E+00  0.64654245E+00
  0.51848928E+00  0.95349848E+00  0.73703961E+00
  0.35633127E-02  0.20431818E+00  0.32827724E-01
  0.41524634E-01  0.93417444E+00  0.78285834E+00
  0.18089568E-01  0.22426736E-01  0.82604739E+00
  0.31168695E+00  0.17140742E+00  0.98642839E-01
  0.97343267E+00  0.96852896E+00  0.70124085E+00
  0.53314162E+00  0.23020324E+00  0.66690654E+00
  0.76698437E-01  0.97673915E+00  0.49535826E-01
  0.43775120E+00  0.42764212E+00  0.54086858E-01
  0.42368416E+00  0.14264388E+00  0.50829599E+00
  0.65257303E+00  0.92266698E+00  0.76474307E+00
  0.54651890E+00  0.79829554E+00  0.81483321E+00
  0.49777251E+00  0.40645899E-01  0.50619061E+00
  0.71099407E+00  0.37962513E+00  0.99622492E+00
  0.21642409E+00  0.63981120E+00  0.93272715E-02
  0.31424206E+00  0.67874051E+00  0.10738924E-01
  0.47627127E+00  0.57984198E+00  0.29904138E+00
  0.92894938E+00  0.14680051E+00  0.40181214E+00
  0.96605829E+00  0.21236494E+00  0.46779571E+00
  0.13989983E+00  0.47114678E+00  0.73421030E-01
  0.52173664E+00  0.50636787E+00  0.36375683E+00
  0.71926889E+00  0.82178478E+00  0.99710052E+00
  0.37328496E+00  0.79290600E+00  0.11759104E+00
  0.84516008E+00  0.19404610E+00  0.99610181E+00
  0.57493766E+00  0.83529116E+00  0.95568370E+00
  0.61752864E-01  0.47058752E+00  0.80749050E+00
  0.26922625E-01  0.66370951E+00  0.85428423E-01
  0.51020309E+00  0.93505801E+00  0.96771062E+00
  0.74670794E+00  0.18773532E+00  0.12324871E+00
  0.59090183E+00  0.24004266E-01  0.17095229E-01
  0.15062632E+00  0.45449145E+00  0.78739319E+00
  0.73690943E+00  0.13155858E-01  0.55870166E-01
  0.11614065E+00  0.59510094E+00  0.64581567E-01
  0.73418616E+00  0.50793267E+00  0.16387969E+00
  0.88924469E+00  0.16832278E+00  0.74450391E-01
  0.79706953E+00  0.91742367E+00  0.39363891E-01
  0.80291523E+00  0.12203370E+00  0.93166439E-01
  0.29064972E+00  0.73815583E+00  0.12523170E+00
  0.77355936E+00  0.10451347E+00  0.92771892E+00
  0.85652166E+00  0.77832054E+00  0.35981270E+00
  0.40126931E+00  0.76141123E+00  0.69735681E-01
  0.90504922E+00  0.20456604E+00  0.33754033E+00
  0.64593691E+00  0.48655912E+00  0.96390601E+00
  0.67761455E+00  0.76579799E+00  0.83556860E+00
  0.67194842E+00  0.46664072E+00  0.86446399E+00
  0.22143674E+00  0.34794598E+00  0.80753960E+00
  0.43492703E-01  0.38915206E+00  0.84986000E+00
  0.46820886E+00  0.89610743E+00  0.77055398E+00
  0.68962378E+00  0.97940608E+00  0.74711751E+00
  0.52576072E+00  0.42762463E+00  0.11459291E+00
  0.97837940E+00  0.93506050E+00  0.68498102E-02
  0.55896390E+00  0.97608603E+00  0.55537613E+00
  0.34215098E+00  0.45082841E+00  0.49257816E-01
  0.73453818E+00  0.34940567E+00  0.53872603E-01
  0.49452174E+00  0.17877378E+00  0.88548851E+00
  0.98577541E+00  0.93441952E-01  0.11008394E+00
  0.17316602E+00  0.24012942E+00  0.93606527E+00
  0.96615226E+00  0.23154597E+00  0.11556386E+00
  0.32815588E+00  0.35704963E+00  0.54717844E+00
  0.97224612E+00  0.41461909E+00  0.85907818E+00
  0.32339047E+00  0.51104727E+00  0.75991262E+00
  0.77811347E+00  0.29435768E+00  0.87981519E+00
  0.55063509E+00  0.60890529E+00  0.87243114E+00
  0.42372547E+00  0.13121873E+00  0.55456394E+00
  0.16687761E+00  0.79420407E+00  0.87261967E+00
  0.34964640E+00  0.97505563E+00  0.22511904E+00
  0.49583046E+00  0.23225687E+00  0.12281409E+00
  0.10117555E+00  0.25673562E+00  0.63360351E+00
  0.72727310E+00  0.28839182E+00  0.36570580E+00
  0.95368848E+00  0.77228593E+00  0.93021678E+00
  0.14884331E+00  0.53227041E+00  0.76225107E+00
  0.24420860E+00  0.22562158E+00  0.42950308E-01
  0.91461200E-01  0.39442933E+00  0.66086980E+00
  0.65195637E+00  0.15898707E+00  0.97459372E-01
  0.42234772E+00  0.12406128E+00  0.33627613E+00
  0.45548181E+00  0.38286741E+00  0.79782686E+00
  0.83327571E+00  0.96715199E+00  0.18991137E+00
  0.14183285E+00  0.52613658E+00  0.54471919E+00
  0.55611305E+00  0.55863033E+00  0.73671737E+00
  0.32407249E+00  0.14338306E+00  0.80964772E+00
  0.28184548E+00  0.73856259E+00  0.16900278E+00
  0.73808346E+00  0.90361271E+00  0.50835923E+00
  0.80005541E+00  0.25652964E+00  0.16318987E+00
  0.64042481E+00  0.44746759E+00  0.56001383E+00
  0.64184833E+00  0.55626164E+00  0.10165848E+00
  0.13963326E+00  0.75597223E+00  0.67158098E+00
  0.42268100E+00  0.85092417E+00  0.16179787E+00
  0.21508748E+00  0.68004255E+00  0.79396388E+00
  0.28001792E+00  0.51134629E+00  0.51542939E+00
  0.67418471E+00  0.14989449E+00  0.86356836E+00
  0.76095612E+00  0.40792681E+00  0.17676785E+00
  0.54974296E+00  0.10206495E+00  0.29208496E-01
  0.77622221E+00  0.74704610E+00  0.98412711E+00
  0.60368235E+00  0.41479593E+00  0.23503263E+00
  0.65458869E+00  0.14662949E+00  0.24634800E+00
  0.73412923E+00  0.69234686E+00  0.88119685E+00
  0.15650869E-01  0.75436240E+00  0.71526225E-01
  0.81801892E+00  0.54746487E+00  0.18215436E+00
  0.69758653E+00  0.34121192E+00  0.73201872E+00
  0.92739576E+00  0.63066360E+00  0.56682392E-01
  0.41258240E+00  0.17616377E+00  0.77718256E+00
  0.97213113E+00  0.54717121E+00  0.77543203E+00
  0.41417343E+00  0.60149982E+00  0.63352966E+00
  0.70812534E-01  0.26271828E+00  0.82322925E-01
  0.55552867E+00  0.96709531E+00  0.43980981E+00
  0.38528458E+00  0.41997637E+00  0.50139407E+00
  0.22094771E+00  0.96535575E+00  0.95676538E+00
  0.67841707E+00  0.37394256E+00  0.44779823E+00
  0.57159978E+00  0.14537517E-02  0.29285700E+00
  0.90481558E+00  0.92834735E+00  0.59097228E-01
  0.91010797E+00  0.55881995E-01  0.67892391E+00
  0.93619436E-01  0.55438455E+00  0.19214724E+00
  0.35783363E+00  0.91098595E+00  0.74039038E+00
  0.23894643E+00  0.24440678E+00  0.43237108E+00
  0.27586564E+00  0.19567036E+00  0.67308421E+00
  0.17423641E+00  0.68860143E+00  0.21913649E+00
  0.92519696E+00  0.16809092E+00  0.76308022E+00
  0.62143311E+00  0.53475506E+00  0.99373052E+00
  0.93536408E+00  0.92309091E+00  0.88686710E+00
  0.93364853E+00  0.32588851E+00  0.57158384E+00
  0.80773662E+00  0.89085558E-01  0.74549708E+00
  0.88063646E+00  0.16701244E+00  0.82404738E+00
  0.26973821E+00  0.96853726E+00  0.33890973E+00
  0.85894464E+00  0.73194924E+00  0.66043623E+00
  0.26543026E+00  0.38138273E+00  0.22847613E+00
  0.55689810E+00  0.66786666E+00  0.67784419E+00
  0.96008990E+00  0.92194457E+00  0.59819727E+00
  0.84066052E+00  0.64264022E-01  0.92115879E+00
  0.95857357E+00  0.70485265E+00  0.38844949E+00
  0.77632838E+00  0.76622962E+00  0.35961715E+00
  0.31644105E+00  0.21052387E+00  0.89773661E+00
  0.71976385E+00  0.77428456E+00  0.71157663E+00
  0.71193344E-02  0.70363838E+00  0.17803404E+00
  0.16256871E+00  0.91492908E+00  0.89338621E-01
  0.39694984E+00  0.64882804E+00  0.28823493E+00
  0.46529068E+00  0.49236664E+00  0.34524871E-01
  0.66933107E+00  0.49956269E+00  0.81536251E+00
  0.91382550E+00  0.37330952E+00  0.30083959E+00
  0.52100515E+00  0.75242121E+00  0.93869655E+00
  0.23877027E+00  0.14806827E+00  0.59188461E+00
  0.22414454E-01  0.45439819E+00  0.41631658E+00
  0.66927150E+00  0.50849812E+00  0.17960077E+00
  0.91820378E+00  0.14695396E+00  0.29961159E+00
  0.16559634E+00  0.44761123E+00  0.37680171E-01
  0.92120252E+00  0.79797216E+00  0.83092296E+00
  0.50700474E+00  0.76845858E+00  0.81456047E-01
  0.41083694E+00  0.91013148E+00  0.95147749E+00
  0.79960198E-01  0.87283439E-01  0.92735840E+00
  0.91859004E+00  0.55634885E-01  0.40699728E+00
  0.39489446E+00  0.48623618E+00  0.68830262E+00
  0.18070261E+00  0.51416523E+00  0.63942418E+00
  0.22905358E+00  0.41560851E-01  0.64306680E+00
  0.21919000E-01  0.99621803E+00  0.20234530E+00
  0.30030218E+00  0.87450981E+00  0.44634825E+00
  0.18704474E+00  0.50762447E+00  0.28161003E+00
  0.82904571E+00  0.54545294E+00  0.59584743E+00
  0.99651026E+00  0.25625489E+00  0.99182337E+00
  0.46960207E-01  0.45261840E+00  0.69121772E-01
  0.16598657E+00  0.57998491E+00  0.96639816E+00
  0.51768671E+00  0.53167797E+00  0.40827796E+00
  0.10712311E+00  0.80148305E+00  0.43295888E+00
  0.64248885E+00  0.91235508E+00  0.18373408E+00
  0.76444941E-02  0.16708278E+00  0.52347430E+00
  0.62273590E+00  0.77290781E+00  0.22078652E+00
  0.43692186E+00  0.29605497E+00  0.30912832E+00
  0.29603572E+00  0.40486861E+00  0.70557847E+00
  0.45766926E+00  0.59877643E+00  0.20016367E+00
  0.16551420E+00  0.45040814E+00  0.34643699E+00
  0.43798311E+00  0.35141574E+00  0.30242142E-01
  0.50959978E+00  0.74265707E+00  0.83524703E+00
  0.28398152E+00  0.23615126E+00  0.23649907E+00
  0.24516773E+00  0.45094704E+00  0.13189986E+00
  0.33037670E+00  0.64692073E+00  0.97016043E+00
  0.71835777E+00  0.44755064E-01  0.93146370E+00
  0.00000000E+00  0.00000000E+00  0.00000000E+00
  0.00000000E+00  0.00000000E+00  0.00000000E+00
  0.00000000E+00  0.00000000E+00  0.00000000E+00
  0.00000000E+00  0.00000000E+00  0.00000000E+00
  0.00000000E+00  0.00000000E+00  0.00000000E+00
  0.00000000E+00  0.00000000E+00  0.00000000E+00
  0.00000000E+00  0.00000000E+00  0.00000000E+00
  0.00000000E+00  0.00000000E+00  0.00000000E+00
  0.00000000E+00  0.00000000E+00  0.00000000E+00
  0.00000000E+00  0.00000000E+00  0.00000000E+00
  0.00000000E+00  0.00000000E+00  0.00000000E+00
  0.00000000E+00  0.00000000E+00  0.00000000E+00
  0.00000000E+00  0.00000000E+00  0.00000000E+00
  0.00000000E+00  0.00000000E+00  0.00000000E+00
  0.00000000E+00  0.00000000E+00  0.00000000E+00
  0.00000000E+00  0.00000000E+00  0.00000000E+00
  0.00000000E+00  0.00000000E+00  0.00000000E+00
  0.00000000E+00  0.00000000E+00  0.00000000E+00
  0.00000000E+00  0.00000000E+00  0.00000000E+00
  0.00000000E+00  0.00000000E+00  0.00000000E+00
  0.00000000E+00  0.00000000E+00  0.00000000E+00
  0.00000000E+00  0.00000000E+00  0.00000000E+00
  0.00000000E+00  0.00000000E+00  0.00000000E+00
  0.00000000E+00  0.00000000E+00  0.00000000E+00
  0.00000000E+00  0.00000000E+00  0.00000000E+00
  0.00000000E+00  0.00000000E+00  0.00000000E+00
  0.00000000E+00  0.00000000E+00  0.00000000E+00
  0.00000000E+00  0.00000000E+00  0.00000000E+00
  0.00000000E+00  0.00000000E+00  0.00000000E+00
  0.00000000E+00  0.00000000E+00  0.00000000E+00
  0.00000000E+00  0.00000000E+00  0.00000000E+00
  0.00000000E+00  0.00000000E+00  0.00000000E+00
  0.00000000E+00  0.00000000E+00  0.00000000E+00
  0.00000000E+00  0.00000000E+00  0.00000000E+00
  0.00000000E+00  0.00000000E+00  0.00000000E+00
  0.00000000E+00  0.00000000E+00  0.00000000E+00
  0.00000000E+00  0.00000000E+00  0.00000000E+00
  0.00000000E+00  0.00000000E+00  0.00000000E+00
  0.00000000E+00  0.00000000E+00  0.00000000E+00
  0.00000000E+00  0.00000000E+00  0.00000000E+00
  0.00000000E+00  0.00000000E+00  0.00000000E+00
  0.00000000E+00  0.00000000E+00  0.00000000E+00
  0.00000000E+00  0.00000000E+00  0.00000000E+00
  0.00000000E+00  0.00000000E+00  0.00000000E+00
  0.00000000E+00  0.00000000E+00  0.00000000E+00
  0.00000000E+00  0.00000000E+00  0.00000000E+00
  0.00000000E+00  0.00000000E+00  0.00000000E+00
  0.00000000E+00  0.00000000E+00  0.00000000E+00
  0.00000000E+00  0.00000000E+00  0.00000000E+00
  0.00000000E+00  0.00000000E+00  0.00000000E+00
  0.00000000E+00  0.00000000E+00  0.00000000E+00
  0.00000000E+00  0.00000000E+00  0.00000000E+00
  0.00000000E+00  0.00000000E+00  0.00000000E+00
  0.00000000E+00  0.00000000E+00  0.00000000E+00
  0.00000000E+00  0.00000000E+00  0.00000000E+00
  0.00000000E+00  0.00000000E+00  0.00000000E+00
  0.00000000E+00  0.00000000E+00  0.00000000E+00
  0.00000000E+00  0.00000000E+00  0.00000000E+00
  0.00000000E+00  0.00000000E+00  0.00000000E+00
  0.00000000E+00  0.00000000E+00  0.00000000E+00
  0.00000000E+00  0.00000000E+00  0.00000000E+00
  0.00000000E+00  0.00000000E+00  0.00000000E+00
  0.00000000E+00  0.00000000E+00  0.00000000E+00
  0.00000000E+00  0.00000000E+00  0.00000000E+00
  0.00000000E+00  0.00000000E+00  0.00000000E+00
  0.00000000E+00  0.00000000E+00  0.00000000E+00
  0.00000000E+00  0.00000000E+00  0.00000000E+00
  0.00000000E+00  0.00000000E+00  0.00000000E+00
  0.00000000E+00  0.00000000E+00  0.00000000E+00
  0.00000000E+00  0.00000000E+00  0.00000000E+00
  0.00000000E+00  0.00000000E+00  0.00000000E+00
  0.00000000E+00  0.00000000E+00  0.00000000E+00
  0.00000000E+00  0.00000000E+00  0.00000000E+00
  0.00000000E+00  0.00000000E+00  0.00000000E+00
  0.00000000E+00  0.00000000E+00  0.00000000E+00
  0.00000000E+00  0.00000000E+00  0.00000000E+00
  0.00000000E+00  0.00000000E+00  0.00000000E+00
  0.00000000E+00  0.00000000E+00  0.00000000E+00
  0.00000000E+00  0.00000000E+00  0.00000000E+00
  0.00000000E+00  0.00000000E+00  0.00000000E+00
  0.00000000E+00  0.00000000E+00  0.00000000E+00
  0.00000000E+00  0.00000000E+00  0.00000000E+00
  0.00000000E+00  0.00000000E+00  0.00000000E+00
  0.00000000E+00  0.00000000E+00  0.00000000E+00
  0.00000000E+00  0.00000000E+00  0.00000000E+00
  0.00000000E+00  0.00000000E+00  0.00000000E+00
  0.00000000E+00  0.00000000E+00  0.00000000E+00
  0.00000000E+00  0.00000000E+00  0.00000000E+00
  0.00000000E+00  0.00000000E+00  0.00000000E+00
  0.00000000E+00  0.00000000E+00  0.00000000E+00
  0.00000000E+00  0.00000000E+00  0.00000000E+00
  0.00000000E+00  0.00000000E+00  0.00000000E+00
  0.00000000E+00  0.00000000E+00  0.00000000E+00
  0.00000000E+00  0.00000000E+00  0.00000000E+00
  0.00000000E+00  0.00000000E+00  0.00000000E+00
  0.00000000E+00  0.00000000E+00  0.00000000E+00
  0.00000000E+00  0.00000000E+00  0.00000000E+00
  0.00000000E+00  0.00000000E+00  0.00000000E+00
  0.00000000E+00  0.00000000E+00  0.00000000E+00
  0.00000000E+00  0.00000000E+00  0.00000000E+00
  0.00000000E+00  0.00000000E+00  0.00000000E+00
  0.00000000E+00  0.00000000E+00  0.00000000E+00
  0.00000000E+00  0.00000000E+00  0.00000000E+00
  0.00000000E+00  0.00000000E+00  0.00000000E+00
  0.00000000E+00  0.00000000E+00  0.00000000E+00
  0.00000000E+00  0.00000000E+00  0.00000000E+00
  0.00000000E+00  0.00000000E+00  0.00000000E+00
  0.00000000E+00  0.00000000E+00  0.00000000E+00
  0.00000000E+00  0.00000000E+00  0.00000000E+00
  0.00000000E+00  0.00000000E+00  0.00000000E+00
  0.00000000E+00  0.00000000E+00  0.00000000E+00
  0.00000000E+00  0.00000000E+00  0.00000000E+00
  0.00000000E+00  0.00000000E+00  0.00000000E+00
  0.00000000E+00  0.00000000E+00  0.00000000E+00
  0.00000000E+00  0.00000000E+00  0.00000000E+00
  0.00000000E+00  0.00000000E+00  0.00000000E+00
  0.00000000E+00  0.00000000E+00  0.00000000E+00
  0.00000000E+00  0.00000000E+00  0.00000000E+00
  0.00000000E+00  0.00000000E+00  0.00000000E+00
  0.00000000E+00  0.00000000E+00  0.00000000E+00
  0.00000000E+00  0.00000000E+00  0.00000000E+00
  0.00000000E+00  0.00000000E+00  0.00000000E+00
  0.00000000E+00  0.00000000E+00  0.00000000E+00
  0.00000000E+00  0.00000000E+00  0.00000000E+00
  0.00000000E+00  0.00000000E+00  0.00000000E+00
  0.00000000E+00  0.00000000E+00  0.00000000E+00
  0.00000000E+00  0.00000000E+00  0.00000000E+00
  0.00000000E+00  0.00000000E+00  0.00000000E+00
  0.00000000E+00  0.00000000E+00  0.00000000E+00
  0.00000000E+00  0.00000000E+00  0.00000000E+00
  0.00000000E+00  0.00000000E+00  0.00000000E+00
  0.00000000E+00  0.00000000E+00  0.00000000E+00
  0.00000000E+00  0.00000000E+00  0.00000000E+00
  0.00000000E+00  0.00000000E+00  0.00000000E+00
  0.00000000E+00  0.00000000E+00  0.00000000E+00
  0.00000000E+00  0.00000000E+00  0.00000000E+00
  0.00000000E+00  0.00000000E+00  0.00000000E+00
  0.00000000E+00  0.00000000E+00  0.00000000E+00
  0.00000000E+00  0.00000000E+00  0.00000000E+00
  0.00000000E+00  0.00000000E+00  0.00000000E+00
  0.00000000E+00  0.00000000E+00  0.00000000E+00
  0.00000000E+00  0.00000000E+00  0.00000000E+00
  0.00000000E+00  0.00000000E+00  0.00000000E+00
  0.00000000E+00  0.00000000E+00  0.00000000E+00
  0.00000000E+00  0.00000000E+00  0.00000000E+00
  0.00000000E+00  0.00000000E+00  0.00000000E+00
  0.00000000E+00  0.00000000E+00  0.00000000E+00
  0.00000000E+00  0.00000000E+00  0.00000000E+00
  0.00000000E+00  0.00000000E+00  0.00000000E+00
  0.00000000E+00  0.00000000E+00  0.00000000E+00
  0.00000000E+00  0.00000000E+00  0.00000000E+00
  0.00000000E+00  0.00000000E+00  0.00000000E+00
  0.00000000E+00  0.00000000E+00  0.00000000E+00
  0.00000000E+00  0.00000000E+00  0.00000000E+00
  0.00000000E+00  0.00000000E+00  0.00000000E+00
  0.00000000E+00  0.00000000E+00  0.00000000E+00
  0.00000000E+00  0.00000000E+00  0.00000000E+00
  0.00000000E+00  0.00000000E+00  0.00000000E+00
  0.00000000E+00  0.00000000E+00  0.00000000E+00
  0.00000000E+00  0.00000000E+00  0.00000000E+00
  0.00000000E+00  0.00000000E+00  0.00000000E+00
  0.00000000E+00  0.00000000E+00  0.00000000E+00
  0.00000000E+00  0.00000000E+00  0.00000000E+00
  0.00000000E+00  0.00000000E+00  0.00000000E+00
  0.00000000E+00  0.00000000E+00  0.00000000E+00
  0.00000000E+00  0.00000000E+00  0.00000000E+00
  0.00000000E+00  0.00000000E+00  0.00000000E+00
  0.00000000E+00  0.00000000E+00  0.00000000E+00
  0.00000000E+00  0.00000000E+00  0.00000000E+00
  0.00000000E+00  0.00000000E+00  0.00000000E+00
  0.00000000E+00  0.00000000E+00  0.00000000E+00
  0.00000000E+00  0.00000000E+00  0.00000000E+00
  0.00000000E+00  0.00000000E+00  0.00000000E+00
  0.00000000E+00  0.00000000E+00  0.00000000E+00
  0.00000000E+00  0.00000000E+00  0.00000000E+00
  0.00000000E+00  0.00000000E+00  0.00000000E+00
  0.00000000E+00  0.00000000E+00  0.00000000E+00
  0.00000000E+00  0.00000000E+00  0.00000000E+00
  0.00000000E+00  0.00000000E+00  0.00000000E+00
  0.00000000E+00  0.00000000E+00  0.00000000E+00
  0.00000000E+00  0.00000000E+00  0.00000000E+00
  0.00000000E+00  0.00000000E+00  0.00000000E+00
  0.00000000E+00  0.00000000E+00  0.00000000E+00
  0.00000000E+00  0.00000000E+00  0.00000000E+00
  0.00000000E+00  0.00000000E+00  0.00000000E+00
  0.00000000E+00  0.00000000E+00  0.00000000E+00
  0.00000000E+00  0.00000000E+00  0.00000000E+00
  0.00000000E+00  0.00000000E+00  0.00000000E+00
  0.00000000E+00  0.00000000E+00  0.00000000E+00
  0.00000000E+00  0.00000000E+00  0.00000000E+00
  0.00000000E+00  0.00000000E+00  0.00000000E+00
  0.00000000E+00  0.00000000E+00  0.00000000E+00
  0.00000000E+00  0.00000000E+00  0.00000000E+00
  0.00000000E+00  0.00000000E+00  0.00000000E+00
  0.00000000E+00  0.00000000E+00  0.00000000E+00
  0.00000000E+00  0.00000000E+00  0.00000000E+00
  0.00000000E+00  0.00000000E+00  0.00000000E+00
  0.00000000E+00  0.00000000E+00  0.00000000E+00
  0.00000000E+00  0.00000000E+00  0.00000000E+00
  0.00000000E+00  0.00000000E+00  0.00000000E+00
  0.00000000E+00  0.00000000E+00  0.00000000E+00
  0.00000000E+00  0.00000000E+00  0.00000000E+00
  0.00000000E+00  0.00000000E+00  0.00000000E+00
  0.00000000E+00  0.00000000E+00  0.00000000E+00
  0.00000000E+00  0.00000000E+00  0.00000000E+00
  0.00000000E+00  0.00000000E+00  0.00000000E+00
  0.00000000E+00  0.00000000E+00  0.00000000E+00
  0.00000000E+00  0.00000000E+00  0.00000000E+00
  0.00000000E+00  0.00000000E+00  0.00000000E+00
  0.00000000E+00  0.00000000E+00  0.00000000E+00
  0.00000000E+00  0.00000000E+00  0.00000000E+00
  0.00000000E+00  0.00000000E+00  0.00000000E+00
  0.00000000E+00  0.00000000E+00  0.00000000E+00
  0.00000000E+00  0.00000000E+00  0.00000000E+00
  0.00000000E+00  0.00000000E+00  0.00000000E+00
  0.00000000E+00  0.00000000E+00  0.00000000E+00
  0.00000000E+00  0.00000000E+00  0.00000000E+00
  0.00000000E+00  0.00000000E+00  0.00000000E+00
  0.00000000E+00  0.00000000E+00  0.00000000E+00
  0.00000000E+00  0.00000000E+00  0.00000000E+00
  0.00000000E+00  0.00000000E+00  0.00000000E+00
  0.00000000E+00  0.00000000E+00  0.00000000E+00
  0.00000000E+00  0.00000000E+00  0.00000000E+00
  0.00000000E+00  0.00000000E+00  0.00000000E+00
  0.00000000E+00  0.00000000E+00  0.00000000E+00
  0.00000000E+00  0.00000000E+00  0.00000000E+00
  0.00000000E+00  0.00000000E+00  0.00000000E+00
  0.00000000E+00  0.00000000E+00  0.00000000E+00
  0.00000000E+00  0.00000000E+00  0.00000000E+00
  0.00000000E+00  0.00000000E+00  0.00000000E+00
  0.00000000E+00  0.00000000E+00  0.00000000E+00
  0.00000000E+00  0.00000000E+00  0.00000000E+00
  0.00000000E+00  0.00000000E+00  0.00000000E+00
  0.00000000E+00  0.00000000E+00  0.00000000E+00
  0.00000000E+00  0.00000000E+00  0.00000000E+00
  0.00000000E+00  0.00000000E+00  0.00000000E+00
  0.00000000E+00  0.00000000E+00  0.00000000E+00
  0.00000000E+00  0.00000000E+00  0.00000000E+00
  0.00000000E+00  0.00000000E+00  0.00000000E+00
  0.00000000E+00  0.00000000E+00  0.00000000E+00
  0.00000000E+00  0.00000000E+00  0.00000000E+00
  0.00000000E+00  0.00000000E+00  0.00000000E+00
  0.00000000E+00  0.00000000E+00  0.00000000E+00
  0.00000000E+00  0.00000000E+00  0.00000000E+00
  0.00000000E+00  0.00000000E+00  0.00000000E+00
  0.00000000E+00  0.00000000E+00  0.00000000E+00
  0.00000000E+00  0.00000000E+00  0.00000000E+00
  0.00000000E+00  0.00000000E+00  0.00000000E+00
  0.00000000E+00  0.00000000E+00  0.00000000E+00
  0.00000000E+00  0.00000000E+00  0.00000000E+00
  0.00000000E+00  0.00000000E+00  0.00000000E+00
  0.00000000E+00  0.00000000E+00  0.00000000E+00
  0.00000000E+00  0.00000000E+00  0.00000000E+00
  0.00000000E+00  0.00000000E+00  0.00000000E+00
  0.00000000E+00  0.00000000E+00  0.00000000E+00
  0.00000000E+00  0.00000000E+00  0.00000000E+00
  0.00000000E+00  0.00000000E+00  0.00000000E+00
  0.00000000E+00  0.00000000E+00  0.00000000E+00
  0.00000000E+00  0.00000000E+00  0.00000000E+00
  0.00000000E+00  0.00000000E+00  0.00000000E+00
  0.00000000E+00  0.00000000E+00  0.00000000E+00
  0.00000000E+00  0.00000000E+00  0.00000000E+00
  0.00000000E+00  0.00000000E+00  0.00000000E+00
  0.00000000E+00  0.00000000E+00  0.00000000E+00
  0.00000000E+00  0.00000000E+00  0.00000000E+00
  0.00000000E+00  0.00000000E+00  0.00000000E+00
  0.00000000E+00  0.00000000E+00  0.00000000E+00
  0.00000000E+00  0.00000000E+00  0.00000000E+00
  0.00000000E+00  0.00000000E+00  0.00000000E+00
  0.00000000E+00  0.00000000E+00  0.00000000E+00
  0.00000000E+00  0.00000000E+00  0.00000000E+00
  0.00000000E+00  0.00000000E+00  0.00000000E+00
  0.00000000E+00  0.00000000E+00  0.00000000E+00
  0.00000000E+00  0.00000000E+00  0.00000000E+00
  0.00000000E+00  0.00000000E+00  0.00000000E+00
  0.00000000E+00  0.00000000E+00  0.00000000E+00
  0.00000000E+00  0.00000000E+00  0.00000000E+00
  0.00000000E+00  0.00000000E+00  0.00000000E+00
  0.00000000E+00  0.00000000E+00  0.00000000E+00
  0.00000000E+00  0.00000000E+00  0.00000000E+00
  0.00000000E+00  0.00000000E+00  0.00000000E+00
  0.00000000E+00  0.00000000E+00  0.00000000E+00
  0.00000000E+00  0.00000000E+00  0.00000000E+00
  0.00000000E+00  0.00000000E+00  0.00000000E+00
  0.00000000E+00  0.00000000E+00  0.00000000E+00
  0.00000000E+00  0.00000000E+00  0.00000000E+00
  0.00000000E+00  0.00000000E+00  0.00000000E+00
  0.00000000E+00  0.00000000E+00  0.00000000E+00
  0.00000000E+00  0.00000000E+00  0.00000000E+00
  0.00000000E+00  0.00000000E+00  0.00000000E+00
  0.00000000E+00  0.00000000E+00  0.00000000E+00
  0.00000000E+00  0.00000000E+00  0.00000000E+00
  0.00000000E+00  0.00000000E+00  0.00000000E+00
  0.00000000E+00  0.00000000E+00  0.00000000E+00
  0.00000000E+00  0.00000000E+00  0.00000000E+00
  0.00000000E+00  0.00000000E+00  0.00000000E+00
  0.00000000E+00  0.00000000E+00  0.00000000E+00
  0.00000000E+00  0.00000000E+00  0.00000000E+00
  0.00000000E+00  0.00000000E+00  0.00000000E+00
  0.00000000E+00  0.00000000E+00  0.00000000E+00
  0.00000000E+00  0.00000000E+00  0.00000000E+00
  0.00000000E+00  0.00000000E+00  0.00000000E+00
  0.00000000E+00  0.00000000E+00  0.00000000E+00
  0.00000000E+00  0.00000000E+00  0.00000000E+00
  0.00000000E+00  0.00000000E+00  0.00000000E+00
  0.00000000E+00  0.00000000E+00  0.00000000E+00
  0.00000000E+00  0.00000000E+00  0.00000000E+00
  0.00000000E+00  0.00000000E+00  0.00000000E+00
  0.00000000E+00  0.00000000E+00  0.00000000E+00
  0.00000000E+00  0.00000000E+00  0.00000000E+00
  0.00000000E+00  0.00000000E+00  0.00000000E+00
  0.00000000E+00  0.00000000E+00  0.00000000E+00
  0.00000000E+00  0.00000000E+00  0.00000000E+00
  0.00000000E+00  0.00000000E+00  0.00000000E+00
  0.00000000E+00  0.00000000E+00  0.00000000E+00
  0.00000000E+00  0.00000000E+00  0.00000000E+00
  0.00000000E+00  0.00000000E+00  0.00000000E+00
  0.00000000E+00  0.00000000E+00  0.00000000E+00
  0.00000000E+00  0.00000000E+00  0.00000000E+00
  0.00000000E+00  0.00000000E+00  0.00000000E+00
  0.00000000E+00  0.00000000E+00  0.00000000E+00
  0.00000000E+00  0.00000000E+00  0.00000000E+00
  0.00000000E+00  0.00000000E+00  0.00000000E+00
  0.00000000E+00  0.00000000E+00  0.00000000E+00
  0.00000000E+00  0.00000000E+00  0.00000000E+00
  0.00000000E+00  0.00000000E+00  0.00000000E+00
  0.00000000E+00  0.00000000E+00  0.00000000E+00
  0.00000000E+00  0.00000000E+00  0.00000000E+00
  0.00000000E+00  0.00000000E+00  0.00000000E+00
  0.00000000E+00  0.00000000E+00  0.00000000E+00
  0.00000000E+00  0.00000000E+00  0.00000000E+00
  0.00000000E+00  0.00000000E+00  0.00000000E+00
  0.00000000E+00  0.00000000E+00  0.00000000E+00
  0.00000000E+00  0.00000000E+00  0.00000000E+00
  0.00000000E+00  0.00000000E+00  0.00000000E+00
  0.00000000E+00  0.00000000E+00  0.00000000E+00
  0.00000000E+00  0.00000000E+00  0.00000000E+00
  0.00000000E+00  0.00000000E+00  0.00000000E+00
  0.00000000E+00  0.00000000E+00  0.00000000E+00
  0.00000000E+00  0.00000000E+00  0.00000000E+00
  0.00000000E+00  0.00000000E+00  0.00000000E+00
  0.00000000E+00  0.00000000E+00  0.00000000E+00
  0.00000000E+00  0.00000000E+00  0.00000000E+00
  0.00000000E+00  0.00000000E+00  0.00000000E+00
  0.00000000E+00  0.00000000E+00  0.00000000E+00
  0.00000000E+00  0.00000000E+00  0.00000000E+00
  0.00000000E+00  0.00000000E+00  0.00000000E+00
  0.00000000E+00  0.00000000E+00  0.00000000E+00
  0.00000000E+00  0.00000000E+00  0.00000000E+00
  0.00000000E+00  0.00000000E+00  0.00000000E+00
  0.00000000E+00  0.00000000E+00  0.00000000E+00
  0.00000000E+00  0.00000000E+00  0.00000000E+00
  0.00000000E+00  0.00000000E+00  0.00000000E+00
  0.00000000E+00  0.00000000E+00  0.00000000E+00
  0.00000000E+00  0.00000000E+00  0.00000000E+00
  0.00000000E+00  0.00000000E+00  0.00000000E+00
  0.00000000E+00  0.00000000E+00  0.00000000E+00
  0.00000000E+00  0.00000000E+00  0.00000000E+00
  0.00000000E+00  0.00000000E+00  0.00000000E+00
  0.00000000E+00  0.00000000E+00  0.00000000E+00
  0.00000000E+00  0.00000000E+00  0.00000000E+00
  0.00000000E+00  0.00000000E+00  0.00000000E+00
  0.00000000E+00  0.00000000E+00  0.00000000E+00
  0.00000000E+00  0.00000000E+00  0.00000000E+00
  0.00000000E+00  0.00000000E+00  0.00000000E+00
  0.00000000E+00  0.00000000E+00  0.00000000E+00
  0.00000000E+00  0.00000000E+00  0.00000000E+00
  0.00000000E+00  0.00000000E+00  0.00000000E+00
  0.00000000E+00  0.00000000E+00  0.00000000E+00
  0.00000000E+00  0.00000000E+00  0.00000000E+00
  0.00000000E+00  0.00000000E+00  0.00000000E+00
  0.00000000E+00  0.00000000E+00  0.00000000E+00
  0.00000000E+00  0.00000000E+00  0.00000000E+00
  0.00000000E+00  0.00000000E+00  0.00000000E+00
  0.00000000E+00  0.00000000E+00  0.00000000E+00
  0.00000000E+00  0.00000000E+00  0.00000000E+00
  0.00000000E+00  0.00000000E+00  0.00000000E+00
  0.00000000E+00  0.00000000E+00  0.00000000E+00
  0.00000000E+00  0.00000000E+00  0.00000000E+00
  0.00000000E+00  0.00000000E+00  0.00000000E+00
  0.00000000E+00  0.00000000E+00  0.00000000E+00
  0.00000000E+00  0.00000000E+00  0.00000000E+00
  0.00000000E+00  0.00000000E+00  0.00000000E+00
  0.00000000E+00  0.00000000E+00  0.00000000E+00
  0.00000000E+00  0.00000000E+00  0.00000000E+00
  0.00000000E+00  0.00000000E+00  0.00000000E+00
  0.00000000E+00  0.00000000E+00  0.00000000E+00
  0.00000000E+00  0.00000000E+00  0.00000000E+00
  0.00000000E+00  0.00000000E+00  0.00000000E+00
  0.00000000E+00  0.00000000E+00  0.00000000E+00
  0.00000000E+00  0.00000000E+00  0.00000000E+00
  0.00000000E+00  0.00000000E+00  0.00000000E+00
  0.00000000E+00  0.00000000E+00  0.00000000E+00
  0.00000000E+00  0.00000000E+00  0.00000000E+00
  0.00000000E+00  0.00000000E+00  0.00000000E+00
  0.00000000E+00  0.00000000E+00  0.00000000E+00
  0.00000000E+00  0.00000000E+00  0.00000000E+00
  0.00000000E+00  0.00000000E+00  0.00000000E+00
  0.00000000E+00  0.00000000E+00  0.00000000E+00
  0.00000000E+00  0.00000000E+00  0.00000000E+00
  0.00000000E+00  0.00000000E+00  0.00000000E+00
  0.00000000E+00  0.00000000E+00  0.00000000E+00
  0.00000000E+00  0.00000000E+00  0.00000000E+00
  0.00000000E+00  0.00000000E+00  0.00000000E+00
  0.00000000E+00  0.00000000E+00  0.00000000E+00
  0.00000000E+00  0.00000000E+00  0.00000000E+00
  0.00000000E+00  0.00000000E+00  0.00000000E+00
  0.00000000E+00  0.00000000E+00  0.00000000E+00
  0.00000000E+00  0.00000000E+00  0.00000000E+00
  0.00000000E+00  0.00000000E+00  0.00000000E+00
  0.00000000E+00  0.00000000E+00  0.00000000E+00
  0.00000000E+00  0.00000000E+00  0.00000000E+00
  0.00000000E+00  0.00000000E+00  0.00000000E+00
  0.00000000E+00  0.00000000E+00  0.00000000E+00
  0.00000000E+00  0.00000000E+00  0.00000000E+00
  0.00000000E+00  0.00000000E+00  0.00000000E+00
  0.00000000E+00  0.00000000E+00  0.00000000E+00
  0.00000000E+00  0.00000000E+00  0.00000000E+00
  0.00000000E+00  0.00000000E+00  0.00000000E+00
  0.00000000E+00  0.00000000E+00  0.00000000E+00
  0.00000000E+00  0.00000000E+00  0.00000000E+00
  0.00000000E+00  0.00000000E+00  0.00000000E+00
  0.00000000E+00  0.00000000E+00  0.00000000E+00
  0.00000000E+00  0.00000000E+00  0.00000000E+00
  0.00000000E+00  0.00000000E+00  0.00000000E+00
  0.00000000E+00  0.00000000E+00  0.00000000E+00
  0.00000000E+00  0.00000000E+00  0.00000000E+00
  0.00000000E+00  0.00000000E+00  0.00000000E+00
  0.00000000E+00  0.00000000E+00  0.00000000E+00
  0.00000000E+00  0.00000000E+00  0.00000000E+00
  0.00000000E+00  0.00000000E+00  0.00000000E+00
  0.00000000E+00  0.00000000E+00  0.00000000E+00
  0.00000000E+00  0.00000000E+00  0.00000000E+00
  0.00000000E+00  0.00000000E+00  0.00000000E+00
  0.00000000E+00  0.00000000E+00  0.00000000E+00
  0.00000000E+00  0.00000000E+00  0.00000000E+00
  0.00000000E+00  0.00000000E+00  0.00000000E+00
  0.00000000E+00  0.00000000E+00  0.00000000E+00
  0.00000000E+00  0.00000000E+00  0.00000000E+00
  0.00000000E+00  0.00000000E+00  0.00000000E+00
  0.00000000E+00  0.00000000E+00  0.00000000E+00
  0.00000000E+00  0.00000000E+00  0.00000000E+00
  0.00000000E+00  0.00000000E+00  0.00000000E+00
  0.00000000E+00  0.00000000E+00  0.00000000E+00
  0.00000000E+00  0.00000000E+00  0.00000000E+00
  0.00000000E+00  0.00000000E+00  0.00000000E+00
  0.00000000E+00  0.00000000E+00  0.00000000E+00
  0.00000000E+00  0.00000000E+00  0.00000000E+00
  0.00000000E+00  0.00000000E+00  0.00000000E+00
  0.00000000E+00  0.00000000E+00  0.00000000E+00
  0.00000000E+00  0.00000000E+00  0.00000000E+00
  0.00000000E+00  0.00000000E+00  0.00000000E+00
  0.00000000E+00  0.00000000E+00  0.00000000E+00
  0.00000000E+00  0.00000000E+00  0.00000000E+00
  0.00000000E+00  0.00000000E+00  0.00000000E+00
  0.00000000E+00  0.00000000E+00  0.00000000E+00
  0.00000000E+00  0.00000000E+00  0.00000000E+00
  0.00000000E+00  0.00000000E+00  0.00000000E+00
  0.00000000E+00  0.00000000E+00  0.00000000E+00
  0.00000000E+00  0.00000000E+00  0.00000000E+00
  0.00000000E+00  0.00000000E+00  0.00000000E+00
  0.00000000E+00  0.00000000E+00  0.00000000E+00
  0.00000000E+00  0.00000000E+00  0.00000000E+00
  0.00000000E+00  0.00000000E+00  0.00000000E+00
  0.00000000E+00  0.00000000E+00  0.00000000E+00
  0.00000000E+00  0.00000000E+00  0.00000000E+00
  0.00000000E+00  0.00000000E+00  0.00000000E+00
  0.00000000E+00  0.00000000E+00  0.00000000E+00
  0.00000000E+00  0.00000000E+00  0.00000000E+00
  0.00000000E+00  0.00000000E+00  0.00000000E+00
  0.00000000E+00  0.00000000E+00  0.00000000E+00
  0.00000000E+00  0.00000000E+00  0.00000000E+00
