POSCAR file converted from LAMMPS data  
   1.00000000000000     
    13.4507433021160274    4.5598346770422342   -1.3688470002498723
    -0.0000000000818505   11.6844910590589226    0.8235475482088611
     0.0000000000309513   -0.0000000000071304   14.0381305968178296
   C    H 
    68   138
Direct
  0.4095775080916162  0.2853188720178771  0.6015424307615547
  0.3375875630600580  0.3750599573389969  0.6496045507334185
  0.2902254560859092  0.3408069348145552  0.7374818620179955
  0.2549498173109364  0.2240877061443102  0.7428441861832547
  0.1559697164001929  0.2342324621576601  0.6822174846925788
  0.1805072869263932  0.1969058491466241  0.5769347222942094
  1.1002907228466048  0.1860190676070397  0.5019007871274482
  1.1352060709133374  0.1468350376536114  0.3997489445771474
  1.0581043125083271  0.2085385840303599  0.3126698513695686
  1.0923419502069875  0.1951278214510191  0.2184745956898172
  1.1570632074439771  0.2687862644708115  1.2031500360413119
  1.1842484991348536  0.2763384091978990  1.1016940800516835
  1.0887301999088250  0.3402320900388749  1.0227365665939836
  1.0334561880998216  0.4710901675063276  1.0374905437000905
  0.9527749309675242  0.5263044246580563  0.9543819886590431
  0.9094470960051092  0.4446488923695505  0.9032125875581701
  0.8181180468366055  0.4998765004775612  0.8228070544347765
  0.7873967197763149  0.4169078124611020  0.7541665217539694
  0.7121507451069073  0.5006754287640897  0.6794907679788169
  0.6225097697114923  0.5830615699532835  0.7202034796216487
  0.5692122363339875  0.5130803957344400  0.7833997483111674
  0.4662664455194512  0.5818625069464779  0.8062566404974713
  0.4334931712839755  0.7075885407291922  0.8455982768837547
  0.3261225738984960  0.7864419579466523  0.7967851937093984
  0.3144306597325610  0.8189355235630822  0.6841743889752695
  0.2017541787251734  0.8782418108785929  0.6464292057401870
  0.1481354322160632  0.7852012312059199  0.6641788138433803
  1.1645565566644833  0.6662970738664246  0.6094653480367414
  1.1726755088605278  0.7035325703345177  0.5028059387710718
  1.1937743699691616  0.6109464224298469  0.4357841494183258
  1.1470895480184473  0.6523416023153570  0.3338450923668208
  1.1969816482636715  0.7406812512547027  0.2846564622869393
  0.2084121716203284  0.7539107250624572  0.1768838221022521
  0.2618718460863256  0.6259601563954877  0.1403520667401220
  0.3275284340114041  0.5264081603236613  0.2124094653485132
  0.4235464104720419  0.4379537623729957  0.1794999041778145
  0.5041307692367348  0.3623542254386158  0.2710100676080148
  0.5487033244717217  0.4450769492271382  0.3271092276055124
  0.5989082223672126  0.5286993315700564  1.2785754324604168
  0.6840650247680817  0.4678914916193580  1.2208705014837913
  0.7852610456169543  0.4251759765326785  1.2734573859407379
  0.8183097486790623  0.5281925807794383  1.3179549706840077
  0.8065067461967227  0.6504630600057009  1.2575707689359943
  0.8076624471071439  0.6478380106965956  1.1457759566065486
  0.7751442436150907  0.7707731300553229  1.0892797052654684
  0.8231830564775763 -0.1353757614512460  1.1284275648110964
  0.8291745780936421 -0.0246756196235290  1.0601445287203519
  0.8372636425736772  0.0830163110927458  1.1141738252875397
  0.7931101902220904  0.0960410823140431  0.2096415721606215
  0.8576401517568708  0.0330130803773130  0.3018381240946121
  0.8309971014984133  0.0923751203399967  0.3943137176586627
  0.8679680028074318  0.0231175225790783  0.4941732937706009
  0.8335800703613163  0.0990703539767800  0.5735323849574003
  0.8807253880356601  0.0043207056434422  0.6616052576536161
  0.8059552386889579  0.0309316970996272  0.7510718527139763
  0.7318228550828252 -0.0454515956851987  0.7560839917698886
  0.6512883739286963  0.9810850953384693  0.6771976207995842
  0.5750754687577877  0.9068688133228171  0.6776370862603652
  0.5117320579886304  0.9400362365535054  0.5744783601336082
  0.5771617054081566  0.8899334153486828  0.4950634362658356
  0.5197612663979797  0.8632317834020840  0.4070802794432858
  0.4200354494206663  0.9630426419447877  0.3654168052004348
  0.3770090680345439  0.9576442777713430  0.2640137386232673
  0.4202014127871068  1.0176463119855987  0.1804775831217598
  0.3747840956795940  0.0208497099060799  1.0822994217329500
  0.4040003780359577  0.1049009298406439  1.0194780427488319
  0.4819703641459488  0.3325953645463441  0.5451016059519045
  0.5235539116198457  0.0565143822663606  1.0109793140097898
  0.3629582543838739  1.2551013614106761  0.5466054680959741
  0.4465472705457573  0.2039457910950597  0.6521409864214384
  0.3715135820464968  0.4358397626787050  0.6790469750795078
  0.2752586099621719  0.4339094657695737  0.5888950601126696
  0.3541015822481476  0.2999807925897800  0.7902884779573892
  0.2311590014152644  0.4321547274212341  0.7412195642334053
  0.3100607705339096  0.1379700801269742  0.7197696242109145
  0.2371472417909812  1.2084744307367550  0.8172269719359136
  0.1209904758588853  1.1735728429608698  0.7136752861629219
  1.1120333093829189  0.3261239769861066  0.6835931812416493
  0.2258137830657240  0.1088195448414141  0.5941552790802345
  0.2257887963773642  0.2495411982942850  0.5553816699961432
  1.0647755794194578  0.1192086673716210  0.5347472524166700
  1.0526233448277111  0.2731452331655262  0.4778297145066311
  1.1545901171102653  0.0492645384685012  0.3962420985836772
  1.2098902893368930  0.1669159656223209  0.3981332099938369
  0.9853360756795547  0.1886989133905203  0.3143163514976987
  1.0306647743217334  0.3058988707640590  0.3182698786588761
  1.0276969061578722  0.2111922733661732  0.1669974712754561
  1.1470962699452545  0.1004992042727747  0.2189465571842063
  1.1222201170870969  0.3562218764488353  1.2225119202898487
  1.2185437068142184  0.2377185978694245  0.2617968415842845
  1.2071612861047547  0.1871491662635112  1.0823198606698032
  1.2505160819523562  0.3036063662434428  1.1026221024387490
  1.0377740600464995  0.2854687856408983  1.0318198889067693
  0.1099899768132776  0.3336699107578060  0.9435450627591098
  1.0110107465631903  0.4686967631961181  1.1047414556768125
  1.0794381184906909  0.5273697524175078  1.0455230305473644
  0.9831906905575041  0.5699424946898999  0.8971154405212858
  0.9019831370536355  0.6086549561175573  0.9752817833617858
  0.9642661671495398  0.3774316240493926  0.8664189210544093
  0.8828601840135393  0.3880576015707927  0.9527198211672607
  0.7534195315137662  0.5406475152245263  0.8614297013934565
  0.8389579728337964  0.5669845536093753  0.7825240853508592
  0.7503922203145806  0.3537996011645225  0.7976824115697635
  0.8530761514347093  0.3664267586295628  0.7189143461636002
  0.7449751843602859  0.5528500943843706  0.6328711307363786
  0.6819974027978174  0.4410915833491136  0.6303490773971951
  0.6513824594350737  0.6516381879778734  0.7479210837625856
  0.5697868805013957  0.6311059468269894  0.6573410031008382
  0.6130425435670880  0.4611408908434942  0.8534310093250858
  0.5621362734309668  0.4384076582690357  0.7452471371034656
  0.4152298935466161  0.5881952174167627  0.7396722348904733
  0.4389039139679062  0.5212122866037037  0.8537686229003936
  0.4766557835275721  0.7642996566882124  0.8267875171585081
  0.4326434871378830  0.6988690311163148  0.9289750815957447
  0.2961898908630567  0.8718637924049109  0.8370632709234994
  0.2843814106040122  0.7254700977891202  0.8194153487175978
  0.3528278638919924  0.8789688252220190  0.6611805838490069
  0.3345904379883872  0.7326859329099626  0.6615310856205147
  0.2012476365049059  0.9040456185296682  0.5719090458773580
  0.1517147614064513  0.9644869856870311  0.6670219853507591
  0.0714765315677733  0.8321292120095585  0.6320608280922759
  0.1509248850086086  0.7467004276142138  0.7390572144259792
  1.2375347080422126  0.5994988308152831  0.6391187847985691
  1.1109869923495728  0.6319075120786014  0.6370188015143345
  1.2266903623431147  0.7563817947291477  0.5003762422669178
  1.1004236320808007  0.7791005489456763  0.4864552620413162
  1.2705080995363567  0.5666417886737697  0.4372232901111361
  1.1548966601870341  0.5523258794992839  0.4580998603814037
  1.1589802116245489  0.5754257156465015  0.2860801494843379
  1.0696407703655142  0.6979724182694195  0.3375966131420664
  1.1521051164356979  0.8333342078899125  0.3022005599141477
  1.2718746710972073  0.7294747984122588  0.3218926572000857
  0.1335314656124196  0.8105132661031705  0.1305505730105157
  0.2495162769830172  0.8254313882357254  0.1619744220425702
  0.3117814947469485  0.6301057909547900  0.0856726417222166
  0.1924071130634410  0.5977056233653116  0.1196851180047479
  0.2738971055065156  0.4819595889891240  0.2379402696701428
  0.3473883420465509  0.5607957913294553  0.2770044780909237
  0.4591630193578660  0.4912307538447781  0.1400922562732150
  0.4127319069714863  0.3679054991146691  0.1359013848118925
  0.5664764017743456  0.2932421918408019  0.2476030905444574
  0.4618792831424660  0.3175082762776394  0.3222438808500225
  0.5941550049202386  0.3939003407834732  0.3905903198548581
  0.4947947310519583  0.5112341625803442  0.3616910709120696
  0.5355446838002564  0.5733329002845496  1.2264840532322021
  0.6017780984668331  0.6033808053551208  0.3237215218469843
  0.6714632111226890  0.3836714481662891  0.1981050463248137
  0.6835379701971235  0.5136133605558035  1.1563544222848545
  0.8305318177798265  0.3836815697201413  1.2221927709614262
  0.7960037531350272  0.3583311803969837  1.3334500163753307
  0.8900369760014749  0.4842647424246942  1.3590152928147035
  0.7711274094377036  0.5598257502103171  1.3756311986343741
  0.7369997888175435  0.7036657003753908  1.2765920188511930
  0.8541457966425456  0.6979312264466896  1.2885803665982520
  0.8830039015886111  0.6021447284444637  1.1283964884555573
  0.7666966656990276  0.5850542422773708  1.1127573057869560
  0.8028722132650364  0.7430754610690150  1.0147419202254437
  0.6947639974960851  0.8108036388371775  1.0813304393491283
  0.8976694920773097 -0.1865201805974173  1.1606202426874568
  0.7879473997446430 -0.0985918411559111  1.1918482828718813
  0.8823921449543261  0.9623258126125108  1.0036790664649413
  0.7543398258654771 -0.0066352673020529  1.0162030511606668
  0.8035484451084545  0.1607589199019993  1.0631095260298211
  0.9143940931515449  0.0761836287600120  0.1420858635138569
  0.7294077747950404  0.0642347367648319  1.2058551906938013
  0.7520743170058013  0.1884915224965697  0.2259686960251213
  0.8456646428499682 -0.0630772867334852  0.3125160671723055
  0.9369157376961541  1.0250312900444045  0.2871132492889956
  0.8562702883912597  0.1681067531144619  0.3962716279831905
  0.7476455112995666  0.1314236569330360  0.3884854691899073
  0.9441840766810747 -0.0269433918018719  0.5125851215661691
  0.8272619733582317 -0.0403964148026830  0.4969447256633056
  0.8595825860744876  0.1751971904680567  0.5893350609788377
  0.7512612769510288  0.1397709343501416  0.5763821396503996
  0.8859799311618296 -0.0882386435431175  0.6554581332739983
  0.9573397677214720  0.0082110236162752  0.6827775678741336
  0.7686740719548375  0.1383475998500076  0.7326149145069808
  0.8529130472766084  1.0237684765728217  0.8237497791382307
  0.7813799324936707 -0.1390627470809888  0.7527559318809998
  0.7028516080928815 -0.0357868075359138  0.8215822236263882
  0.6737737849825362  0.9626072038516454  0.6027003124793199
  0.5995537354503107  1.0791976142039099  0.6850306274219957
  0.5238361469633926  0.9321884243612290  0.7243039266240462
  0.6084135530811087  0.8048082055502283  0.6922211773600553
  0.4503774707020056  0.9147199770096200  0.5671521544208356
  0.4839410159352523  0.0369640542759006  0.5637539921699547
  0.6125448396153611  0.9656474031878534  0.4799629711955353
  0.6437136333415443  0.8224063603424133  0.5238844683158342
  0.5018763879356992  0.7746465248912798  0.4264464301261905
  0.5739285967542542  0.8502216135351619  0.3532579627560766
  0.3724919538985387  0.9726657749547956  0.4245007539495205
  0.4322480446251458  1.0497268546487535  0.3686163677720494
  0.2899818186796115  0.9885871663717051  0.2565907429265073
  0.3994596755595513  0.8572093233017650  0.2612962974956660
  0.5025483792826062  0.9535512157596494  1.2109836492579742
  0.4080099119050312  1.1127507469099143  0.1983397912081283
  0.3889294058110964 -0.0678019341599182  1.0555257690677560
  0.2944081642769554  0.0471771758009109  1.0818520155811946
  0.3744856263089422  0.1132795837645170 -0.0583052376273032
  0.3750624014966207  0.2033016413368077  1.0297113143733927
  0.4501184100063729  1.4029566947163195  0.4813625773822916
  0.5174560675534442  0.3739000360162609  0.6026164727412725
  0.5368464133464068  0.2593896553900806  0.5073283158802759
  0.5426171178321119  0.1148149130975701 -0.0430072097127792
  0.5503614117656459 -0.0374891147146511  0.9999517415086047
  0.5727626198076006  0.0675234192039916  0.0781155184360987
