# Amorphous model                       
    1.000000000000000     
    14.0370276504707228   -6.1804795986263930    4.4877480096775235
     0.0000000002168058   11.3590005624184052    2.3486542699374762
    -0.0000000002794410   -0.0000000001904786   13.2925983499347211
  C               H             
    79   146
Direct
     0.5415812574595751    0.1076904577382650    0.2638744613636600
     0.4347628369326404    0.0521157211697751    0.3250410443284267
     0.0521808637036767    0.1583821650133985    0.5651694713008117
    -0.0187169908719861    0.1506333300123205    0.7708554172561312
    -0.0463287584225582    0.0811943733323945    0.4444766704447848
    -0.1053046819178860    0.1514696988894351    0.4479967566016739
     0.3714230010964997   -0.0628353540561896    0.6566435808036301
    -0.3459156748382073    0.0601704042900464    0.5545884934609527
    -0.0250207379307269    0.1380964437652746    0.6563237268546053
     0.3623385245289522   -0.3898564343187266    1.1481654221316546
     0.2200523992860771    0.8961172399387908    1.2915318418374186
    -0.1360230342300964    0.1848108443387693    0.3686333088433482
     0.1465165131228956    0.0482079871774898    1.1116477981737398
     0.3450496300154944    0.5937248636515745    0.7251597510819205
     0.4167408017733308   -0.6351986784425315    1.1130416776042529
    -0.0301814664459716   -0.5020859155631300    0.8849103398620951
    -0.2553738047327947   -0.3979888113971579    0.0760752931027493
    -0.2737253898998014    0.8323231773945496    0.0239855016701161
     0.0496687329450062    0.1882509304371616    0.4555714491862080
     0.4159856049446214   -0.6813410194389521    0.9451740649270205
     0.5350679066463008   -0.5801575165538936    1.0609860098205166
    -0.2541425061888535    0.7373416937848460    0.0947112589017893
    -0.1222437357804553    0.2684550736181976    0.8656446382142683
    -0.2008850629498138    0.2491997671184329    1.3983243374971390
    -0.0346249928092497    0.3689338175583540    0.8734734058553655
     0.2671010133855536    0.8145752162820529    1.2140233570792553
     0.4239813433918150   -0.0517867489225355    0.5317614507102464
     0.1115671464773900    0.8041237218790283    0.8333193065189468
    -0.0139140716876831    0.4924161354049099    1.0004171981234586
     0.3131317538302364    0.7410428505979979    1.2804318102484824
     0.3656979405519420   -0.6731091876649654    1.0553896394105768
    -0.3620744144917449    0.1209053246129879    0.9591620853985646
    -0.1109281890757379    0.1408478443895448    0.8567033894994242
     0.0255867781804906    0.8257390206673436    0.8236795517385188
     0.4369843596197840    0.0520543581514846    0.6853279483569840
    -0.3049466509121261    0.1552101505437250    0.4477467570422924
    -0.3591431250633556    0.7777858952387154   -0.0108818474862744
     0.4118627175031737    0.0568039806153095    0.4453608975015490
     0.1368681252681209    0.1289934116021308    0.5864548165645895
     0.2376066422469162    0.2440221621528620    0.5085814591586622
    -0.4481101348534851    0.0334174490215720    0.9378861282837861
    -0.0935938994582974    0.0575641792796489    1.1173362689169750
     0.0944042714707362   -0.2581403072829035    0.9618600657916180
     0.0803377567144682    0.1438293838828117    0.9741345602406144
    -0.3597330136312658   -0.1260033323784253    0.4952578449533640
    -0.3703285693896774   -0.4822210613341420    0.3615022779132128
    -0.3931647856230255   -0.4227790047302940    0.4510279570749813
     0.3910353454114181    0.7005157031636483    1.2161541470338264
     0.3747609517296771   -0.6091977281071648    1.2225992113094379
    -0.5020343443567294   -0.6912771507804520    0.7224907163949192
    -0.2768169853412592   -0.1656212221708571    0.7143508892949856
    -0.4244043596207527   -0.4990171481346324    0.5749435741151651
    -0.3733627761170051   -0.0689031564378328    0.5790949063876085
     0.3743608790418915   -0.9086416937523261    0.7722215516069497
    -0.0181593460276678    0.0190809808236229    1.0423725028741067
    -0.4836102852149687   -0.6416410402289938    0.5993220002966918
    -0.0990446600705899   -0.3218119786801041    0.6610581087030216
    -0.5661999989876333   -0.7963195527305673    0.8005942860247924
    -0.1360519122824279   -0.2347038592629492    1.6997844104873114
    -0.4460918499526032   -0.2215389195342389    0.4725344147943126
    -0.4178217148783514   -0.3182030392675899    0.4230487932991474
     0.3956349761992019   -0.8176440196925112    0.9297896614034298
     0.2727914048867152    0.3358857361544637    0.6686709664476106
    -0.2654040085449436   -0.4433219590421162    0.2959888397223597
    -0.3853097173807445   -0.2293861912748564    0.7578346992458520
    -0.1822749745385492    0.3082761589561406    0.8314443447381967
     0.1551318030789249    0.1703783642518396    1.0289852115231550
    -0.2771848947288780   -0.7891205038286212    0.8370711616761159
     0.3099912209035091   -0.5305595566043794    1.2213119512946660
    -0.0661332927165861    0.0960433553281589    1.2084090865704695
    -0.0022487677282063   -0.3835330664061767    1.0286274607412651
    -0.2448965588790242   -0.4781502370254389    0.1783638826063397
     0.3049954914246905    0.5815087949204769    0.6361988631802887
     0.3111426834118005    0.2987903834313263    0.5657701376628472
    -0.1449712084046777    0.1186229949174927    1.2824880155408862
     0.2344247685718441    0.4465740526353277    0.6485881676029037
    -1.0050666711806393   -0.2617004095705137    0.5614588474918663
    -0.4306138039532051   -0.1514467235966978    0.7050885649823678
    -0.2372599801376071   -0.2684323485694335    1.7071562513925034
     0.5269548469998161   -0.9049055481533093    0.8938937574451846
     0.4173833717299424   -0.3737985870126967    1.0754168131063835
    -0.2798813631881869   -0.3560974687088359    1.7839940853108869
    -0.0535376402737732   -0.3517865382100404    1.0093188807860232
    -0.3132272930719457    0.6974225894538103    0.1717585756408446
     0.4143177859741287    0.1133367200818564    0.2736757034858673
     0.0468604337342877   -0.5436387884116421    0.9947686236839109
    -0.0663312885601547   -0.1391195179123516    1.6564266140645152
     0.2098824477649197    0.7636872290128144    1.1854278152523738
    -0.1480839726605226   -0.3756119720560868    1.6289960472220024
     0.4253546515494511   -0.5518431255236131    1.2440808635148506
     0.5635839141480748    0.0948123989131833    0.1807958489841206
     0.3283384974379978   -0.7032863965801595    1.2740118485440488
     0.2710422722212040   -0.5784642145984608    1.1679375227314512
    -0.2133602944544732   -0.1219217019508244    0.9390372994802305
     0.2838713248624405   -0.7324170763888165    1.1152244571758807
     0.1665120592316901    0.4052093556576903    0.7260528073529211
    -0.1362396542992830    0.1635309763345481    0.5304358210868018
     0.2262592141237177    0.1927356205496258    0.9559177095772535
     0.3265127308288300    0.8953162359173950    1.1505137265728200
    -0.4228343085832126    0.7549466705643556    1.0601684351548792
    -0.1630421697055915   -0.0298009001775723    1.1569807869113957
    -0.0325939313966879    0.0331504790493835    1.2494886440719035
    -0.1790696793536061    0.1779129505417458    1.2398943425717985
    -0.2116335693275286    0.0238238540731317    1.3301982415858489
     0.2081989165531618    0.0684954625547257    1.1326477577171619
    -0.2720054121628144    0.9107922899365932    1.0550592900433988
     0.0909924596122242    0.0072971544842129    1.1857442680609727
    -0.0026226278648126    0.1883277227519609    1.1596720067446009
     0.0724328291603871    0.2365617173212037    0.9540413101600819
    -0.0419834131242489   -0.0383241777117347    0.9910052507594427
    -0.1178087462402375    0.1266342521098137    1.0772870858658570
     0.1637976764221887    0.2612691025253974    1.0447418306405984
     0.4336025018669936    0.7866319777430918    1.1452442647025662
     0.1478694150241653   -0.0064858944323349    1.0576086260552977
    -0.0116693568091308   -0.0483188046527563    1.1062484991155208
     0.4447809451170734    0.6858466676238282    1.2423304704842024
     0.1151205918242023    0.1309728787639881    0.8944359657814590
     0.3022199098445568   -0.0516523164542466    0.6757441653478150
     0.4050094979470128   -0.0371212187411389    0.3127642795892119
     0.5747859820953336    0.2101523265693304    0.2550102655521049
     0.4049774119565254   -0.1409056313727581    0.5081063866452746
     0.5733315087180622    0.0504517448358823    0.2989466070221606
     0.4598503233463717    0.1465227969467269    0.4458508112567358
     0.4969137350339218    0.0425719415821223    0.6962053992963687
     0.3676018135112513   -0.1466074306636473    0.7207846354802028
    -0.3610132463482801    0.0832763289790211    0.6345612932737782
    -0.0254844542922646    0.0781491522413134    0.3618747325148767
    -0.2946920004413944    0.4213528366362523    0.2049466016762266
    -0.1864303315042881    0.7934662672600359    0.1087752807513757
     0.3541033831835547    0.8168202160115955    1.3131322662092639
     0.1748083202418563    0.9112620358199398    1.2484386857973584
    -0.3569392922418247    0.6981149949990781   -0.0390777780164694
     0.2666875485720349    0.9932902734475163    1.2790358053251767
    -0.3651664343807031    0.8447064017001270   -0.0805204057882112
     0.2579776171998363    0.6740270721557272    1.3522077371737624
     0.1683323796427608    0.8164000360733796    1.3676984998323161
     0.3404871159985818    0.0600876737792685    0.4834909637371209
     0.3109204477060916   -0.3598920099830270    1.1223761849195155
     0.5447904286220311   -0.5810141009237390    1.1422216790703137
    -0.4255400913093830   -0.2796578944746940    0.8512707019041454
     0.1518598206725500   -0.2861609537225349    0.9579977018405105
     0.0275750713180832   -0.4158416515979053    0.8256255222783192
     0.2802118753423945    0.5470750735099217    0.8081297967674107
    -1.0042324376870000   -0.2595006546787819    1.4749868863899136
    -0.3118924378907425   -0.7418704124506642    0.7960601174056935
    -0.0130544541743884   -0.3949793181130372    1.1147382968748902
     0.3850677468487795    0.6781280862468122    0.7310862103769115
     0.3827038286318378    0.5341467318313876    0.7304170968782168
    -0.2569153620983444   -0.8489707357611100    0.7933348659538821
     0.0983154303291345   -0.1894473525451627    0.9994285592977777
    -0.1672624174816034   -0.5833221815141547    0.8158351426672393
    -0.2200413703580718    0.6503606301956291    0.2917834342477067
     0.1307868112678454    0.1078778815016897    0.6723187856265150
    -0.0278652284910167    0.8048690798073468   -0.0907649273274327
     0.1209878583015927    0.0342540500548542    0.5562450470628907
     0.0316328692285970    0.8928684500906956   -0.2473299665977597
    -0.4819137960079745    0.3830935238326933    0.7598096571454559
    -0.0985720547408864   -0.4909511982614955    0.9002215522162550
     0.3351641458304273    0.3919874131282166    0.6758030765586939
    -0.3106473708825399    0.1486873320968183    0.3673541169318394
     0.3625423352387628    0.6237542416598039    0.5590860085728585
    -0.4474027847028090   -0.6816710300314386    0.5412860394315205
    -0.4035742996266050   -0.5862313480790903    0.3893136584712107
    -0.4042414535235075   -0.2679212842319378    0.3353906763240300
    -0.3293919492858719   -0.1971699811170036    0.5188250703104140
    -0.5093225134341796   -0.6336496255330820    0.9062034089303574
    -0.9585414933957420   -0.3108936772944797    0.5638861797175949
    -0.3080629909076806   -0.0527417955125210    0.4149588867495976
     0.2178495360846552    0.2404331529911925    0.7421766315458762
    -0.5011320166628321   -0.0179624556978405    0.5157340994374291
    -0.4087741342549225   -0.4749489553694157    0.3011055904221310
    -0.5508263825333275   -0.6392997470785766    0.5865188619559485
    -0.4750211636047521   -0.1792511993792041    0.4063695280191211
    -0.6743389687268190   -0.8952931678728440    0.9597320646926530
    -0.3624575281757794   -0.4991381573150746    0.5991948081413777
     0.2143753069722863    0.4446541102398207    0.5759310120454395
     0.3789801330886481    0.3653090154055912    0.5017797865368833
    -0.9603176030773047   -0.1744720607322867    0.5656916659075154
    -0.5048799260460692   -0.2667918885434478    0.5564327656322021
     0.2746980769410725    0.6490387208854443    0.6326621269262245
    -0.0036459437077438    0.0712293058908822    0.8030026159761762
     0.2251706412404850    0.3333411270768691    0.4631616287129463
    -0.0934432871836484    0.1206637812961317    0.9336674084727230
     0.4018091716663592   -0.6147678980718321    0.8817171709025894
     0.3062217827778937   -0.9051634623992461    0.7618647556453266
    -0.3310855818271833   -0.4635121391595453    0.0947735377025991
     0.4246218386013428   -0.8657209426866153    0.9846577431147379
     0.5668899500975288   -0.6162703800066531    0.9967842979890631
    -0.4979834062797485   -0.2148970240658935    0.7085448564445684
    -0.1491440144893145   -0.2382006132827927    0.7879804894644808
     0.5604610406750509   -0.4770983235041102    1.0315486706758918
     0.0406015894571846    0.2529416571492782    0.7507199425236094
    -0.2466503345622663   -0.5202680415926879    0.3392392435788791
    -0.0897379996487596   -0.3775968901575381    0.7356918895419681
    -0.4630792278953682   -0.1039584493819937    0.7583234674321816
    -0.3873407738738366   -0.3116028422255968    0.7216009284663000
    -0.1788793804035381   -0.4916976658700842    0.1631289027405476
    -0.2531938125744989   -0.1024480415988482    0.6247830927823290
    -0.1999006666756721   -0.3763974268043937   -0.0146835336875071
    -0.2437911588993746   -0.0930284873316506    0.7497508402386905
     0.2548882139944790   -0.5587650600655008    1.3052506102009678
     0.3420844988771097   -0.9959645142976458    0.8488860754654919
    -0.2426848731197521   -0.2899623998704197    1.6294609633944253
    -0.1713423499611978    0.3232117064174674    1.3199854311821273
     0.0375260979565760    0.3943921026064559    0.8188382480454699
    -0.0873201091222284    0.1422085810229833    0.6362223726982232
    -0.3350622215410914    0.2230669300679305    0.4707698521598335
    -0.4503867006174809    0.5624350052714597    0.6243658605051755
    -0.5293377029925089    0.1186138260391813    0.6039221292746694
     0.0429539162970317    0.2760485493769371    0.4322191617682744
     0.2843527135533858    0.2216586568158744    0.4389515883576047
     0.1164038127209012    0.1919612166243136    0.3976439397121441
    -0.0770101599608962   -0.0118586052631152    0.5068052098974082
    -0.1940435919101162    0.2886153554197362    1.4650255181412621
     0.3267325564480873    0.2081559129227737    0.5886829505286214
    -0.5183747101299727   -0.0233772066260045    1.0193297308275195
    -0.3421231542956800    0.0565014042742201    1.0052572745387938
    -0.3891391611625773    0.1872583129347604    0.9931653393477418
    -0.4209614733862523   -0.0199409842215842    0.8822204774057121
    -0.0025084715930025    0.7451867822977556    0.7926209993671681
    -0.0320233617585636    0.3198737446864394    0.9546447101260955
     0.1827146150814737    0.8741059854538570    0.7828967037832687
    -0.1657483826896090    0.0518502797710063    0.8584662252633071
     0.1163981572276076    0.7310722726939881   -0.2142416015817478
    -0.0700982695296259    0.4187292959117442    1.0745455389509517
Lattice velocities and vectors
            1
  0.70235844E-03 -0.10898724E-02  0.57899860E-03
  0.79181373E-03 -0.33193157E-03  0.50558786E-03
  0.13355652E-02  0.11376256E-02  0.98088122E-03
  0.14037249E+02 -0.61807944E+01  0.44883322E+01
  0.21679135E-09  0.11358787E+02  0.23492453E+01
 -0.27945115E-09 -0.19047290E-09  0.13292991E+02
 
 -0.23599415E-02  0.10791692E-01  0.72376899E-02
  0.11531364E-02 -0.60785586E-02  0.60085927E-04
 -0.14523972E-01 -0.30224595E-03  0.13227082E-01
 -0.19358274E-02 -0.23618181E-02 -0.10689996E-02
 -0.66736482E-02  0.10696615E-02  0.31159917E-02
  0.11560703E-01 -0.12352971E-01  0.65405495E-03
 -0.19000497E-02 -0.24710017E-02  0.26450263E-02
  0.25806430E-02 -0.68464781E-02 -0.45510553E-02
  0.32335338E-02  0.16149858E-01 -0.13702010E-01
 -0.70117395E-02  0.76606730E-02  0.14939115E-01
 -0.65874826E-02  0.68210049E-02 -0.10785703E-02
  0.16359705E-02 -0.71538736E-02 -0.10125293E-01
  0.69742964E-02  0.62418039E-03 -0.46684351E-02
  0.24950530E-02  0.46447161E-03 -0.93373621E-02
 -0.38664121E-02 -0.67066534E-03 -0.53471762E-02
 -0.44251651E-02 -0.80690839E-02  0.11902468E-02
 -0.32625871E-02  0.96931420E-03 -0.36916859E-02
 -0.12396240E-01  0.55266652E-02 -0.36673219E-02
  0.21431537E-01  0.27260704E-02 -0.54419833E-02
 -0.10830176E-01  0.23740756E-02 -0.28823621E-02
 -0.11176117E-01 -0.13693903E-01 -0.46129872E-02
 -0.31583110E-02  0.97149642E-02  0.81647588E-02
 -0.10458937E-01 -0.15984096E-02 -0.15891796E-02
  0.58237491E-02  0.90869298E-02  0.21416198E-02
 -0.82580612E-02 -0.44676275E-02 -0.26457760E-03
 -0.31792603E-02 -0.28479288E-02 -0.12735999E-02
  0.79493223E-02 -0.73439770E-02 -0.43737652E-03
 -0.18022625E-02 -0.34092554E-02  0.28337476E-02
 -0.11761556E-01 -0.26564398E-02  0.63323839E-02
 -0.10525128E-02 -0.45470385E-02  0.14623253E-02
 -0.11825353E-01 -0.18121027E-02 -0.70056055E-02
 -0.72211773E-02  0.16926677E-01 -0.19808548E-03
 -0.96099297E-02 -0.12284530E-01  0.29787945E-02
 -0.72750737E-04 -0.11915148E-01  0.15985471E-01
  0.53852070E-03  0.78786478E-02 -0.24009183E-02
  0.13718886E-02  0.15538043E-02 -0.96186408E-02
  0.44493208E-02  0.36065460E-02  0.55879800E-03
 -0.12106167E-04  0.73896980E-02  0.57535204E-03
  0.95531902E-02 -0.12811758E-02 -0.32567723E-02
 -0.50988560E-02  0.57998772E-02  0.15115652E-01
 -0.10064563E-01  0.38137082E-02  0.35472660E-02
  0.80238249E-03  0.74879748E-04 -0.50825068E-02
 -0.42414810E-02 -0.38117256E-02  0.48032367E-02
 -0.13867085E-02 -0.57359924E-02 -0.15310511E-01
  0.92190014E-02  0.84887052E-02  0.29666100E-02
  0.68513451E-02 -0.39739118E-02  0.36592211E-02
 -0.96741923E-02 -0.50648307E-02  0.14994265E-02
 -0.67261636E-03  0.37341273E-02 -0.10180789E-01
 -0.60530318E-02 -0.83444776E-02 -0.18086556E-01
 -0.25592271E-02  0.38580988E-02 -0.18594841E-01
  0.22940996E-03  0.34521625E-02 -0.65386553E-02
 -0.18926001E-02 -0.13160800E-01 -0.72353140E-02
 -0.38397487E-02  0.55313862E-02 -0.42647600E-02
  0.45244938E-02 -0.27190462E-02 -0.91267895E-02
  0.77652689E-02 -0.60552128E-02 -0.11973647E-02
 -0.51219989E-02  0.69867294E-02 -0.56773326E-02
 -0.42005362E-02  0.70618425E-02  0.40816646E-02
 -0.30409602E-02 -0.20957405E-02 -0.67480730E-02
 -0.39244999E-02 -0.92989845E-02 -0.58943615E-03
  0.21648885E-02 -0.70041959E-02  0.11007664E-01
  0.13127779E-01 -0.51668295E-02  0.59573721E-03
 -0.59548703E-02  0.13397309E-02 -0.33463740E-02
  0.25153779E-02 -0.20616190E-02 -0.37266899E-02
 -0.55131073E-02  0.25861301E-02  0.14719513E-01
  0.10900187E-01 -0.50804776E-02  0.35527275E-02
 -0.55404500E-02 -0.12483172E-02 -0.45248962E-02
 -0.51980201E-03 -0.49716270E-03  0.72578118E-02
 -0.59280912E-02 -0.13023451E-02  0.29344027E-02
 -0.45982041E-02  0.29054258E-03  0.71980559E-02
  0.40659458E-02  0.20075523E-04 -0.10381861E-01
  0.22495235E-02  0.95798650E-02 -0.21994569E-02
 -0.17099847E-02 -0.31419150E-02  0.68159736E-02
 -0.93979372E-03 -0.48939856E-02 -0.17909434E-02
 -0.89142577E-02 -0.61489126E-02 -0.88924954E-02
 -0.44476150E-03 -0.59703307E-02  0.14257863E-02
  0.57517157E-03 -0.10779008E-02  0.58878097E-02
 -0.19352253E-02  0.10812085E-01  0.10117421E-01
  0.95134718E-02  0.40572083E-02 -0.90685150E-02
 -0.92429791E-03 -0.74642255E-02  0.20309419E-02
 -0.25943458E-01  0.12887123E-01 -0.62238965E-02
  0.21552371E-01  0.11237921E-01 -0.26993650E-02
 -0.49953654E-01 -0.33762443E-01 -0.34882566E-01
 -0.52274882E-02  0.13776233E-01 -0.95214161E-03
 -0.13375080E-02 -0.21010920E-01  0.49835009E-02
 -0.15471215E-01  0.16649522E-01 -0.23065809E-01
  0.31222561E-01 -0.29360170E-01  0.80035721E-02
  0.16911612E-01  0.25273800E-02  0.15271474E-01
 -0.78163875E-02 -0.17739665E-01  0.25488823E-01
 -0.31132064E-02  0.33073436E-02  0.18530433E-01
  0.38770460E-02 -0.80402966E-01  0.19910915E-01
 -0.43829715E-01 -0.21057411E-01 -0.80088198E-02
 -0.21332297E-01 -0.22845767E-01  0.19502428E-01
  0.16100709E-01 -0.55328522E-02  0.39604833E-01
 -0.50341001E-02  0.14488409E-01  0.58804350E-04
 -0.28042125E-01  0.11302324E-01 -0.34976659E-01
  0.32099844E-01 -0.10475220E-01  0.18884539E-01
  0.13998076E-01 -0.79882646E-02  0.29324350E-01
  0.10976786E-02 -0.19806664E-01 -0.27040910E-01
  0.18524195E-01  0.17067179E-01  0.71255957E-02
 -0.91818307E-02  0.29062974E-01  0.38395547E-01
  0.10296343E-02  0.15365748E-01  0.22765049E-01
 -0.37899294E-01  0.52947319E-02 -0.32425594E-02
  0.12703417E-01 -0.52936317E-03 -0.25199270E-01
  0.72230746E-02  0.25339215E-01  0.42669021E-01
  0.24284199E-01 -0.24308893E-02  0.35752181E-01
 -0.41045891E-01  0.44708007E-01 -0.11945683E-01
  0.25685890E-02  0.23645680E-01  0.23578211E-01
 -0.21757631E-01  0.27500366E-01 -0.32410187E-02
  0.28309910E-01  0.19900213E-01 -0.18811974E-01
  0.15766842E-01  0.32217588E-02 -0.29565647E-02
 -0.21857799E-01 -0.14659984E-01 -0.18604761E-01
 -0.67085475E-02  0.26188894E-01 -0.54906491E-01
 -0.52701270E-01  0.10325766E-01 -0.18694915E-01
  0.16244135E-02  0.25157917E-01 -0.11746382E-01
 -0.51676565E-01 -0.14778939E-01 -0.13510456E-01
  0.16682790E-01 -0.12831970E-01  0.69119300E-01
  0.55715282E-02  0.45652254E-01  0.17320744E-01
  0.97558708E-02  0.21634193E-01 -0.40640300E-01
 -0.12736657E-01  0.23693859E-01  0.24904734E-01
  0.17923485E-01  0.58695870E-02  0.17698858E-01
 -0.15730485E-01  0.15356634E-01  0.10499099E-01
  0.68248807E-02 -0.20728330E-01  0.75869229E-02
  0.40480028E-01  0.85689519E-02  0.45664692E-02
 -0.86071771E-02 -0.36037786E-01  0.22708968E-02
 -0.36586741E-01 -0.46897079E-01  0.74752652E-02
  0.33696164E-01  0.54632665E-01  0.12738721E-01
 -0.18286382E-01  0.12644896E-01  0.55794155E-02
 -0.19915463E-01  0.15995262E-01 -0.79969881E-02
  0.67355449E-01 -0.36429313E-02 -0.29629281E-01
 -0.35910350E-01 -0.58285689E-02  0.11737023E-01
  0.15307228E-01  0.13475322E-01  0.31768844E-01
 -0.26910004E-01 -0.51549559E-02  0.54866173E-01
 -0.10213228E-01  0.24179985E-01  0.11745605E-01
 -0.49355162E-01 -0.36624990E-02 -0.31645596E-01
  0.23886913E-01 -0.25656265E-01  0.83169814E-02
 -0.29798544E-01  0.73886562E-02  0.21444829E-01
  0.14188677E-01  0.53957929E-02  0.18215336E-01
  0.38355672E-01 -0.19112711E-01 -0.10192486E-01
 -0.53537915E-01  0.29930151E-01  0.28205782E-01
 -0.23790622E-01 -0.61098853E-03 -0.28388946E-01
 -0.28041261E-01  0.21431758E-01 -0.41375283E-01
  0.63275476E-01 -0.41976102E-01 -0.13436082E-01
 -0.90129597E-02  0.50265625E-02 -0.23790219E-01
  0.28465128E-01 -0.19602042E-01  0.22298584E-01
 -0.39487277E-01  0.82885120E-04 -0.30878278E-01
  0.24033338E-02 -0.49511174E-02  0.94365026E-02
  0.18902502E-02 -0.11570646E-02  0.10742496E-02
  0.27785380E-01 -0.41815469E-02 -0.26969324E-01
 -0.17143595E-01  0.30431062E-01 -0.18853676E-01
 -0.12675345E-01  0.15494373E-01  0.19754885E-01
  0.63144286E-02 -0.41731100E-01 -0.20248036E-01
  0.12371909E-01 -0.28076887E-01  0.12127159E-02
  0.28154013E-01  0.96438089E-02 -0.31190692E-01
 -0.95796421E-05  0.17327864E-01 -0.31673097E-01
  0.52105824E-01 -0.73517170E-02  0.36047739E-01
  0.30902032E-01 -0.45987077E-02 -0.75909997E-02
 -0.18673001E-01  0.23543729E-01  0.30721412E-02
 -0.13392752E-01 -0.44228484E-01 -0.42519901E-01
 -0.48505155E-01  0.13397823E-01  0.34820656E-01
 -0.14841837E-01 -0.70165027E-02 -0.54572411E-01
  0.22678773E-02  0.32074649E-01  0.40940276E-02
 -0.75590591E-02 -0.21133774E-01 -0.49621047E-03
 -0.38593871E-02 -0.25708492E-01 -0.28864476E-01
 -0.28205274E-01  0.28237052E-01 -0.37595096E-02
  0.11287051E-01  0.24701260E-01  0.20475493E-01
  0.23632607E-02  0.38360087E-01 -0.22579942E-01
  0.58457083E-02 -0.12347594E-01  0.25937475E-01
 -0.19924663E-01 -0.36183248E-02  0.20312387E-01
  0.52123888E-01  0.31378625E-01  0.46024910E-01
  0.26576142E-01 -0.48466609E-01 -0.25862278E-01
 -0.25295771E-01  0.34975711E-01 -0.55211451E-03
  0.36655137E-01 -0.23330896E-01  0.49833942E-02
  0.13670940E-01 -0.26713478E-01 -0.47075084E-03
  0.15453217E-01  0.21404128E-01  0.16730862E-01
 -0.35835975E-02  0.13520547E-01 -0.29535766E-01
 -0.40623091E-01  0.12735135E-01 -0.10186493E-01
  0.37154980E-01 -0.47807252E-02 -0.22554465E-01
  0.21507981E-01  0.14557459E-01 -0.22700807E-02
 -0.10492929E-01  0.79869708E-02  0.71016465E-03
  0.65660808E-02 -0.17350485E-01  0.10385424E-01
  0.43438132E-01 -0.23996812E-01 -0.12125219E-01
  0.18623767E-01  0.22894778E-01 -0.16154809E-01
 -0.18318094E-01 -0.14339863E-01 -0.28424840E-01
  0.70124221E-02 -0.60461953E-02  0.16210308E-01
  0.10191877E-01  0.89959160E-02 -0.48008313E-03
  0.43704933E-01 -0.42029658E-01 -0.76410836E-02
 -0.33375817E-01 -0.28573599E-01 -0.56292251E-02
  0.17160179E-01 -0.94861722E-02 -0.99586822E-02
 -0.16373774E-01  0.22146402E-02  0.49495901E-01
 -0.37720144E-01 -0.63224278E-02  0.11450141E-01
 -0.84182627E-02  0.32092726E-01  0.59796611E-01
 -0.66798500E-02  0.25286599E-01  0.28904193E-01
  0.92258437E-02 -0.92601521E-02  0.94059743E-03
  0.49434841E-01 -0.58552729E-02  0.83964816E-02
 -0.10797681E-01  0.22858046E-01 -0.35602615E-01
  0.15279761E-01 -0.11480846E-01  0.19840045E-01
 -0.26427488E-01  0.24927042E-01  0.56041574E-02
 -0.37095144E-04 -0.14977797E-01  0.28306876E-01
  0.60237968E-01 -0.29292469E-01  0.22400518E-01
 -0.30865105E-01 -0.63635046E-02  0.17919862E-02
 -0.49771373E-01 -0.80983465E-02 -0.11754228E-01
  0.12447076E-01  0.21506890E-01  0.23692044E-01
  0.13531245E-01  0.68367193E-02  0.32296527E-01
  0.29926824E-01 -0.17335981E-01  0.38464312E-02
 -0.10210671E-01 -0.31679524E-01 -0.15375452E-01
  0.43343560E-02 -0.87019259E-02 -0.26541185E-01
 -0.33561613E-01 -0.95437757E-02  0.38509544E-01
  0.50857298E-01  0.35979804E-01  0.68056814E-02
 -0.13376942E-01  0.41298288E-01  0.18695236E-01
 -0.81019727E-02 -0.93401031E-03  0.14792741E-02
 -0.35674613E-01 -0.83556350E-02 -0.11451078E-01
 -0.16686255E-01 -0.80022268E-02 -0.28116463E-01
  0.33936836E-02  0.43334227E-01  0.19315928E-02
  0.34254730E-01  0.77912940E-02 -0.10919704E-01
 -0.11752283E-01 -0.68502596E-01  0.21455971E-01
  0.56222811E-01 -0.18787154E-01 -0.37037182E-01
  0.65051340E-02  0.43377769E-02  0.20751172E-01
 -0.38790269E-02  0.14426490E-01 -0.43710555E-02
 -0.73446801E-02  0.23532983E-01  0.24474661E-01
 -0.38008264E-01  0.40322251E-02  0.16156496E-01
 -0.69178188E-01 -0.12852419E-01 -0.17389140E-01
 -0.59255783E-02 -0.30553083E-01  0.38945171E-01
 -0.36865914E-01  0.19128439E-01  0.50483503E-01
 -0.19632347E-01  0.82370621E-03 -0.30168133E-01
 -0.37979702E-01 -0.41602399E-01 -0.28390789E-02
 
            1
   0.4000000000000000     
  0.10000000E+01  0.00000000E+00  0.00000000E+00  0.00000000E+00
  0.54151401E+00  0.10803390E+00  0.26405426E+00
  0.43479570E+00  0.51919545E-01  0.32506643E+00
  0.51766994E-01  0.15814632E+00  0.56574891E+00
  0.98122785E+00  0.15052014E+00  0.77086188E+00
  0.95348107E+00  0.81128562E-01  0.44464627E+00
  0.89502475E+00  0.15121395E+00  0.44795041E+00
  0.37136886E+00  0.93704817E+00  0.65676204E+00
  0.65415786E+00  0.59969320E-01  0.55446226E+00
  0.97507140E+00  0.13871530E+00  0.65577094E+00
  0.36213872E+00  0.61030461E+00  0.14865396E+00
  0.21986468E+00  0.89625530E+00  0.29153837E+00
  0.86402358E+00  0.18458429E+00  0.36835293E+00
  0.14671525E+00  0.48338109E-01  0.11141722E+00
  0.34512073E+00  0.59377991E+00  0.72484505E+00
  0.41663063E+00  0.36471775E+00  0.11293274E+00
  0.96969244E+00  0.49756132E+00  0.88505108E+00
  0.74453323E+00  0.60199473E+00  0.75998505E-01
  0.72592137E+00  0.83232559E+00  0.23993992E-01
  0.50279438E-01  0.18867924E+00  0.45512580E+00
  0.41567699E+00  0.31857465E+00  0.94520644E+00
  0.53474944E+00  0.41918696E+00  0.61070580E-01
  0.74576750E+00  0.73763483E+00  0.94935526E-01
  0.87745823E+00  0.26823661E+00  0.86573606E+00
  0.79928089E+00  0.24961006E+00  0.39826024E+00
  0.96513969E+00  0.36864844E+00  0.87359533E+00
  0.26701042E+00  0.81442563E+00  0.21404206E+00
  0.42420786E+00  0.94807789E+00  0.53169573E+00
  0.11151579E+00  0.80397572E+00  0.83344807E+00
  0.98575078E+00  0.49214022E+00  0.76967168E-03
  0.31310176E+00  0.74086641E+00  0.28051712E+00
  0.36536097E+00  0.32664364E+00  0.55336293E-01
  0.63771981E+00  0.12138943E+00  0.95914005E+00
  0.88879797E+00  0.14026624E+00  0.85698827E+00
  0.25584705E-01  0.82531830E+00  0.82423562E+00
  0.43699971E+00  0.52340155E-01  0.68520001E+00
  0.69509244E+00  0.15528614E+00  0.44743069E+00
  0.64098366E+00  0.77798189E+00  0.98905752E+00
  0.41186237E+00  0.57064021E-01  0.44533237E+00
  0.13714035E+00  0.12909642E+00  0.58624670E+00
  0.23746135E+00  0.24414734E+00  0.50906324E+00
  0.55160307E+00  0.33395691E-01  0.93809355E+00
  0.90642896E+00  0.57579258E-01  0.11717295E+00
  0.94283408E-01  0.74165970E+00  0.96208075E+00
  0.80298242E-01  0.14360589E+00  0.97372669E+00
  0.64052969E+00  0.87443854E+00  0.49518032E+00
  0.62986666E+00  0.51774523E+00  0.36155242E+00
  0.60655954E+00  0.57689263E+00  0.45122419E+00
  0.39101618E+00  0.70063677E+00  0.21583287E+00
  0.37458847E+00  0.39041456E+00  0.22218173E+00
  0.49789273E+00  0.30881903E+00  0.72193880E+00
  0.72318955E+00  0.83450390E+00  0.71412981E+00
  0.57554171E+00  0.50049005E+00  0.57483116E+00
  0.62652781E+00  0.93123209E+00  0.57897962E+00
  0.37448981E+00  0.91332710E-01  0.77190791E+00
  0.98206193E+00  0.18988152E-01  0.42278165E-01
  0.51624376E+00  0.35852558E+00  0.59917100E+00
  0.90083564E+00  0.67837157E+00  0.66118891E+00
  0.43371335E+00  0.20355949E+00  0.80044186E+00
  0.86383626E+00  0.76490782E+00  0.69987306E+00
  0.55396984E+00  0.77824800E+00  0.47288248E+00
  0.58255237E+00  0.68181857E+00  0.42293659E+00
  0.39546529E+00  0.18231082E+00  0.92975424E+00
  0.27286308E+00  0.33585214E+00  0.66854056E+00
  0.73443889E+00  0.55668363E+00  0.29648382E+00
  0.61500089E+00  0.77060391E+00  0.75783848E+00
  0.81756715E+00  0.30814629E+00  0.83138444E+00
  0.15511699E+00  0.17035280E+00  0.29213126E-01
  0.72264618E+00  0.21074172E+00  0.83724085E+00
  0.30986019E+00  0.46937938E+00  0.22158358E+00
  0.93398257E+00  0.96107107E-01  0.20804630E+00
  0.99781533E+00  0.61683917E+00  0.28473849E-01
  0.75505471E+00  0.52171261E+00  0.17860967E+00
  0.30496871E+00  0.58132188E+00  0.63618705E+00
  0.31088867E+00  0.29843563E+00  0.56565102E+00
  0.85501612E+00  0.11840585E+00  0.28257357E+00
  0.23444116E+00  0.44654501E+00  0.64876494E+00
  0.99487818E+00  0.73865033E+00  0.56171993E+00
  0.56965729E+00  0.84884366E+00  0.70467283E+00
  0.76271368E+00  0.73129047E+00  0.70727524E+00
  0.52621557E+00  0.95146002E-01  0.89394698E+00
  0.41799752E+00  0.62693134E+00  0.74999223E-01
  0.71869518E+00  0.64193902E+00  0.78377207E+00
  0.94631340E+00  0.64861754E+00  0.92691145E-02
  0.68673459E+00  0.69666195E+00  0.17205583E+00
  0.41387692E+00  0.11368314E+00  0.27306926E+00
  0.47750140E-01  0.45581142E+00  0.99480622E+00
  0.93415062E+00  0.86123171E+00  0.65666136E+00
  0.20965972E+00  0.76294133E+00  0.18640183E+00
  0.85182731E+00  0.62445622E+00  0.62957155E+00
  0.42546513E+00  0.44538560E+00  0.24513246E+00
  0.56233496E+00  0.93391253E-01  0.18122772E+00
  0.32773062E+00  0.29557832E+00  0.27500458E+00
  0.27150107E+00  0.42159060E+00  0.16896467E+00
  0.78649626E+00  0.87851045E+00  0.93901113E+00
  0.28307225E+00  0.26754612E+00  0.11444828E+00
  0.16742676E+00  0.40533820E+00  0.72628945E+00
  0.86415923E+00  0.16346672E+00  0.53119490E+00
  0.22629049E+00  0.19205515E+00  0.95521372E+00
  0.32704059E+00  0.89620449E+00  0.15039293E+00
  0.57690405E+00  0.75582775E+00  0.61256428E-01
  0.83698717E+00  0.97075617E+00  0.15755745E+00
  0.96632611E+00  0.32749280E-01  0.24982662E+00
  0.82129231E+00  0.17809128E+00  0.23898233E+00
  0.78857226E+00  0.24828174E-01  0.33123521E+00
  0.20889091E+00  0.68786401E-01  0.13343851E+00
  0.72682496E+00  0.91173024E+00  0.54928991E-01
  0.91065653E-01  0.81696654E-02  0.18627485E+00
  0.99675738E+00  0.18895878E+00  0.15967229E+00
  0.73239537E-01  0.23770147E+00  0.95300143E+00
  0.95846587E+00  0.96203375E+00  0.99070133E+00
  0.88156840E+00  0.12577908E+00  0.77088686E-01
  0.16360651E+00  0.26208732E+00  0.43009580E-01
  0.43210075E+00  0.78617843E+00  0.14526893E+00
  0.14791570E+00  0.99442523E+00  0.57078515E-01
  0.98685809E+00  0.95035948E+00  0.10657274E+00
  0.44525633E+00  0.68565347E+00  0.24428397E+00
  0.11527936E+00  0.13266691E+00  0.89460418E+00
  0.30249791E+00  0.94926080E+00  0.67426602E+00
  0.40464656E+00  0.96351567E+00  0.31352368E+00
  0.57529672E+00  0.21063694E+00  0.25528475E+00
  0.40452916E+00  0.85939124E+00  0.50852120E+00
  0.57352599E+00  0.49827620E-01  0.29921954E+00
  0.46100383E+00  0.14745222E+00  0.44543449E+00
  0.49666847E+00  0.41169410E-01  0.69660441E+00
  0.36655925E+00  0.85117379E+00  0.72175371E+00
  0.63994695E+00  0.85722701E-01  0.63418807E+00
  0.97399446E+00  0.78310900E-01  0.36218998E+00
  0.70474050E+00  0.42160731E+00  0.20485261E+00
  0.81548900E+00  0.79438237E+00  0.10707375E+00
  0.35308010E+00  0.81605815E+00  0.31396563E+00
  0.17524451E+00  0.91197392E+00  0.24912156E+00
  0.64229389E+00  0.69751621E+00  0.96293794E+00
  0.26639652E+00  0.99398341E+00  0.27936501E+00
  0.63342716E+00  0.84381214E+00  0.91916025E+00
  0.25865829E+00  0.67349397E+00  0.35232239E+00
  0.16748325E+00  0.81619818E+00  0.36866618E+00
  0.34089143E+00  0.60497692E-01  0.48383010E+00
  0.31201342E+00  0.64002967E+00  0.12171429E+00
  0.54326483E+00  0.41920975E+00  0.14354597E+00
  0.57378198E+00  0.71995170E+00  0.85071434E+00
  0.15106077E+00  0.71415897E+00  0.95696593E+00
  0.29378145E-01  0.58366129E+00  0.82470026E+00
  0.27995505E+00  0.54711233E+00  0.80749406E+00
  0.99657869E+00  0.74025043E+00  0.47542799E+00
  0.68698235E+00  0.25752023E+00  0.79561857E+00
  0.98701403E+00  0.60488359E+00  0.11502335E+00
  0.38512161E+00  0.67811665E+00  0.73110237E+00
  0.38349559E+00  0.53443031E+00  0.72928811E+00
  0.74259612E+00  0.15183507E+00  0.79279008E+00
  0.97954239E-01  0.81090174E+00  0.83264653E-04
  0.83291752E+00  0.41530617E+00  0.81540751E+00
  0.78031117E+00  0.64956374E+00  0.29184172E+00
  0.13158908E+00  0.10865404E+00  0.67097217E+00
  0.97213450E+00  0.80547913E+00  0.90817427E+00
  0.12247265E+00  0.34803094E-01  0.55673140E+00
  0.32513442E-01  0.89318566E+00  0.75208823E+00
  0.51755411E+00  0.38363308E+00  0.75998641E+00
  0.90104631E+00  0.50728363E+00  0.89938290E+00
  0.33378196E+00  0.39170711E+00  0.67736709E+00
  0.68892970E+00  0.14821011E+00  0.36593911E+00
  0.36260696E+00  0.62491892E+00  0.55898155E+00
  0.55238182E+00  0.31746754E+00  0.54149608E+00
  0.59631572E+00  0.41280348E+00  0.38865280E+00
  0.59495482E+00  0.73263574E+00  0.33545048E+00
  0.67092968E+00  0.80387489E+00  0.51914794E+00
  0.49074483E+00  0.36773787E+00  0.90525601E+00
  0.41625084E-01  0.68876214E+00  0.56467125E+00
  0.69136924E+00  0.94682184E+00  0.41583893E+00
  0.21933484E+00  0.24234637E+00  0.74272194E+00
  0.49962529E+00  0.98074287E+00  0.51492898E+00
  0.59050505E+00  0.52589049E+00  0.30118401E+00
  0.45021813E+00  0.36044702E+00  0.58636090E+00
  0.52536840E+00  0.82002006E+00  0.40635262E+00
  0.32610138E+00  0.10570019E+00  0.95991128E+00
  0.63744036E+00  0.50128240E+00  0.59826620E+00
  0.21321773E+00  0.44447269E+00  0.57604740E+00
  0.38003889E+00  0.36571677E+00  0.50067155E+00
  0.40295280E-01  0.82637408E+00  0.56526688E+00
  0.49482107E+00  0.73332667E+00  0.55653414E+00
  0.27488518E+00  0.64852953E+00  0.63300145E+00
  0.99759185E+00  0.71057795E-01  0.80225013E+00
  0.22570134E+00  0.33443614E+00  0.46230281E+00
  0.90603473E+00  0.11987477E+00  0.93312776E+00
  0.40200899E+00  0.38512792E+00  0.88215590E+00
  0.30651221E+00  0.95311361E-01  0.76166833E+00
  0.67015982E+00  0.53568546E+00  0.94264912E-01
  0.42367077E+00  0.13275532E+00  0.98507876E+00
  0.56737894E+00  0.38366164E+00  0.99633154E+00
  0.50155001E+00  0.78492708E+00  0.71022287E+00
  0.84978113E+00  0.76099187E+00  0.78883067E+00
  0.56022116E+00  0.52390129E+00  0.33252349E-01
  0.40411243E-01  0.25372855E+00  0.75151490E+00
  0.75361256E+00  0.47954891E+00  0.33921113E+00
  0.91167068E+00  0.62296344E+00  0.73536989E+00
  0.53661309E+00  0.89667907E+00  0.75724337E+00
  0.61309463E+00  0.68822978E+00  0.72208050E+00
  0.82036755E+00  0.50877036E+00  0.16346909E+00
  0.74680513E+00  0.89702394E+00  0.62572855E+00
  0.80181585E+00  0.62350507E+00  0.98542818E+00
  0.75532932E+00  0.90626884E+00  0.75022591E+00
  0.25346995E+00  0.44017802E+00  0.30556257E+00
  0.34243919E+00  0.49858516E-02  0.84931128E+00
  0.75770071E+00  0.71048817E+00  0.63022298E+00
  0.82951043E+00  0.32306525E+00  0.31983912E+00
  0.37235139E-01  0.39311818E+00  0.81869896E+00
  0.91280340E+00  0.14196935E+00  0.63542430E+00
  0.66398142E+00  0.22221045E+00  0.47240292E+00
  0.55106251E+00  0.56449061E+00  0.62371805E+00
  0.47028111E+00  0.11986073E+00  0.60439303E+00
  0.42723046E-01  0.27589003E+00  0.43236964E+00
  0.28333614E+00  0.22081125E+00  0.43910001E+00
  0.11592833E+00  0.19142069E+00  0.39705396E+00
  0.92308655E+00  0.98972003E+00  0.50655169E+00
  0.80693252E+00  0.28942087E+00  0.46422500E+00
  0.32639767E+00  0.20556137E+00  0.58990019E+00
  0.48322739E+00  0.97683298E+00  0.17637154E-01
  0.65806221E+00  0.56755026E-01  0.57742882E-02
  0.61075030E+00  0.18770620E+00  0.99299198E+00
  0.57882924E+00  0.98077385E+00  0.88290128E+00
  0.99640846E+00  0.74473943E+00  0.79355192E+00
  0.96600536E+00  0.31834849E+00  0.95505660E+00
  0.18254576E+00  0.87293818E+00  0.78433200E+00
  0.83320110E+00  0.51952258E-01  0.86032201E+00
  0.11583872E+00  0.73079687E+00  0.78508817E+00
  0.92881948E+00  0.41667537E+00  0.75188515E-01
  0.00000000E+00  0.00000000E+00  0.00000000E+00
  0.00000000E+00  0.00000000E+00  0.00000000E+00
  0.00000000E+00  0.00000000E+00  0.00000000E+00
  0.00000000E+00  0.00000000E+00  0.00000000E+00
  0.00000000E+00  0.00000000E+00  0.00000000E+00
  0.00000000E+00  0.00000000E+00  0.00000000E+00
  0.00000000E+00  0.00000000E+00  0.00000000E+00
  0.00000000E+00  0.00000000E+00  0.00000000E+00
  0.00000000E+00  0.00000000E+00  0.00000000E+00
  0.00000000E+00  0.00000000E+00  0.00000000E+00
  0.00000000E+00  0.00000000E+00  0.00000000E+00
  0.00000000E+00  0.00000000E+00  0.00000000E+00
  0.00000000E+00  0.00000000E+00  0.00000000E+00
  0.00000000E+00  0.00000000E+00  0.00000000E+00
  0.00000000E+00  0.00000000E+00  0.00000000E+00
  0.00000000E+00  0.00000000E+00  0.00000000E+00
  0.00000000E+00  0.00000000E+00  0.00000000E+00
  0.00000000E+00  0.00000000E+00  0.00000000E+00
  0.00000000E+00  0.00000000E+00  0.00000000E+00
  0.00000000E+00  0.00000000E+00  0.00000000E+00
  0.00000000E+00  0.00000000E+00  0.00000000E+00
  0.00000000E+00  0.00000000E+00  0.00000000E+00
  0.00000000E+00  0.00000000E+00  0.00000000E+00
  0.00000000E+00  0.00000000E+00  0.00000000E+00
  0.00000000E+00  0.00000000E+00  0.00000000E+00
  0.00000000E+00  0.00000000E+00  0.00000000E+00
  0.00000000E+00  0.00000000E+00  0.00000000E+00
  0.00000000E+00  0.00000000E+00  0.00000000E+00
  0.00000000E+00  0.00000000E+00  0.00000000E+00
  0.00000000E+00  0.00000000E+00  0.00000000E+00
  0.00000000E+00  0.00000000E+00  0.00000000E+00
  0.00000000E+00  0.00000000E+00  0.00000000E+00
  0.00000000E+00  0.00000000E+00  0.00000000E+00
  0.00000000E+00  0.00000000E+00  0.00000000E+00
  0.00000000E+00  0.00000000E+00  0.00000000E+00
  0.00000000E+00  0.00000000E+00  0.00000000E+00
  0.00000000E+00  0.00000000E+00  0.00000000E+00
  0.00000000E+00  0.00000000E+00  0.00000000E+00
  0.00000000E+00  0.00000000E+00  0.00000000E+00
  0.00000000E+00  0.00000000E+00  0.00000000E+00
  0.00000000E+00  0.00000000E+00  0.00000000E+00
  0.00000000E+00  0.00000000E+00  0.00000000E+00
  0.00000000E+00  0.00000000E+00  0.00000000E+00
  0.00000000E+00  0.00000000E+00  0.00000000E+00
  0.00000000E+00  0.00000000E+00  0.00000000E+00
  0.00000000E+00  0.00000000E+00  0.00000000E+00
  0.00000000E+00  0.00000000E+00  0.00000000E+00
  0.00000000E+00  0.00000000E+00  0.00000000E+00
  0.00000000E+00  0.00000000E+00  0.00000000E+00
  0.00000000E+00  0.00000000E+00  0.00000000E+00
  0.00000000E+00  0.00000000E+00  0.00000000E+00
  0.00000000E+00  0.00000000E+00  0.00000000E+00
  0.00000000E+00  0.00000000E+00  0.00000000E+00
  0.00000000E+00  0.00000000E+00  0.00000000E+00
  0.00000000E+00  0.00000000E+00  0.00000000E+00
  0.00000000E+00  0.00000000E+00  0.00000000E+00
  0.00000000E+00  0.00000000E+00  0.00000000E+00
  0.00000000E+00  0.00000000E+00  0.00000000E+00
  0.00000000E+00  0.00000000E+00  0.00000000E+00
  0.00000000E+00  0.00000000E+00  0.00000000E+00
  0.00000000E+00  0.00000000E+00  0.00000000E+00
  0.00000000E+00  0.00000000E+00  0.00000000E+00
  0.00000000E+00  0.00000000E+00  0.00000000E+00
  0.00000000E+00  0.00000000E+00  0.00000000E+00
  0.00000000E+00  0.00000000E+00  0.00000000E+00
  0.00000000E+00  0.00000000E+00  0.00000000E+00
  0.00000000E+00  0.00000000E+00  0.00000000E+00
  0.00000000E+00  0.00000000E+00  0.00000000E+00
  0.00000000E+00  0.00000000E+00  0.00000000E+00
  0.00000000E+00  0.00000000E+00  0.00000000E+00
  0.00000000E+00  0.00000000E+00  0.00000000E+00
  0.00000000E+00  0.00000000E+00  0.00000000E+00
  0.00000000E+00  0.00000000E+00  0.00000000E+00
  0.00000000E+00  0.00000000E+00  0.00000000E+00
  0.00000000E+00  0.00000000E+00  0.00000000E+00
  0.00000000E+00  0.00000000E+00  0.00000000E+00
  0.00000000E+00  0.00000000E+00  0.00000000E+00
  0.00000000E+00  0.00000000E+00  0.00000000E+00
  0.00000000E+00  0.00000000E+00  0.00000000E+00
  0.00000000E+00  0.00000000E+00  0.00000000E+00
  0.00000000E+00  0.00000000E+00  0.00000000E+00
  0.00000000E+00  0.00000000E+00  0.00000000E+00
  0.00000000E+00  0.00000000E+00  0.00000000E+00
  0.00000000E+00  0.00000000E+00  0.00000000E+00
  0.00000000E+00  0.00000000E+00  0.00000000E+00
  0.00000000E+00  0.00000000E+00  0.00000000E+00
  0.00000000E+00  0.00000000E+00  0.00000000E+00
  0.00000000E+00  0.00000000E+00  0.00000000E+00
  0.00000000E+00  0.00000000E+00  0.00000000E+00
  0.00000000E+00  0.00000000E+00  0.00000000E+00
  0.00000000E+00  0.00000000E+00  0.00000000E+00
  0.00000000E+00  0.00000000E+00  0.00000000E+00
  0.00000000E+00  0.00000000E+00  0.00000000E+00
  0.00000000E+00  0.00000000E+00  0.00000000E+00
  0.00000000E+00  0.00000000E+00  0.00000000E+00
  0.00000000E+00  0.00000000E+00  0.00000000E+00
  0.00000000E+00  0.00000000E+00  0.00000000E+00
  0.00000000E+00  0.00000000E+00  0.00000000E+00
  0.00000000E+00  0.00000000E+00  0.00000000E+00
  0.00000000E+00  0.00000000E+00  0.00000000E+00
  0.00000000E+00  0.00000000E+00  0.00000000E+00
  0.00000000E+00  0.00000000E+00  0.00000000E+00
  0.00000000E+00  0.00000000E+00  0.00000000E+00
  0.00000000E+00  0.00000000E+00  0.00000000E+00
  0.00000000E+00  0.00000000E+00  0.00000000E+00
  0.00000000E+00  0.00000000E+00  0.00000000E+00
  0.00000000E+00  0.00000000E+00  0.00000000E+00
  0.00000000E+00  0.00000000E+00  0.00000000E+00
  0.00000000E+00  0.00000000E+00  0.00000000E+00
  0.00000000E+00  0.00000000E+00  0.00000000E+00
  0.00000000E+00  0.00000000E+00  0.00000000E+00
  0.00000000E+00  0.00000000E+00  0.00000000E+00
  0.00000000E+00  0.00000000E+00  0.00000000E+00
  0.00000000E+00  0.00000000E+00  0.00000000E+00
  0.00000000E+00  0.00000000E+00  0.00000000E+00
  0.00000000E+00  0.00000000E+00  0.00000000E+00
  0.00000000E+00  0.00000000E+00  0.00000000E+00
  0.00000000E+00  0.00000000E+00  0.00000000E+00
  0.00000000E+00  0.00000000E+00  0.00000000E+00
  0.00000000E+00  0.00000000E+00  0.00000000E+00
  0.00000000E+00  0.00000000E+00  0.00000000E+00
  0.00000000E+00  0.00000000E+00  0.00000000E+00
  0.00000000E+00  0.00000000E+00  0.00000000E+00
  0.00000000E+00  0.00000000E+00  0.00000000E+00
  0.00000000E+00  0.00000000E+00  0.00000000E+00
  0.00000000E+00  0.00000000E+00  0.00000000E+00
  0.00000000E+00  0.00000000E+00  0.00000000E+00
  0.00000000E+00  0.00000000E+00  0.00000000E+00
  0.00000000E+00  0.00000000E+00  0.00000000E+00
  0.00000000E+00  0.00000000E+00  0.00000000E+00
  0.00000000E+00  0.00000000E+00  0.00000000E+00
  0.00000000E+00  0.00000000E+00  0.00000000E+00
  0.00000000E+00  0.00000000E+00  0.00000000E+00
  0.00000000E+00  0.00000000E+00  0.00000000E+00
  0.00000000E+00  0.00000000E+00  0.00000000E+00
  0.00000000E+00  0.00000000E+00  0.00000000E+00
  0.00000000E+00  0.00000000E+00  0.00000000E+00
  0.00000000E+00  0.00000000E+00  0.00000000E+00
  0.00000000E+00  0.00000000E+00  0.00000000E+00
  0.00000000E+00  0.00000000E+00  0.00000000E+00
  0.00000000E+00  0.00000000E+00  0.00000000E+00
  0.00000000E+00  0.00000000E+00  0.00000000E+00
  0.00000000E+00  0.00000000E+00  0.00000000E+00
  0.00000000E+00  0.00000000E+00  0.00000000E+00
  0.00000000E+00  0.00000000E+00  0.00000000E+00
  0.00000000E+00  0.00000000E+00  0.00000000E+00
  0.00000000E+00  0.00000000E+00  0.00000000E+00
  0.00000000E+00  0.00000000E+00  0.00000000E+00
  0.00000000E+00  0.00000000E+00  0.00000000E+00
  0.00000000E+00  0.00000000E+00  0.00000000E+00
  0.00000000E+00  0.00000000E+00  0.00000000E+00
  0.00000000E+00  0.00000000E+00  0.00000000E+00
  0.00000000E+00  0.00000000E+00  0.00000000E+00
  0.00000000E+00  0.00000000E+00  0.00000000E+00
  0.00000000E+00  0.00000000E+00  0.00000000E+00
  0.00000000E+00  0.00000000E+00  0.00000000E+00
  0.00000000E+00  0.00000000E+00  0.00000000E+00
  0.00000000E+00  0.00000000E+00  0.00000000E+00
  0.00000000E+00  0.00000000E+00  0.00000000E+00
  0.00000000E+00  0.00000000E+00  0.00000000E+00
  0.00000000E+00  0.00000000E+00  0.00000000E+00
  0.00000000E+00  0.00000000E+00  0.00000000E+00
  0.00000000E+00  0.00000000E+00  0.00000000E+00
  0.00000000E+00  0.00000000E+00  0.00000000E+00
  0.00000000E+00  0.00000000E+00  0.00000000E+00
  0.00000000E+00  0.00000000E+00  0.00000000E+00
  0.00000000E+00  0.00000000E+00  0.00000000E+00
  0.00000000E+00  0.00000000E+00  0.00000000E+00
  0.00000000E+00  0.00000000E+00  0.00000000E+00
  0.00000000E+00  0.00000000E+00  0.00000000E+00
  0.00000000E+00  0.00000000E+00  0.00000000E+00
  0.00000000E+00  0.00000000E+00  0.00000000E+00
  0.00000000E+00  0.00000000E+00  0.00000000E+00
  0.00000000E+00  0.00000000E+00  0.00000000E+00
  0.00000000E+00  0.00000000E+00  0.00000000E+00
  0.00000000E+00  0.00000000E+00  0.00000000E+00
  0.00000000E+00  0.00000000E+00  0.00000000E+00
  0.00000000E+00  0.00000000E+00  0.00000000E+00
  0.00000000E+00  0.00000000E+00  0.00000000E+00
  0.00000000E+00  0.00000000E+00  0.00000000E+00
  0.00000000E+00  0.00000000E+00  0.00000000E+00
  0.00000000E+00  0.00000000E+00  0.00000000E+00
  0.00000000E+00  0.00000000E+00  0.00000000E+00
  0.00000000E+00  0.00000000E+00  0.00000000E+00
  0.00000000E+00  0.00000000E+00  0.00000000E+00
  0.00000000E+00  0.00000000E+00  0.00000000E+00
  0.00000000E+00  0.00000000E+00  0.00000000E+00
  0.00000000E+00  0.00000000E+00  0.00000000E+00
  0.00000000E+00  0.00000000E+00  0.00000000E+00
  0.00000000E+00  0.00000000E+00  0.00000000E+00
  0.00000000E+00  0.00000000E+00  0.00000000E+00
  0.00000000E+00  0.00000000E+00  0.00000000E+00
  0.00000000E+00  0.00000000E+00  0.00000000E+00
  0.00000000E+00  0.00000000E+00  0.00000000E+00
  0.00000000E+00  0.00000000E+00  0.00000000E+00
  0.00000000E+00  0.00000000E+00  0.00000000E+00
  0.00000000E+00  0.00000000E+00  0.00000000E+00
  0.00000000E+00  0.00000000E+00  0.00000000E+00
  0.00000000E+00  0.00000000E+00  0.00000000E+00
  0.00000000E+00  0.00000000E+00  0.00000000E+00
  0.00000000E+00  0.00000000E+00  0.00000000E+00
  0.00000000E+00  0.00000000E+00  0.00000000E+00
  0.00000000E+00  0.00000000E+00  0.00000000E+00
  0.00000000E+00  0.00000000E+00  0.00000000E+00
  0.00000000E+00  0.00000000E+00  0.00000000E+00
  0.00000000E+00  0.00000000E+00  0.00000000E+00
  0.00000000E+00  0.00000000E+00  0.00000000E+00
  0.00000000E+00  0.00000000E+00  0.00000000E+00
  0.00000000E+00  0.00000000E+00  0.00000000E+00
  0.00000000E+00  0.00000000E+00  0.00000000E+00
  0.00000000E+00  0.00000000E+00  0.00000000E+00
  0.00000000E+00  0.00000000E+00  0.00000000E+00
  0.00000000E+00  0.00000000E+00  0.00000000E+00
  0.00000000E+00  0.00000000E+00  0.00000000E+00
  0.00000000E+00  0.00000000E+00  0.00000000E+00
  0.00000000E+00  0.00000000E+00  0.00000000E+00
  0.00000000E+00  0.00000000E+00  0.00000000E+00
  0.00000000E+00  0.00000000E+00  0.00000000E+00
  0.00000000E+00  0.00000000E+00  0.00000000E+00
  0.00000000E+00  0.00000000E+00  0.00000000E+00
  0.00000000E+00  0.00000000E+00  0.00000000E+00
  0.00000000E+00  0.00000000E+00  0.00000000E+00
  0.00000000E+00  0.00000000E+00  0.00000000E+00
  0.00000000E+00  0.00000000E+00  0.00000000E+00
  0.00000000E+00  0.00000000E+00  0.00000000E+00
  0.00000000E+00  0.00000000E+00  0.00000000E+00
  0.00000000E+00  0.00000000E+00  0.00000000E+00
  0.00000000E+00  0.00000000E+00  0.00000000E+00
  0.00000000E+00  0.00000000E+00  0.00000000E+00
  0.00000000E+00  0.00000000E+00  0.00000000E+00
  0.00000000E+00  0.00000000E+00  0.00000000E+00
  0.00000000E+00  0.00000000E+00  0.00000000E+00
  0.00000000E+00  0.00000000E+00  0.00000000E+00
  0.00000000E+00  0.00000000E+00  0.00000000E+00
  0.00000000E+00  0.00000000E+00  0.00000000E+00
  0.00000000E+00  0.00000000E+00  0.00000000E+00
  0.00000000E+00  0.00000000E+00  0.00000000E+00
  0.00000000E+00  0.00000000E+00  0.00000000E+00
  0.00000000E+00  0.00000000E+00  0.00000000E+00
  0.00000000E+00  0.00000000E+00  0.00000000E+00
  0.00000000E+00  0.00000000E+00  0.00000000E+00
  0.00000000E+00  0.00000000E+00  0.00000000E+00
  0.00000000E+00  0.00000000E+00  0.00000000E+00
  0.00000000E+00  0.00000000E+00  0.00000000E+00
  0.00000000E+00  0.00000000E+00  0.00000000E+00
  0.00000000E+00  0.00000000E+00  0.00000000E+00
  0.00000000E+00  0.00000000E+00  0.00000000E+00
  0.00000000E+00  0.00000000E+00  0.00000000E+00
  0.00000000E+00  0.00000000E+00  0.00000000E+00
  0.00000000E+00  0.00000000E+00  0.00000000E+00
  0.00000000E+00  0.00000000E+00  0.00000000E+00
  0.00000000E+00  0.00000000E+00  0.00000000E+00
  0.00000000E+00  0.00000000E+00  0.00000000E+00
  0.00000000E+00  0.00000000E+00  0.00000000E+00
  0.00000000E+00  0.00000000E+00  0.00000000E+00
  0.00000000E+00  0.00000000E+00  0.00000000E+00
  0.00000000E+00  0.00000000E+00  0.00000000E+00
  0.00000000E+00  0.00000000E+00  0.00000000E+00
  0.00000000E+00  0.00000000E+00  0.00000000E+00
  0.00000000E+00  0.00000000E+00  0.00000000E+00
  0.00000000E+00  0.00000000E+00  0.00000000E+00
  0.00000000E+00  0.00000000E+00  0.00000000E+00
  0.00000000E+00  0.00000000E+00  0.00000000E+00
  0.00000000E+00  0.00000000E+00  0.00000000E+00
  0.00000000E+00  0.00000000E+00  0.00000000E+00
  0.00000000E+00  0.00000000E+00  0.00000000E+00
  0.00000000E+00  0.00000000E+00  0.00000000E+00
  0.00000000E+00  0.00000000E+00  0.00000000E+00
  0.00000000E+00  0.00000000E+00  0.00000000E+00
  0.00000000E+00  0.00000000E+00  0.00000000E+00
  0.00000000E+00  0.00000000E+00  0.00000000E+00
  0.00000000E+00  0.00000000E+00  0.00000000E+00
  0.00000000E+00  0.00000000E+00  0.00000000E+00
  0.00000000E+00  0.00000000E+00  0.00000000E+00
  0.00000000E+00  0.00000000E+00  0.00000000E+00
  0.00000000E+00  0.00000000E+00  0.00000000E+00
  0.00000000E+00  0.00000000E+00  0.00000000E+00
  0.00000000E+00  0.00000000E+00  0.00000000E+00
  0.00000000E+00  0.00000000E+00  0.00000000E+00
  0.00000000E+00  0.00000000E+00  0.00000000E+00
  0.00000000E+00  0.00000000E+00  0.00000000E+00
  0.00000000E+00  0.00000000E+00  0.00000000E+00
  0.00000000E+00  0.00000000E+00  0.00000000E+00
  0.00000000E+00  0.00000000E+00  0.00000000E+00
  0.00000000E+00  0.00000000E+00  0.00000000E+00
  0.00000000E+00  0.00000000E+00  0.00000000E+00
  0.00000000E+00  0.00000000E+00  0.00000000E+00
  0.00000000E+00  0.00000000E+00  0.00000000E+00
  0.00000000E+00  0.00000000E+00  0.00000000E+00
  0.00000000E+00  0.00000000E+00  0.00000000E+00
  0.00000000E+00  0.00000000E+00  0.00000000E+00
  0.00000000E+00  0.00000000E+00  0.00000000E+00
  0.00000000E+00  0.00000000E+00  0.00000000E+00
  0.00000000E+00  0.00000000E+00  0.00000000E+00
  0.00000000E+00  0.00000000E+00  0.00000000E+00
  0.00000000E+00  0.00000000E+00  0.00000000E+00
  0.00000000E+00  0.00000000E+00  0.00000000E+00
  0.00000000E+00  0.00000000E+00  0.00000000E+00
  0.00000000E+00  0.00000000E+00  0.00000000E+00
  0.00000000E+00  0.00000000E+00  0.00000000E+00
  0.00000000E+00  0.00000000E+00  0.00000000E+00
  0.00000000E+00  0.00000000E+00  0.00000000E+00
  0.00000000E+00  0.00000000E+00  0.00000000E+00
  0.00000000E+00  0.00000000E+00  0.00000000E+00
  0.00000000E+00  0.00000000E+00  0.00000000E+00
  0.00000000E+00  0.00000000E+00  0.00000000E+00
  0.00000000E+00  0.00000000E+00  0.00000000E+00
  0.00000000E+00  0.00000000E+00  0.00000000E+00
  0.00000000E+00  0.00000000E+00  0.00000000E+00
  0.00000000E+00  0.00000000E+00  0.00000000E+00
  0.00000000E+00  0.00000000E+00  0.00000000E+00
  0.00000000E+00  0.00000000E+00  0.00000000E+00
  0.00000000E+00  0.00000000E+00  0.00000000E+00
  0.00000000E+00  0.00000000E+00  0.00000000E+00
  0.00000000E+00  0.00000000E+00  0.00000000E+00
  0.00000000E+00  0.00000000E+00  0.00000000E+00
  0.00000000E+00  0.00000000E+00  0.00000000E+00
  0.00000000E+00  0.00000000E+00  0.00000000E+00
  0.00000000E+00  0.00000000E+00  0.00000000E+00
  0.00000000E+00  0.00000000E+00  0.00000000E+00
  0.00000000E+00  0.00000000E+00  0.00000000E+00
  0.00000000E+00  0.00000000E+00  0.00000000E+00
  0.00000000E+00  0.00000000E+00  0.00000000E+00
  0.00000000E+00  0.00000000E+00  0.00000000E+00
  0.00000000E+00  0.00000000E+00  0.00000000E+00
  0.00000000E+00  0.00000000E+00  0.00000000E+00
  0.00000000E+00  0.00000000E+00  0.00000000E+00
  0.00000000E+00  0.00000000E+00  0.00000000E+00
  0.00000000E+00  0.00000000E+00  0.00000000E+00
  0.00000000E+00  0.00000000E+00  0.00000000E+00
  0.00000000E+00  0.00000000E+00  0.00000000E+00
  0.00000000E+00  0.00000000E+00  0.00000000E+00
  0.00000000E+00  0.00000000E+00  0.00000000E+00
  0.00000000E+00  0.00000000E+00  0.00000000E+00
  0.00000000E+00  0.00000000E+00  0.00000000E+00
  0.00000000E+00  0.00000000E+00  0.00000000E+00
  0.00000000E+00  0.00000000E+00  0.00000000E+00
  0.00000000E+00  0.00000000E+00  0.00000000E+00
  0.00000000E+00  0.00000000E+00  0.00000000E+00
  0.00000000E+00  0.00000000E+00  0.00000000E+00
  0.00000000E+00  0.00000000E+00  0.00000000E+00
  0.00000000E+00  0.00000000E+00  0.00000000E+00
  0.00000000E+00  0.00000000E+00  0.00000000E+00
  0.00000000E+00  0.00000000E+00  0.00000000E+00
  0.00000000E+00  0.00000000E+00  0.00000000E+00
  0.00000000E+00  0.00000000E+00  0.00000000E+00
  0.00000000E+00  0.00000000E+00  0.00000000E+00
  0.00000000E+00  0.00000000E+00  0.00000000E+00
  0.00000000E+00  0.00000000E+00  0.00000000E+00
  0.00000000E+00  0.00000000E+00  0.00000000E+00
  0.00000000E+00  0.00000000E+00  0.00000000E+00
  0.00000000E+00  0.00000000E+00  0.00000000E+00
  0.00000000E+00  0.00000000E+00  0.00000000E+00
  0.00000000E+00  0.00000000E+00  0.00000000E+00
  0.00000000E+00  0.00000000E+00  0.00000000E+00
  0.00000000E+00  0.00000000E+00  0.00000000E+00
  0.00000000E+00  0.00000000E+00  0.00000000E+00
  0.00000000E+00  0.00000000E+00  0.00000000E+00
  0.00000000E+00  0.00000000E+00  0.00000000E+00
  0.00000000E+00  0.00000000E+00  0.00000000E+00
  0.00000000E+00  0.00000000E+00  0.00000000E+00
  0.00000000E+00  0.00000000E+00  0.00000000E+00
  0.00000000E+00  0.00000000E+00  0.00000000E+00
  0.00000000E+00  0.00000000E+00  0.00000000E+00
  0.00000000E+00  0.00000000E+00  0.00000000E+00
  0.00000000E+00  0.00000000E+00  0.00000000E+00
  0.00000000E+00  0.00000000E+00  0.00000000E+00
  0.00000000E+00  0.00000000E+00  0.00000000E+00
  0.00000000E+00  0.00000000E+00  0.00000000E+00
  0.00000000E+00  0.00000000E+00  0.00000000E+00
  0.00000000E+00  0.00000000E+00  0.00000000E+00
  0.00000000E+00  0.00000000E+00  0.00000000E+00
  0.00000000E+00  0.00000000E+00  0.00000000E+00
  0.00000000E+00  0.00000000E+00  0.00000000E+00
  0.00000000E+00  0.00000000E+00  0.00000000E+00
  0.00000000E+00  0.00000000E+00  0.00000000E+00
  0.00000000E+00  0.00000000E+00  0.00000000E+00
  0.00000000E+00  0.00000000E+00  0.00000000E+00
  0.00000000E+00  0.00000000E+00  0.00000000E+00
  0.00000000E+00  0.00000000E+00  0.00000000E+00
  0.00000000E+00  0.00000000E+00  0.00000000E+00
  0.00000000E+00  0.00000000E+00  0.00000000E+00
  0.00000000E+00  0.00000000E+00  0.00000000E+00
  0.00000000E+00  0.00000000E+00  0.00000000E+00
  0.00000000E+00  0.00000000E+00  0.00000000E+00
  0.00000000E+00  0.00000000E+00  0.00000000E+00
  0.00000000E+00  0.00000000E+00  0.00000000E+00
  0.00000000E+00  0.00000000E+00  0.00000000E+00
  0.00000000E+00  0.00000000E+00  0.00000000E+00
  0.00000000E+00  0.00000000E+00  0.00000000E+00
  0.00000000E+00  0.00000000E+00  0.00000000E+00
  0.00000000E+00  0.00000000E+00  0.00000000E+00
  0.00000000E+00  0.00000000E+00  0.00000000E+00
  0.00000000E+00  0.00000000E+00  0.00000000E+00
  0.00000000E+00  0.00000000E+00  0.00000000E+00
  0.00000000E+00  0.00000000E+00  0.00000000E+00
  0.00000000E+00  0.00000000E+00  0.00000000E+00
  0.00000000E+00  0.00000000E+00  0.00000000E+00
  0.00000000E+00  0.00000000E+00  0.00000000E+00
  0.00000000E+00  0.00000000E+00  0.00000000E+00
  0.00000000E+00  0.00000000E+00  0.00000000E+00
  0.00000000E+00  0.00000000E+00  0.00000000E+00
  0.00000000E+00  0.00000000E+00  0.00000000E+00
  0.00000000E+00  0.00000000E+00  0.00000000E+00
  0.00000000E+00  0.00000000E+00  0.00000000E+00
  0.00000000E+00  0.00000000E+00  0.00000000E+00
  0.00000000E+00  0.00000000E+00  0.00000000E+00
  0.00000000E+00  0.00000000E+00  0.00000000E+00
  0.00000000E+00  0.00000000E+00  0.00000000E+00
  0.00000000E+00  0.00000000E+00  0.00000000E+00
  0.00000000E+00  0.00000000E+00  0.00000000E+00
  0.00000000E+00  0.00000000E+00  0.00000000E+00
  0.00000000E+00  0.00000000E+00  0.00000000E+00
  0.00000000E+00  0.00000000E+00  0.00000000E+00
  0.00000000E+00  0.00000000E+00  0.00000000E+00
  0.00000000E+00  0.00000000E+00  0.00000000E+00
  0.00000000E+00  0.00000000E+00  0.00000000E+00
  0.00000000E+00  0.00000000E+00  0.00000000E+00
  0.00000000E+00  0.00000000E+00  0.00000000E+00
  0.00000000E+00  0.00000000E+00  0.00000000E+00
  0.00000000E+00  0.00000000E+00  0.00000000E+00
  0.00000000E+00  0.00000000E+00  0.00000000E+00
  0.00000000E+00  0.00000000E+00  0.00000000E+00
  0.00000000E+00  0.00000000E+00  0.00000000E+00
  0.00000000E+00  0.00000000E+00  0.00000000E+00
  0.00000000E+00  0.00000000E+00  0.00000000E+00
  0.00000000E+00  0.00000000E+00  0.00000000E+00
  0.00000000E+00  0.00000000E+00  0.00000000E+00
  0.00000000E+00  0.00000000E+00  0.00000000E+00
  0.00000000E+00  0.00000000E+00  0.00000000E+00
  0.00000000E+00  0.00000000E+00  0.00000000E+00
  0.00000000E+00  0.00000000E+00  0.00000000E+00
  0.00000000E+00  0.00000000E+00  0.00000000E+00
  0.00000000E+00  0.00000000E+00  0.00000000E+00
  0.00000000E+00  0.00000000E+00  0.00000000E+00
  0.00000000E+00  0.00000000E+00  0.00000000E+00
  0.00000000E+00  0.00000000E+00  0.00000000E+00
  0.00000000E+00  0.00000000E+00  0.00000000E+00
  0.00000000E+00  0.00000000E+00  0.00000000E+00
  0.00000000E+00  0.00000000E+00  0.00000000E+00
  0.00000000E+00  0.00000000E+00  0.00000000E+00
  0.00000000E+00  0.00000000E+00  0.00000000E+00
  0.00000000E+00  0.00000000E+00  0.00000000E+00
  0.00000000E+00  0.00000000E+00  0.00000000E+00
  0.00000000E+00  0.00000000E+00  0.00000000E+00
  0.00000000E+00  0.00000000E+00  0.00000000E+00
  0.00000000E+00  0.00000000E+00  0.00000000E+00
  0.00000000E+00  0.00000000E+00  0.00000000E+00
  0.00000000E+00  0.00000000E+00  0.00000000E+00
  0.00000000E+00  0.00000000E+00  0.00000000E+00
