# Amorphous model
1.000000
14.0642798213744680  0.0000000000000000  0.0000000000000000
 0.0000000000000000 14.0642798213744680  0.0000000000000000
 0.0000000000000000  0.0000000000000000 14.0642798213744680
C H
110 126
Cartesian
 2.4619929988705316  2.7415261798246089  6.5067566969393624
11.9916660058552775  6.6394893835493267  2.6625448600660651
 9.0760365919363490  0.5466807778624698  0.3981320007356031
 9.6248269653237362  0.5335347888478230 13.1457341096307818
12.6750345779777778  0.7821955393801492 11.4038527122536895
12.9210589282269535  1.6233125598132290  9.0053746082989807
 9.1042025236832433  1.2908625792656334  7.2565811460880010
12.1463856770833711  1.5364033118020526  0.6279853792540369
10.8505741050044318  1.5501360566642770 12.7257088009829946
13.9092526441729856  0.7500705592260353 13.3679543551924827
12.7036935629715959  2.7291153111104780 13.6197833172001719
12.9309666262876579  2.3691930209666410 11.9899619246085880
10.3152208627056137  1.9074014470706953 11.2129912076865761
13.1557939627028180  0.4007109423512674  9.9621472903677937
 9.9142382876217727  0.3064390824021608  7.8448053544703082
10.1570895538482855  2.9386511130803541 13.3092796803469486
10.6841742634180736  1.5069987695653122  5.4412317692383567
 9.4861206641955338  1.8913429873099261  6.0521307855886963
13.6445564491285989  3.3906517803481844  4.9310664066425360
 4.3210233339734447 12.9917963819149893  0.7152291259317565
 5.6390203844692568  7.5406893973143152  2.7042603845245345
 1.1975887644335774 11.4924873753731429  4.1372436996798942
 5.6023904331830003  7.2415775284243011  1.3159482115876564
 1.5473505961051739 11.9284749846760487  9.8538684139411163
 4.1158460713391207 12.8890552772533642 10.6889576458370339
 1.4954925949216218 13.1750998108898632 10.8094917212532113
 6.4818822039757418  9.0683711905922930  7.6277183082815423
 5.3555435588276108  8.3058292979718882  7.9766330753151209
 0.6231319017245411 13.3483089369820984 13.5266213004550853
 2.9796815361498652 13.6735006602519089 11.0474369052545800
 0.8280302806855637 12.5794772078375576 12.1326059810835662
 3.1667528917297698 12.8754799195287664 13.9959512764767151
 5.4260607620434644 13.3373039827084714 10.9168737663951507
11.5044648598124990  0.5323011842638738  6.0329763794448983
11.8134703371434799  8.9805266057168129  3.7902274643207345
 9.0223802304959673  8.9089341027704574  5.6323541940586317
10.8987911978685670  9.6773566553917494  1.0988575126441642
11.9545565454599920  9.6320895960619932  6.5320491070077864
11.1271012034272996 11.4541873723301943  8.0410675646993592
12.3257321957475678 13.1954950949344596  9.4537900255320704
 9.6944649644371577  9.2801321205749137 13.0895574376248671
13.3948254640667610 12.6725736858993638  7.1982884864824790
10.0756982917649456  8.6084582131392633  8.4005531972920089
12.0102196005693624 12.8321764576077140  7.9101581870139750
 9.2193619720336795  9.9768414976225994  8.8911779740833392
 9.1752443271864923 13.5546541773418472 12.2872210471669181
 8.3404565416478871 10.8865505634899637  7.7449789706352572
12.0964047013505631 13.6584310851809132 12.4841279130729266
 9.3937336088369729  7.9856623584419584 13.5197038493811466
11.1400092160436319 13.9668072420800708  7.2535837952960147
 7.8758984104166281  7.2205617108343123  8.1085396971728851
10.4534821651182295 10.1204584077650406 13.9092286027499323
 8.3000054483358738 12.5557974254462845 12.7367232249391034
 7.9072190119655161  8.6294757980395485  7.6219959036575009
 4.4187638682681332  9.3077767646791560  0.8376090748560472
14.0157720696060419 12.2776016767450376  0.4032862889067115
11.8676633086421628 14.0350101643229390  0.0746812259461942
 8.2051025128080930 10.3300909703224786  6.1276490142150326
12.5611477281860022  8.8734784558399245  5.2100892086273092
10.4243113770492339 11.4581782958279685  5.6675744599639835
 8.6183604428635743  8.2139946914489972  4.2847838128934939
12.8764150944345719  7.3877958482835311  5.5762206511064178
13.9650463719691391  9.5812797178851010  4.9977613949825610
 7.3489675246186561  7.3510778677313038  4.7019741962338202
10.5863948380249493  8.3736582580016705  1.5779643156920908
11.0308739113133907  7.8401581849788702  2.9955418952789454
 9.9497559980394481  8.0515687621303549  6.7801808344256873
 9.8387045108192250  7.5359937846437752  0.7068147385789540
10.4401755669719787 10.3448076062186143  6.8753993274625884
 8.2147682281153394  9.2741240588690754  3.2192967661641063
 9.7760427540130355  7.2637608224934649  3.7662542820123832
 8.2089815130985713 13.6030957514966904  0.8452566845275378
14.0456013780285236 10.8112684869406426  4.2927728246365984
 2.3229001478104756  9.7721127026530947  5.4068297645143133
 7.8464730154756364 12.5574475885816437 14.0566904277184879
 5.0274361079882208  8.7458904460750535  3.1252666567505116
 3.2841988500335884  2.7090268367702670  7.6597027331493166
 3.8293301364841081  1.5060129966845537  8.1311921363911690
 6.7472665211705074  6.4606669329183557  8.4538899625884891
 4.5670986168586580  1.3086742606910082 11.8805674361238776
 3.2546352153367089  0.8699782107792640 11.6412453979436687
 1.0537557767244348  4.6893694844605225  7.1657426218346423
 5.4763824366824885  6.9943941467842095  8.3890896618278692
 1.9611217206232663  6.8253868861204037  1.8128955610412802
 2.7263170707833346  0.3076875071518748  6.3453756472795657
 6.3071620959439301  6.5889349702321294  3.7490007952709821
 1.9541791985135752  5.9021957388012609  0.7603154152625731
 3.1332835424497247  0.2994101381544922  2.2941319193151699
 0.9915004004903736  3.9984539223519935  4.7162091952521976
 2.6546466988015442  4.6957217407487573  0.8911560088878296
 4.6846841681749112  3.5674273524377060  4.5700931340208726
 3.3573990179251254  4.4084161225600234  2.0727732595302086
 1.9738993072494573  0.1818535513017592  1.5129008693656605
 3.3656997416759982  5.3230110383457312  3.1550850112945046
 1.9050398037834846  4.1059894327833462  5.9954294644228909
 3.0669020225519894  5.1562094567213261  5.7280175941318792
 5.2141694928008704  6.0810564155225215  4.8056885755947452
 2.6607060133845728  6.5396098618841343  2.9949582017951837
 4.0803999400602855  5.0116059972212259  4.5013308234569074
 2.1850704707219979  1.5094252852236121  5.8651079627659310
 6.9855740784011431  5.3734286678907885  3.0537814575734572
 0.6831806695821800  0.2473357334737276 10.0180040635252663
 3.5542551598936054  0.3032801685496969  7.4727089591861073
 5.6563538093396772  0.5119647186950100 11.5193459078125979
 4.4349924445719360  9.6225188617199624  2.2001263932761734
 2.3707909301829595 10.9723323928892693  4.6921153121721648
 5.0012389135026236  8.1156347388297476  0.3984142977233383
 1.9691136355242449 13.5531750204707802  0.2670174699938048
 4.3181156188032226 13.7492137012295235  1.8880238655531603
 1.1075058206682602  9.0908874510431641  5.5697109486147820
13.1545558103468831 11.2687792273876024  3.8751367296156207
 7.9694873545467804  8.8036245235055564  2.2606410862306632
 9.0152653671005556  9.9983262807748847  3.0434804266837752
 7.2306830362489496 11.7404037864042916  0.3554934985729759
 7.3389013302445694  9.8490528700122173  3.5313807246703632
 5.0246668394790337  9.0237934310972232  4.1739849330314467
13.7257249307589486 12.7066752881034493  1.3706065999237378
 5.7518409645631010  5.6859634202645406  5.6773981726255673
 5.2134324058925348 12.4628354437718212  0.4146195522720832
 4.7133840197978767  6.9787438866978082  5.1884581110497958
12.6676907117386062 10.4302923655791790  6.6443031747158088
 5.2137480898156099 13.8240178980047030  2.4979124809374369
 0.8360844385830131  5.0014466057456719  4.3026533058174508
 6.0287357323890767  6.3301382559347275  0.9142388370696235
 3.9532255315434099  9.9821006863538013  0.1255570674636122
 7.8570912619268594 13.6090123560454419  1.8728966944612395
11.4756546727561162 10.3866237022607546  1.6794094910742370
 7.5569314198042932 10.8687217326160752  5.4431963586578878
 2.6003072792208304  6.1464227798149391  5.6701132399835021
 2.0173121930175508 12.1705845950452467  8.8921924617362382
 6.1754877727772861 10.0668270502127495  7.3317831016625039
 9.9924220674469151 11.1189255742518451  4.7274263820917781
 1.0641614479407711  0.6069807341793076  1.9241158942128251
10.3301223715154489  7.0645945684009064  6.5756223446077211
 2.0977525672615620 11.0919067331232899 10.3013445796627341
 5.0904956177110208  3.3593426476872370  5.5679525985453004
 7.8081773278728726 11.7813194471283378  8.0560693455303287
 0.2659087765751114  1.2673784547537199  0.1729229408210298
11.8877809427745778 12.6502104949713061 12.1428191696282912
13.9366124446476416 12.1586507189135045 11.8242392359452264
13.9969428213641915 13.5818798098032314  7.2570051063431507
13.1422815524108376 11.7947032164222367 14.0158319932585602
 1.5698678580860292  1.4588427138328832  4.9750814933917500
 1.2246265794467632 12.4348276510510214  3.5990284398572339
 5.4901438715582280  3.3839583797767876  3.8598704432218707
 9.5641894591652044 13.9238100421671067  8.7675860605996174
 3.9238316803928868  2.8143298441804863  4.3496999975891004
 9.3430671079983743  9.6283557680639493 12.1243186143945625
 2.5075200424841171 13.4420642296192110  5.8342058838014168
10.6926038217660970 11.1254351785827819 13.5782480567341519
11.3505173315082519 13.2777794305261221  9.9344108421036044
 6.2498101312453826  4.7718800133317352  2.5123958488526394
12.2628100079175351  9.0416461656170863  7.4021050485218396
 3.8798735335892651  3.4596271143226467  2.1298766202149242
 1.4251510460462491  7.7653985422795699  1.7146796104790827
10.6291783615257369  8.0277164519461177  9.1327861940460284
 9.2526109961186531 10.2974768535721584  9.9273909655551744
 3.3109980782054151 11.5049837603968665  4.5815082681263135
 1.5108457530007282  3.4324251431396089  3.9340545299763985
 3.6678353788259415  5.2115716398032745  6.6434190354168621
11.6512880994755488 10.8267514901148640  8.7748471611864236
10.3225469970970725 11.9190021033428319  8.6048936500325421
 0.6537034703830749 11.4615446192129813  0.6219047711827965
 3.1029120541356932  0.8443356292371238  3.2313507346673589
13.9824466274390549 11.8591371199032327  7.6299929232609003
 9.5526278028681677 13.4505556159372315 11.2789762433402760
 8.0121757656690260 11.7485438155584223 12.0700435900817080
12.7423558994149975 12.3144871795769628  9.9407038890787565
11.2219065814099555  9.8829661105684483  3.7690131672606739
 4.3683520119671311  8.7563026999620757  7.9282031712785717
11.4118613210922266 11.8350179000061910  5.3996118981463024
 2.6495262486824114  7.2790280716010081  3.7881549177523439
 9.5856533547307787  6.5200127346751700  0.9883766753676841
12.9931098863247936  4.0905966004887446  5.4677159444756285
 1.1354391653684193  8.1834651672171574  6.1615691134568316
 9.3912701332615693  1.2838898817063473  1.1279753358075197
12.0209075947113657  6.7234492974918574  5.5147826950758763
13.1749283033885991  3.1800147579163394  3.9625344922607688
12.9636416676494957  6.9970430430567241  2.3006872671300549
 3.9893313610867178 10.5521190449413549  2.5362923482288515
10.1039956432274440  6.6150863046806503  4.5762053098841697
 0.5601950915492457 11.5139467490371405  9.6535017589182477
12.1634388134821325  5.9712162837875304  3.5095154355712328
11.5810758248697550  5.9901821866896245  1.8814670979180370
11.9945638128558603  1.7758629960256158  1.6765230675742515
 8.8537109007669539  2.6453443763166469  5.5919007336979689
10.2664577618745394  3.0920738764633313  0.3245217574328478
12.4179471296054036  0.2735549652036191  5.5102414814773528
 8.8106739215077692  7.3255773988442474 12.8839597814633340
 7.6939040273004249  5.6847730251411246  2.2834956463220273
 1.0337643058108910  1.2157026456633275 10.3852010280878506
 1.0615928123599687  0.2417656405946982  8.9903364600258282
 3.2333574627694208 12.2213532319108591 13.1388340944477928
10.9767160230364222  1.9617483489614340  4.4996153885943464
13.6816264353813732  2.4567697891433422  5.5025861330795429
 7.7218112008733417  6.6141741923162005  5.4248877172540748
 6.8759553526109904  5.4342397691931392  8.7870854133255154
 9.3361514122122404  6.5376512877623512  3.0975724543522549
 4.9881901771538608  7.8643052521207615 13.4061202736278684
 6.2660370768626468 12.7139702170948627 10.6250540242213933
 1.4112732553884157  6.1227284136360609 13.9102578600214510
13.6424128170030112  6.9777214352820547  4.9072219957928862
 4.0270498418950638 11.9129437207493982 10.2300105741738410
 9.2301904037985185  2.0787860810332468 11.1818238567129224
 6.6704673659126197  0.8550329510989148 11.7018892613520844
 0.5483288540242945  5.6075817526092138  6.8585085635139986
 9.8025362617534153 12.3193511285497035  5.9333512895245661
 3.9800017012295683 13.4367223627748569  7.8346357979953787
 2.6512336461095423  3.9765003877952445  0.0768151305041656
12.6203941654728009  9.1824441570495221  3.0776135868518644
 4.7380066880956768  2.2744145017301953 12.3471689863339815
13.2953809721316514 12.4617041311689523  6.1341230874925028
 1.3725670076738332 11.6595456720821797 12.3746436981871337
13.2502707312003825  7.3006751787731385  6.6017638836207748
11.4941636898554034 13.2801940867855830  0.7616925548487661
12.9149791543675700  3.7300346612737840 13.9872768837040002
10.4618653999294278  1.1140008310463507 10.4837479997198688
 8.1709424363527514  1.5795969024728738  7.7325732158149343
 6.7303417189147865  8.0357773759539590  5.2873177920889347
 1.6713152229549042  4.9394147214193360  8.0365804226484148
 3.5235856088131552  3.6208917460741166  8.1969643613992638
 4.6051663897367305  6.4069704400418548  8.6637379120507365
13.3315799803599280  3.1458256534988731 11.3477746994793112
13.2723222457191365  1.4212464389737871  7.9894208596755245
 2.4620297495400028  1.5386349889441391 11.9399736104768781
11.8683351756261484  1.9103144716390723  8.9360019244480693
10.5618765751786672  3.8409535015497660 12.8295592088944286
 0.5931323823738195  1.1792927483440749 12.6910207756835849
 8.7740576461369333  6.6263036946659923  8.2429341940755947
10.7693373128895988  2.8169806936051582 10.7985707762544774
13.4800603462333637  2.5087351780811673  9.3242270171247110
 3.2303651286320303  9.3692645122634755  5.8469362718029352
 9.0720973170009938  2.9732521313845943 13.1371189000259445
 0.2918535812189056  3.9751096647934983  7.5011252722426764
 4.4710513352715431  1.5098162786285076  9.0065691647455441
 7.5075255152851916  4.7321579511656449  3.7753979308001071
