# Amorphous model                       
    1.000000000000000     
     9.7799802947684995   -0.4957487284905954    9.6485178724560914
    -0.0000000000559634   14.1376254625744888   -2.7389233774392143
    -0.0000000003655025   -0.0000000004709636   13.6913722593263749
  C               H             
    86   150
Direct
     0.9102388014012344    0.6280740485131414    0.8955350856245783
     0.7019995702990249    0.4346625175111065    1.3733665188114854
     0.7368261890495180    1.0636593616559500    0.3161862361953131
     0.5479514384962725    1.0490969438042235    0.5658522043982689
     0.7063479373525205    1.0563803749955112    0.4494476464988282
     0.8318792086911712    1.2055337918380131    0.2010867684953037
     1.1491543296362763   -0.0238464196510790    0.7578602280504348
    -0.1727466254704184    0.7256766422519392    0.6700523140152335
    -0.0212674512797193    0.7537121134683561    0.5583506027384083
    -0.1914783339823691    0.6296919658662953    0.6130577690194511
     0.8749813866566510    1.0495794932427698    0.1728944685425566
    -0.0567171009516667    0.5853611322409433    0.5167991676858715
     0.9969002456275110   -0.0330471258260641    0.8521434285000133
     0.9421950530572768   -0.0379961098291508    0.5045615028413962
     0.9806996614643907   -0.0187020511808321    0.7510686925189642
     0.9121852852242990    0.0276990307119495    0.4512251739719250
     0.6888208341280389    1.1568332994194046    0.3197141240194656
     0.9737142652459306    0.5190862347448435    0.2910579934592243
     1.4056135539717276    0.7859216923163763    0.0791533161230956
     1.4428295179106412    0.8886036390799019    0.0988215364287184
     0.1114479167304185   -0.0249776516563054    0.6036443083229207
     0.9088454418269927    0.4675540585710929    0.9556303157169909
     0.5523049211168728    0.1337114075991546    0.8992371735492652
     0.8431921107788771    0.1610013918617544    0.6170929344451487
     0.0389999631094660    0.6657926515635108    0.4594553826631343
     0.7122676395246640    0.4754277873846726    1.0949175983346242
     1.1556245435108685    0.6014861099285972    0.7044361113718312
     0.5215274383029013    0.8248123568160596    0.7604843654916960
     1.6651043408430222    0.1136626389381655    0.0752795433710205
     1.1214633120850268    0.2255179198824312    0.6195096443960229
     1.5685430104747422   -0.2248485355058023    0.0901172248145796
     1.5332133518160835   -0.0419518858692365    0.2091308476426480
     0.4450060637354540    0.9224524088657843    0.4966380663974668
     1.3898044712800974   -0.0645299398797180    0.3630936654013339
     1.3780874633927833   -0.0062354127068875    0.4974767884333332
     0.4164388397662926    0.7513153991234351    0.7697277819665472
     0.4672617368528619    0.9490979637531625    0.5935211235691921
     0.7369585654717531    0.5451203334462409    0.4133638171383880
     0.7058081615349879    0.4227829709102665    0.2573374439005554
     0.4484283248177040    0.4606538159779337    1.6047941069471043
     0.4220795192123709    0.3247743036470718    1.7190932666847190
     1.2272255515358597    0.0202299219029391    0.6218372328256363
     0.5680379814316915    0.3939249443013816    1.4950668093582191
     0.3495364692600433    0.4146169591107281    1.7475441787400054
     0.5136324292261445    0.8677415081580351    0.6017290976004176
     1.1241064383559574    0.5692773482481297    0.8233156635918356
     0.5750407128882614    0.3397786065002331    1.5844846039079643
     1.2066757381694715    0.2622008043969634    0.6517920243057483
     0.4166688094790286    0.7743625934528736    0.6636421967257843
     0.5407674390878856    0.9062973004778181    0.6951539273946862
     0.9633512865516676    0.5655692364038497    0.9376553457898535
     1.0453865874951018    0.6672506273554287    0.7507022937311268
     0.3912377199815730    0.2551027141412038    0.9901115469447269
     0.9492761699305698    1.1462590793390071    0.1361232575847420
     0.4303360797246381    0.1434976548681523    0.9136111878477716
     0.4872966036862251    0.5088257357752178    0.3511054260478591
     1.0330098735235718    0.7827526082876249    1.0994708208485697
     0.0170846080400443    0.4157994492459972    1.3932440077234716
     0.8536615315315060    0.3415240579872010    0.7102525571024393
     0.3104157808698678    0.4285825772755159    0.3596475421807705
     0.9268455529502841    0.8356834892074162    1.2345676937504366
     0.6326312230408864    0.2394153027581440    0.8597424721332603
     1.1581187667667563    1.0147814228286318    0.2866265938064835
     0.8827663597489880    0.3252091301563328    0.7959126592482934
     0.5363569121613417    0.3113642415383248    0.9220319885995136
     1.0836531760753114    0.9383941914740223    0.3707458296571908
     0.7649091353016677    0.1363896312551862    0.4934244267415066
     0.9700803525121909    0.2395752553860043    0.7484513579867650
     0.8855207266284000    0.5778877696740690    1.3007048962557703
     0.6495561386580131    0.4977861371712353    0.2397335104356124
     1.0621630477162971    0.6976441788397947    1.1294022539967075
     0.3825427211370085    0.5091944226542590    0.2627545356286597
     0.8333629908611956    0.7529161095302906    1.3375620664507448
     0.4348839133995099    0.5764353665194853    0.3280319788762400
     0.4067357803212392    0.4143179212446305    0.3747843463817132
     0.9436868329269332    0.6804742669431592    1.2776570284668123
     0.5283477496674388    0.0608416688946732    0.1905433045204630
     1.4330370199335607    0.7299515840834264    0.1404670336606605
     0.9543182273325082    0.4203670727183098    0.8145944629787821
     0.7648618700410877    0.2544320596741458    0.7099104790335166
     1.5581975026510213    0.8840835269093561    0.0917730579340606
     0.7932839203307968    0.0951881023094008    0.5635058250779822
     0.9407556593263263    0.4973986337163909    0.4255399181025791
     1.0480587803340593    1.0731192741407471    0.3218866923011250
     1.1191139868852245    0.2662290713717979    0.8078798967103699
     0.9664527738181231    0.2315839280171056    0.8613945563799594
     1.1173645162962278    0.3424406347882926    0.8455573982555193
     1.3806928117822526   -0.1423490785939951    0.3696627993862413
     0.4782621801577167    0.5354124472908999    0.4383435445301940
     0.3203461355225553    0.4736627166072718    1.8304630936418380
     1.3400774831441880   -0.2458031169689385    0.2607850251801992
     1.3020074523068192   -0.0499916835886269    0.3818699083167753
     0.9061572453854660    0.5641123108781013    1.2008721125410853
     1.1284703077099549    0.8250969472207068    1.0247603260630731
     1.3758225959160229    0.8603029008388048    0.5206454463756061
     0.8585242017119668    0.8940264292927333    1.2567655896628362
     0.9309263761055470    0.0225054753455053    0.9406293610094366
     0.6198988529722290    0.2670204119934423    1.5325881234410978
     1.6209135929107470   -0.2428789068269521    0.1207427193678366
     0.9549369925033936    0.1593521179456446    0.8727842191232973
     1.0739301552504665    0.8820765408685571    0.3176080286787852
     1.1907407901694154   -0.0873031415927250    0.7486941021249747
     1.7492160866375712    0.0653695928964947    0.0187545668702105
     0.9621496117463191    0.7043745171344540    1.3480499453270758
     1.2060478422746450    1.0606828945157205    0.3224244890236924
     0.9845028251850459    0.4402374837148381    1.2490066428876425
     0.6209075147338451    0.3707500570157357    0.6176391524703895
     0.5374814285375804    0.3210569391811386    1.4596412983955416
     0.3950636408999414    0.2540863801123365    1.6953353539864422
     0.8435145602468991    1.2761095445438435    0.2416755797065965
     1.4805781966042804    0.9373284481891506    0.0199238304949161
     1.6588349568383276    0.8948993073625692   -0.0196857290127740
     1.0792959597905323    0.5484943256892068    0.2297250676641373
     0.7183439247491388    0.5827846023868622    0.6909184607063872
     1.4778406549943603    0.7669694023870269   -0.0380787192569245
     0.9365595073120803    0.5476378660895403    0.5889997480961252
     0.6667795906990936    0.5826477364895017    0.4208603665659365
     1.4144112055959397    0.6513742641867412    0.1273135363306232
     1.0643716919150106    0.6407859550163498    0.0557372608516095
     1.1487472407241324    0.9109275257906880    0.3853782906996247
     1.6609238747937791   -0.2475381475035905   -0.0159021013674049
     1.1704812295625535    0.0226629122147798    0.8122962517254599
     0.9470238389487888    0.0500916639211619    0.7961990309419129
     0.8841758828194165   -0.0263752123402690    0.3908275510016198
     0.4045720230710907    0.3163089756081192    1.8038488509686736
     1.1186551026923506    0.4131814579263227    1.2880288061633713
     0.7780516721196322    0.7784011560486365    1.4471046621633863
     0.2480457511279911    0.3904167181658805    1.7945053123977082
     0.7694488472430432    0.3836009988330673    1.3415205947733952
     0.4971092248564681    0.5260073324890262    1.6035896296656582
     0.4022112895417047    0.4645977550239773    1.5582301956786233
     1.2397835080429058    0.9992801501891500    0.1696922740492552
     1.4732777859734449    0.8327791630747435    0.8639831782573099
     0.8488858460218743   -0.0853570370218819    0.5558022142365669
     0.7607973823652757    0.7123723010335051    1.3300464918477211
     0.8113310136314041    0.4036592243647331    1.1671790532089699
     0.9870931866756261    0.7512286011319125    1.0572745457556871
     0.9529386358681591   -0.1030230898131319    0.8988686696776261
     1.2035290138419439    0.0959156421865814    0.6454684876347010
     0.9614440671311759    0.8804328126162009    1.2793639573068853
     1.1611024305286617    0.7107115448830778    1.0975093057367378
     0.6568705324316014    0.3495838143631618    0.2774710808567776
     0.1359900679365471    0.6397233053611080    0.4150176550649980
     0.6934036642465680    0.5431668988534505    0.5243950746934432
     0.7267063107082118    0.2882472626854983    0.6724197535880515
     0.6991550022452762    0.0580456216188674    0.6423090101382712
     0.7895627310862855    0.3109027142390262    0.9004188936633689
     0.6809461304893899    0.4082888087776622    1.0641711341824369
     0.5589035729196004    0.3612396959945578    0.8494400625513299
     1.1621859778122245    0.1549295332048701    0.5743449439050600
     0.5988066205713369    0.0640992707187507    0.8466837366254631
     0.3616296032212454   -0.0311498209370085    0.7012539044468653
     0.9108179936167831    0.1840343337528831    0.7410480282719417
     0.1398229937204489   -0.0938454447008148    0.5511481246203499
     0.8621842311283807    0.1301487472052448    0.6734358206322050
     0.9625997265856403    0.4843019508149809    0.7798142013803340
     0.9393632219503646    0.3748629359765350    0.6150674197535462
     0.6708494651070562    0.2494919772168090    0.9051279457592436
     0.5233571659661588    0.1213405407881002    0.9940829953081404
     0.9396033202716911    0.4180187055851537    0.9801310996021041
     0.3340271341523423    0.2796777747321770    0.9691159313422705
     0.1199821776576542    0.0232868157383448    0.5439339344580658
     0.3524422926016533    0.0930154376480918    0.9685850899134203
    -0.0960314731114665   -0.0656305159177606    0.7658373221392829
     0.7816098670198540    0.3992828105084439    0.7781587301671145
     0.5406728013375370    0.3676416171888324    0.9856933160098100
     0.9529155263283675    0.1729912581267403    0.5206291532802493
     0.8540351589965516    0.1776411499343195    0.4105241341662569
     0.5001357672810667    0.0647784625562542    0.6714938286118503
     0.3084170355526064    0.5485758758512710    0.2789479171363758
     0.2984072365114280    0.3601946884046696    0.3154647441074841
     0.4612969858932321    0.0711351228420734    0.1777396978226886
     0.4848741217321825    0.1061473438024405    0.2870031226106894
     0.6515266006126704    0.1467005901879318    0.0181989239058817
     0.4470103939956016    0.0575939242264434    0.4470879966303147
     0.4495565828578937    0.4740323304950690    0.1496518010327022
    -0.2138404803441876    0.6460457379550559    0.5490044062678084
     0.6570416778737653    0.5381294834733108    0.0928685843786757
    -0.0423766694867977    0.3509648251407528    0.3986596392623682
     0.4714857059029782    0.3539666671679566    0.3104119383062686
     0.5114978071581227    0.6304835244408780    0.2661671388490158
     0.3385436732376984    0.2548078941816869    0.0953426889796820
     0.2185026806110148    0.4489385224050296    0.4567730881063081
     0.6050042547187332    0.1633264388316240    0.3361419898279152
     0.0605807863835279    0.6792851717475896    0.3704461285967750
     0.3497370323570343    0.3945258270279235    0.4757573581235574
     0.6837386039460506    0.1919580508123087    0.5862710950813502
     0.6807637691922321    0.0018990751991319    0.3181530347710291
     1.3473633988102240   -0.0810317409784072    0.1842457248794747
     0.4990835056803475    1.0754754487251745    0.5434031526714370
    -0.1944793692879855    0.7183191331366158    0.7632222997765543
     1.2938339682607523    0.7790027845602409    1.1314920908965991
     1.0497157973088123    0.6832207654115284    0.6628776462947844
     0.8505093278598664    0.5846812830898689    0.8833521253921275
     1.1859158211919238    0.5063721765097318    0.7852270624077680
     0.3045148151117024    0.7468632096599166    0.8690408322374960
     0.6397019848341997    0.9481699131222689    0.6373745582679953
     1.2623733545674518    0.6321946128596218    0.6306126051126152
     0.4844681534860017    1.1426007259556679    0.8033234718862101
     0.4656890194717702    0.9579916201049511    0.7781048420431403
     0.0562021621844968    0.4133455449574999    1.4427667231872989
     1.0585467926625609    1.0722643139009886    0.2392114771101574
     1.0702422910688867    0.3970613642353979    0.7266251621585949
     0.8975622901152260    0.2842926221610071    0.9422496671661879
     0.3131619315149133    0.7899772152874875    0.7157790642830666
     0.4504076354824377    0.7221999672541367    0.5779412388644005
     0.6882730121350442    0.5610570545184975    0.2561629710779731
     1.6815454964103065    0.1739085748317078    0.1202274315620959
     0.8390005158856192    0.4648399463005405    0.4987228084420577
     0.9319168066635787    0.0004638795422788    0.5889000789362049
     1.2444538774399521    0.3400844910969382    0.6227728246664720
     0.4514673383173189    0.6822601117163597    0.7604763286435876
     0.6079370778335720    0.8435135352350994    0.5010586637916038
     1.1773227246949087    0.6262621298678896    0.8444834282157972
     1.0133920791539222    1.1538041818398617    0.1560891315973771
     0.6635353143475762    1.2016261562142680    0.4108459700326488
     0.7521375283929559    0.9929205126986737    0.4348982909458072
     0.0155833402175030    0.7699798219497209    0.6094303794039156
     0.6163494427230993    0.9640259971920317    0.2038291306022078
     0.8470297893952879    1.2057471774142816    0.1179862563920109
     0.9303773139352136    1.0039841853955891    0.1728404529297091
    -0.2435138369997440    0.7812458933227433    0.6823756994107513
     1.0169073214948945    1.1526132698675646    0.0287745112404442
     1.3123678032740029    0.2240210930636896    0.5828471996816568
     0.0181279170620260    0.8125580068276906    0.4942142074096196
     0.3376501703390574    0.6151810520140493    0.4273711569551924
     0.8513702988804861    0.6907419961452701   -0.0283323474325060
     1.0615237032583191    0.7417443519937185   -0.2126094358637325
     0.5532544400218111    0.9061190198909451    0.3928161790115769
     1.1490157353970174    0.5317971400009907    0.6507103250399684
     1.0575580215336540    1.1485517905160800    0.3513317187636771
     0.6250327838909099    0.7879119388390877    0.6817721430028673
     0.9137566502973143    0.6029433561167173    1.0399583546088658
     1.1479238486447507    0.2483921801365712    0.5299085002311474
     0.8496272777560112    1.0212445623813555    0.1166877511808249
     1.1465510617224239    0.2179905449592206    0.8401249039899047
Lattice velocities and vectors
            1
 -0.41297334E-03  0.46276942E-03  0.65066609E-03
 -0.10210674E-02  0.55047176E-03  0.27964216E-03
 -0.21697708E-02  0.13129277E-02 -0.10436729E-02
  0.97804063E+01 -0.49633634E+00  0.96481391E+01
 -0.55983833E-10  0.14137951E+02 -0.27382693E+01
 -0.36549605E-09 -0.47095125E-09  0.13690955E+02
 
 -0.65515413E-02 -0.78568448E-02  0.63948811E-02
 -0.11198991E-02  0.79307234E-02  0.24494999E-02
  0.82060682E-03  0.88989334E-02 -0.76744701E-02
  0.70426560E-02 -0.11941004E-02  0.88234121E-03
 -0.74860348E-02  0.68838437E-02 -0.38093300E-02
  0.19294771E-01  0.35882620E-02 -0.12232556E-01
  0.20275125E-02  0.12249092E-01 -0.17074656E-01
  0.99305567E-02  0.13286017E-01 -0.26804558E-02
 -0.40982526E-03  0.76539502E-02  0.66818872E-02
 -0.57308374E-03  0.25626702E-04  0.45668982E-02
 -0.82132720E-02 -0.60810655E-02  0.56726330E-02
 -0.18925321E-02  0.54706581E-02  0.23975023E-02
  0.20888942E-02 -0.52019436E-02  0.57433679E-02
  0.78452534E-02  0.10388566E-01 -0.38585885E-04
 -0.31720182E-02  0.10258692E-01  0.56833627E-02
 -0.11644825E-01 -0.50410925E-02  0.67720903E-03
  0.62256010E-02  0.47843583E-02  0.13108729E-01
  0.54732310E-02  0.40635616E-03 -0.25537872E-02
  0.58908476E-02  0.64183042E-03  0.14837196E-01
  0.70366885E-02  0.16032454E-02 -0.95203715E-02
  0.26342267E-02 -0.22077044E-03 -0.51728367E-02
  0.12690333E-01  0.83941440E-02 -0.79762092E-03
 -0.13500254E-02  0.61169721E-02 -0.53279156E-02
  0.30812597E-02 -0.64462180E-02 -0.14181134E-02
 -0.13550254E-01 -0.33861439E-02 -0.82436283E-03
  0.12123413E-02  0.34262528E-03  0.78590680E-02
 -0.90691579E-02 -0.45723509E-02 -0.10081995E-01
  0.71206661E-02  0.12418281E-01  0.85963589E-02
  0.58596682E-02 -0.72421051E-02 -0.12461943E-01
 -0.25072132E-02  0.14611458E-02 -0.94941673E-02
 -0.28019438E-02 -0.11418936E-01  0.26946718E-02
  0.90604134E-02 -0.13010775E-01  0.35239615E-02
 -0.16544677E-03 -0.23416302E-02  0.54691280E-02
 -0.33479392E-02 -0.13734296E-02  0.11044766E-01
  0.10410862E-01 -0.20677721E-02 -0.12990458E-01
 -0.29229521E-05  0.14353393E-01  0.50902529E-02
  0.58392285E-02  0.83318906E-03  0.18736329E-02
 -0.30507317E-02 -0.18060526E-02  0.47930716E-02
 -0.29091922E-02  0.34719837E-02 -0.44423648E-02
 -0.45315331E-02 -0.50783965E-02 -0.32068349E-02
  0.85370393E-02 -0.38694141E-02  0.23009380E-02
  0.28165907E-02 -0.32261823E-02 -0.30480829E-02
  0.15049622E-01  0.71935727E-02  0.11525911E-02
 -0.35248187E-02  0.62482687E-02 -0.97960872E-02
  0.12237512E-02  0.10485271E-01  0.10437786E-02
 -0.15549211E-02  0.17094889E-01  0.65541411E-02
 -0.14653724E-02 -0.86704161E-02 -0.11058425E-01
 -0.10707694E-01 -0.27919643E-02 -0.58347899E-02
  0.54476365E-02 -0.13725609E-01  0.99688239E-02
 -0.44103603E-02 -0.18067322E-02  0.11395236E-02
  0.74521660E-02  0.13797275E-01 -0.25121908E-03
  0.27734368E-02 -0.97555945E-02 -0.74354986E-02
 -0.52344569E-02 -0.66508498E-02  0.38532409E-02
  0.79206608E-03  0.48580630E-02  0.23412156E-02
 -0.83153791E-02  0.71889883E-02  0.19293744E-02
  0.11776611E-04  0.99136407E-02 -0.70505607E-02
  0.18824115E-04 -0.64746035E-02  0.58399599E-02
 -0.26472780E-02 -0.85500115E-02 -0.10489486E-01
  0.93916514E-02  0.11120152E-01  0.33563772E-04
  0.99942296E-02  0.35553606E-02  0.78789334E-02
 -0.68205658E-02  0.19814145E-02  0.13136295E-03
  0.14470969E-02  0.75971218E-02 -0.19993007E-02
 -0.74273460E-02  0.36522894E-03  0.16327861E-02
  0.48493773E-02  0.11868685E-01 -0.27200026E-03
 -0.26735444E-02 -0.92709693E-02  0.79746461E-02
  0.29026385E-01 -0.15731358E-01  0.33760547E-02
 -0.15119238E-02 -0.65028176E-02  0.24350739E-02
 -0.29349383E-02 -0.64871433E-03  0.12113181E-01
 -0.46735188E-02 -0.43441708E-02 -0.39971523E-03
  0.35260146E-02  0.98925847E-02 -0.58493455E-03
  0.47849545E-02  0.49796286E-02  0.42993976E-02
  0.15769663E-01 -0.13583952E-03  0.26687280E-02
 -0.11862442E-02  0.61262964E-02 -0.32560276E-02
 -0.92072674E-02 -0.20216353E-03 -0.11794649E-01
  0.11059944E-02  0.26245030E-02  0.72873520E-02
 -0.13523988E-01 -0.68980099E-02  0.43470127E-02
  0.88346007E-02  0.44085665E-03 -0.44028475E-02
 -0.10396664E-01  0.43529070E-02 -0.23793953E-02
  0.94191581E-03  0.45062573E-02  0.10238484E-01
  0.99544947E-02 -0.72736900E-02  0.71232140E-02
 -0.67925975E-02  0.17428493E-02  0.36949559E-02
  0.10090872E-01 -0.42583749E-03  0.12046692E-01
 -0.10296272E-01 -0.74612587E-02  0.11529972E-01
  0.70880478E-03 -0.13651650E-01  0.72752973E-02
 -0.76906552E-02  0.56989126E-02 -0.57224722E-02
  0.53491119E-02  0.11636238E-01  0.11268378E-01
 -0.14847162E-01 -0.71966485E-02  0.43931432E-02
  0.34563776E-01  0.19618672E-01 -0.44492870E-02
  0.24038651E-01 -0.33988338E-01 -0.49349875E-03
 -0.20810415E-02  0.44778455E-01  0.73002240E-02
  0.40455173E-01 -0.89353202E-02  0.20792328E-02
  0.10085770E-01 -0.33920745E-01 -0.15269689E-01
  0.61036439E-02  0.46418601E-01  0.15971731E-01
 -0.21187823E-01 -0.11553740E-01  0.16149703E-01
  0.10158105E-01  0.32883853E-01  0.41252241E-01
  0.21115056E-01 -0.36169354E-02  0.15714203E-01
  0.86358352E-03  0.21041703E-01  0.24918199E-01
  0.27707266E-01 -0.10632026E-01 -0.93426323E-02
 -0.34997598E-01 -0.11917335E-01 -0.44597432E-01
 -0.41426103E-01 -0.99461895E-02 -0.37309897E-01
  0.19775542E-01 -0.16330813E-01 -0.16464366E-01
 -0.16084419E-01 -0.36353223E-02  0.48720789E-02
 -0.21283112E-01 -0.26016952E-01  0.30101172E-01
  0.25500946E-01 -0.76827884E-02  0.19381565E-01
 -0.90909087E-02  0.86308576E-02  0.13016694E-01
 -0.15487168E-01  0.30389360E-02 -0.40280913E-01
 -0.15077891E-02  0.21070952E-01 -0.49343164E-01
  0.30629163E-01  0.33516703E-01 -0.44481683E-02
  0.16523469E-01 -0.18264616E-01 -0.71736159E-01
  0.33885692E-01 -0.47744155E-02 -0.33150933E-02
  0.57060204E-01  0.45150501E-01  0.43181848E-02
  0.11336186E-01 -0.37042694E-02 -0.66636911E-03
  0.29789054E-01  0.10293617E-02 -0.29788938E-01
  0.47176109E-01 -0.24649560E-01  0.57561031E-01
 -0.38152204E-03  0.12235998E-01  0.73785470E-02
 -0.14496820E-01 -0.25591542E-01 -0.40745538E-01
 -0.17200584E-01  0.18829790E-01 -0.13717744E-01
  0.22278442E-01  0.29257418E-01  0.42145215E-02
 -0.34935472E-01  0.45327929E-02 -0.22469883E-01
  0.10714447E-01 -0.14637871E-01 -0.14239112E-01
  0.72337370E-02 -0.61413196E-02  0.17344074E-01
  0.38468503E-02 -0.57963860E-02  0.19403917E-01
  0.13106210E-01 -0.80086634E-02 -0.15759039E-01
 -0.44985541E-02  0.94435914E-02  0.10808809E-01
 -0.26559796E-01  0.10532556E-01  0.26219091E-01
 -0.33464444E-01  0.86208901E-02  0.52253596E-01
  0.21285407E-01  0.47885175E-01  0.29185262E-01
 -0.24107701E-01  0.29893900E-01  0.12057169E-02
 -0.26502396E-01 -0.46455186E-01  0.20405772E-01
  0.12190539E-01  0.10833390E-01  0.13634062E-01
 -0.13072231E-01  0.45437342E-01  0.67502404E-02
 -0.36055733E-01 -0.14868329E-01 -0.30726934E-01
  0.17822142E-01 -0.47558209E-01 -0.25373939E-01
 -0.21560932E-01  0.57957290E-01 -0.35070987E-02
 -0.59321330E-02 -0.21895894E-02  0.31704073E-01
  0.43198393E-02  0.22450133E-02 -0.26117031E-01
  0.28394717E-01  0.12750902E-01  0.21582208E-02
 -0.15255773E-01 -0.15458309E-02 -0.52140864E-03
  0.48052693E-01  0.10591892E-01  0.12581364E-01
  0.27527768E-01  0.11718073E-01  0.14962584E-01
  0.23932699E-01  0.16649770E-01  0.14983885E-01
  0.30295273E-01  0.90544234E-02  0.12091419E-01
 -0.26126774E-01  0.16009918E-01  0.39838074E-02
 -0.42653969E-02 -0.22015172E-02 -0.14175602E-01
  0.26856041E-01 -0.63621332E-01  0.24951092E-02
 -0.33811478E-01  0.66943957E-02  0.18817290E-01
 -0.21100905E-01 -0.19585416E-01  0.19353698E-01
 -0.29500510E-01  0.48021081E-01 -0.12995749E-01
  0.21232816E-02 -0.10532703E-01 -0.28136483E-01
 -0.35580890E-01 -0.14665247E-01 -0.23546926E-01
  0.14079034E-01 -0.68188297E-02 -0.47571532E-02
  0.82130218E-02 -0.22235612E-01  0.24604661E-01
 -0.59568527E-02  0.23401472E-02 -0.80251017E-02
 -0.27849303E-03  0.21035492E-01 -0.95546362E-03
  0.19359734E-01  0.22053677E-01 -0.29597892E-02
  0.11136604E-01 -0.22225961E-01 -0.32668995E-01
  0.70800061E-02  0.18071635E-03 -0.57210021E-02
 -0.15740953E-01  0.21088929E-01  0.37921903E-01
 -0.49992221E-01  0.33324751E-01 -0.23164449E-01
  0.67456397E-02 -0.25230684E-01  0.24944406E-01
 -0.73044176E-02 -0.13791271E-01 -0.11870783E-01
  0.43178758E-01  0.45464242E-01  0.56459757E-02
  0.27460880E-02  0.27728694E-01  0.17336202E-01
 -0.62757991E-02  0.49747048E-01  0.89439885E-02
  0.54958640E-02 -0.65253107E-02  0.26697337E-01
 -0.49414436E-01  0.26745151E-01 -0.32359342E-02
 -0.53752260E-01  0.95390365E-02  0.55482638E-01
 -0.66047453E-02 -0.46588120E-01 -0.20758452E-01
  0.18846862E-01  0.30284908E-01  0.92732180E-02
 -0.10405132E-01 -0.11213488E-01  0.19773692E-01
 -0.32665112E-01 -0.23500386E-01 -0.35155723E-01
  0.31459483E-01  0.93992580E-02 -0.98156539E-03
 -0.22899261E-01  0.32312269E-02  0.22145909E-01
  0.13034664E-01 -0.17555654E-02  0.41919330E-01
  0.25139369E-02 -0.12598549E-02  0.24206052E-02
 -0.13727789E-01  0.33785503E-02  0.31545160E-01
 -0.36558399E-02  0.20659014E-01 -0.21828453E-01
  0.11416477E-01 -0.22337354E-02  0.16996356E-01
 -0.10890001E-01  0.13202849E-01  0.54737856E-02
 -0.52166249E-01 -0.28571560E-01  0.37914002E-01
  0.23197817E-01  0.24958395E-02 -0.30402663E-01
 -0.23570869E-01 -0.84337371E-02 -0.13182826E-01
 -0.10973607E-01 -0.25470595E-01 -0.33134436E-01
 -0.54555926E-02 -0.53947645E-01  0.20470360E-01
 -0.44563662E-01  0.10644433E-01  0.66230082E-01
  0.15588943E-01  0.16313735E-01 -0.50313915E-01
  0.16621177E-01  0.14995831E-01 -0.32930280E-01
 -0.27433742E-02 -0.48457600E-01 -0.29960001E-01
  0.37285430E-01  0.17066806E-01  0.12294464E-01
  0.11847958E-01 -0.23890180E-01  0.12081690E-01
  0.12319150E-01  0.26948831E-01  0.21548463E-01
 -0.27832347E-01 -0.13057946E-01 -0.98482590E-04
 -0.22012138E-01 -0.11232370E-02  0.34689013E-01
 -0.27652361E-01  0.10032718E-01  0.28719313E-01
  0.34823537E-01 -0.18242378E-01  0.77389861E-02
  0.20067858E-01 -0.28054489E-01  0.29746067E-02
 -0.32135589E-01 -0.97990284E-02 -0.25335860E-02
  0.14210040E-01 -0.51556448E-01  0.82157312E-02
  0.25241122E-01  0.25988868E-01 -0.38252516E-01
  0.49883558E-01  0.21273992E-01 -0.24790475E-01
 -0.45152996E-02 -0.23564702E-02 -0.89834967E-02
  0.54041818E-02 -0.11621346E-01 -0.58034164E-01
 -0.24791290E-01 -0.44041362E-02  0.38314932E-02
  0.10086449E-01  0.76490490E-02  0.47316238E-02
  0.83299181E-02 -0.12261260E-01 -0.70427424E-02
  0.52020094E-01 -0.17524601E-01  0.30455177E-01
 -0.25657953E-01  0.13301244E-01  0.17511948E-01
 -0.15344385E-01  0.25096859E-01  0.10167221E-01
 -0.15247625E-01 -0.13065860E-01 -0.40313782E-01
 -0.47747662E-01 -0.12196164E-01  0.53385039E-01
  0.23384014E-01 -0.24953334E-01 -0.21187442E-01
  0.20634019E-01 -0.21561434E-01  0.18630486E-01
  0.31218208E-01  0.18110055E-02  0.33589314E-01
  0.13439539E-01 -0.59595381E-03 -0.23461265E-01
  0.13598663E-02  0.19826869E-01  0.24755924E-01
 -0.91291505E-02 -0.92829294E-03  0.16282265E-01
  0.10364647E-01  0.68258684E-02  0.29557422E-02
 -0.19569914E-01 -0.11869335E-01  0.90254043E-02
  0.37305877E-03 -0.31270556E-01 -0.19433754E-01
  0.44736724E-01  0.15840180E-01 -0.15745053E-01
  0.34821835E-02 -0.33497706E-01 -0.11132214E-01
  0.18288543E-01 -0.55989423E-02  0.83426100E-02
 -0.26854260E-01 -0.34189048E-02  0.50295843E-02
 -0.42987201E-01  0.16635752E-01  0.25987697E-01
 -0.25246828E-01 -0.37849693E-01  0.15517121E-02
 -0.20619429E-01 -0.96177245E-03 -0.48119134E-01
  0.99416017E-02  0.31176461E-01  0.27246843E-01
 -0.20087481E-01  0.22201818E-01 -0.14110668E-01
 -0.29798451E-01  0.13061103E-01  0.16573796E-01
 -0.30445621E-02  0.14453086E-01  0.18501426E-01
 -0.24783820E-01 -0.92684856E-02 -0.39652103E-01
  0.14866003E-01 -0.17770406E-01  0.33168848E-01
 -0.65049340E-02  0.22690501E-02 -0.99405979E-02
  0.73818478E-03  0.20892802E-02  0.78502399E-02
 -0.90560181E-02 -0.14024814E-01  0.13804725E-01
  0.48035094E-01  0.34621508E-01 -0.22417779E-01
 
            1
   0.4000000000000000     
  0.10000000E+01  0.00000000E+00  0.00000000E+00  0.00000000E+00
  0.90997086E+00  0.62784235E+00  0.89586440E+00
  0.70195377E+00  0.43488529E+00  0.37351492E+00
  0.73685975E+00  0.63912314E-01  0.31598896E+00
  0.54823947E+00  0.49073271E-01  0.56567027E+00
  0.70604177E+00  0.56564389E-01  0.44958891E+00
  0.83266833E+00  0.20566302E+00  0.20019912E+00
  0.14923725E+00  0.97650305E+00  0.75737283E+00
  0.82765952E+00  0.72606680E+00  0.66976582E+00
  0.97871579E+00  0.75392808E+00  0.55860083E+00
  0.80849823E+00  0.62969187E+00  0.61320769E+00
  0.87464548E+00  0.49395651E-01  0.17326015E+00
  0.94320550E+00  0.58551319E+00  0.51695417E+00
  0.99698568E+00  0.96680870E+00  0.85222219E+00
  0.94251591E+00  0.96230907E+00  0.50439530E+00
  0.98056993E+00  0.98158364E+00  0.75138330E+00
  0.91170903E+00  0.27539685E-01  0.45154871E+00
  0.68907545E+00  0.15697760E+00  0.31994654E+00
  0.97393811E+00  0.51910559E+00  0.29082951E+00
  0.40585448E+00  0.78594831E+00  0.79422347E-01
  0.44311731E+00  0.88865910E+00  0.98351673E-01
  0.11155565E+00  0.97501988E+00  0.60341676E+00
  0.90936445E+00  0.46780977E+00  0.95529240E+00
  0.55224971E+00  0.13388253E+00  0.89915465E+00
  0.84331813E+00  0.16082344E+00  0.61692710E+00
  0.38445784E-01  0.66567739E+00  0.45979878E+00
  0.71231722E+00  0.47543922E+00  0.95114558E-01
  0.15525363E+00  0.60134372E+00  0.70437446E+00
  0.52181866E+00  0.82517393E+00  0.76060261E+00
  0.66534399E+00  0.11346615E+00  0.74707270E-01
  0.12136077E+00  0.22555566E+00  0.61931207E+00
  0.56842842E+00  0.77482437E+00  0.90211288E-01
  0.53358391E+00  0.95769301E+00  0.20890165E+00
  0.44499930E+00  0.92238592E+00  0.49678932E+00
  0.38966755E+00  0.93542640E+00  0.36350411E+00
  0.37851325E+00  0.99372103E+00  0.49678849E+00
  0.41643872E+00  0.75172149E+00  0.76995781E+00
  0.46750055E+00  0.94912992E+00  0.59341396E+00
  0.73683380E+00  0.54506486E+00  0.41358068E+00
  0.70568918E+00  0.42287703E+00  0.25731031E+00
  0.44824299E+00  0.46050363E+00  0.60480098E+00
  0.42242867E+00  0.32467709E+00  0.71889500E+00
  0.22734074E+00  0.20142689E-01  0.62164955E+00
  0.56865348E+00  0.39415008E+00  0.49471176E+00
  0.34939231E+00  0.41478868E+00  0.74739391E+00
  0.51368248E+00  0.86803992E+00  0.60178401E+00
  0.12404285E+00  0.56975878E+00  0.82364825E+00
  0.57498078E+00  0.33953119E+00  0.58415427E+00
  0.20623781E+00  0.26210644E+00  0.65191129E+00
  0.41689161E+00  0.77398208E+00  0.66370034E+00
  0.54058706E+00  0.90623985E+00  0.69530284E+00
  0.96365607E+00  0.56597030E+00  0.93751344E+00
  0.45500016E-01  0.66697860E+00  0.75035071E+00
  0.39102364E+00  0.25490703E+00  0.99033585E+00
  0.94930856E+00  0.14639766E+00  0.13619655E+00
  0.42999600E+00  0.14368911E+00  0.91394551E+00
  0.48729709E+00  0.50910624E+00  0.35095520E+00
  0.33010643E-01  0.78256945E+00  0.99604268E-01
  0.16976339E-01  0.41555375E+00  0.39296470E+00
  0.85404563E+00  0.34185216E+00  0.71004848E+00
  0.31082453E+00  0.42869752E+00  0.35961268E+00
  0.92656660E+00  0.83572976E+00  0.23477736E+00
  0.63269041E+00  0.23963232E+00  0.85968576E+00
  0.15781500E+00  0.14781092E-01  0.28688830E+00
  0.88296469E+00  0.32555189E+00  0.79583350E+00
  0.53624757E+00  0.31109810E+00  0.92228880E+00
  0.84840300E-01  0.93799079E+00  0.36992721E+00
  0.76484730E+00  0.13620348E+00  0.49350191E+00
  0.96996032E+00  0.23955269E+00  0.74888534E+00
  0.88532959E+00  0.57775815E+00  0.30080199E+00
  0.64970035E+00  0.49807109E+00  0.23967179E+00
  0.62358743E-01  0.69779194E+00  0.12941951E+00
  0.38318767E+00  0.50921322E+00  0.26238176E+00
  0.83331448E+00  0.75308774E+00  0.33753545E+00
  0.43450735E+00  0.57641643E+00  0.32794896E+00
  0.40678101E+00  0.41439376E+00  0.37498055E+00
  0.94313373E+00  0.68025969E+00  0.27813089E+00
  0.52870907E+00  0.60866827E-01  0.19016508E+00
  0.43261182E+00  0.73005981E+00  0.14071881E+00
  0.95435675E+00  0.42049592E+00  0.81489222E+00
  0.76526899E+00  0.25424056E+00  0.70979339E+00
  0.55791970E+00  0.88412308E+00  0.92084694E-01
  0.79369662E+00  0.95190543E-01  0.56356744E+00
  0.94033456E+00  0.49717275E+00  0.42612836E+00
  0.48087769E-01  0.72734051E-01  0.32200177E+00
  0.11879945E+00  0.26637927E+00  0.80796440E+00
  0.96667154E+00  0.23192083E+00  0.86163699E+00
  0.11675730E+00  0.34221571E+00  0.84606868E+00
  0.38210640E+00  0.85825561E+00  0.36865758E+00
  0.47924532E+00  0.53448534E+00  0.43745088E+00
  0.32026102E+00  0.47492663E+00  0.83098915E+00
  0.34173202E+00  0.75400216E+00  0.25964086E+00
  0.30241994E+00  0.94906309E+00  0.38094405E+00
  0.90640687E+00  0.56543438E+00  0.20142726E+00
  0.12760377E+00  0.82473964E+00  0.25771358E-01
  0.37623804E+00  0.86124786E+00  0.52174691E+00
  0.85938777E+00  0.89395441E+00  0.25660174E+00
  0.93096170E+00  0.23102041E-01  0.94145181E+00
  0.62103203E+00  0.26675939E+00  0.53146440E+00
  0.61948226E+00  0.75673367E+00  0.12037093E+00
  0.95324274E+00  0.15901123E+00  0.87281993E+00
  0.74738937E-01  0.88164289E+00  0.31647031E+00
  0.19008297E+00  0.91257091E+00  0.74927483E+00
  0.74834565E+00  0.64602946E-01  0.20094086E-01
  0.96319255E+00  0.70419376E+00  0.34784508E+00
  0.20567604E+00  0.60914032E-01  0.32311303E+00
  0.98386943E+00  0.44030123E+00  0.24828889E+00
  0.62084585E+00  0.37134405E+00  0.61635978E+00
  0.53873410E+00  0.32204919E+00  0.45882702E+00
  0.39573942E+00  0.25359335E+00  0.69266465E+00
  0.84490042E+00  0.27602312E+00  0.24058481E+00
  0.48291185E+00  0.93868780E+00  0.18677324E-01
  0.65929859E+00  0.89481078E+00  0.97995037E+00
  0.80514275E-01  0.54856622E+00  0.22801056E+00
  0.72027334E+00  0.58215494E+00  0.69111457E+00
  0.47782505E+00  0.76731504E+00  0.96221698E+00
  0.93596661E+00  0.54689300E+00  0.58807815E+00
  0.66607612E+00  0.58315578E+00  0.42105694E+00
  0.41532235E+00  0.65223402E+00  0.12696653E+00
  0.62942898E-01  0.64086404E+00  0.56103274E-01
  0.14918544E+00  0.91052877E+00  0.38457372E+00
  0.66121972E+00  0.75229848E+00  0.98436347E+00
  0.17063856E+00  0.22504440E-01  0.81272060E+00
  0.94755986E+00  0.49883896E-01  0.79531932E+00
  0.88399190E+00  0.97388551E+00  0.39132515E+00
  0.40348578E+00  0.31656884E+00  0.80543234E+00
  0.11728647E+00  0.41337732E+00  0.29055913E+00
  0.77892220E+00  0.77978652E+00  0.44762096E+00
  0.24705979E+00  0.39122788E+00  0.79539759E+00
  0.76836495E+00  0.38224861E+00  0.34261012E+00
  0.49760779E+00  0.52633134E+00  0.60370142E+00
  0.40167666E+00  0.46586453E+00  0.55905753E+00
  0.23830890E+00  0.99880772E+00  0.16973923E+00
  0.47400668E+00  0.83145920E+00  0.86246419E+00
  0.84800404E+00  0.91625177E+00  0.55664293E+00
  0.76055477E+00  0.71230183E+00  0.33112965E+00
  0.81150769E+00  0.40372894E+00  0.16630545E+00
  0.98825448E+00  0.75163013E+00  0.56599537E-01
  0.95231470E+00  0.89691127E+00  0.89928000E+00
  0.20549428E+00  0.96284309E-01  0.64452487E+00
  0.96256990E+00  0.88080387E+00  0.27908194E+00
  0.16208123E+00  0.71121697E+00  0.97358399E-01
  0.65810955E+00  0.34988349E+00  0.27701114E+00
  0.13492153E+00  0.64013876E+00  0.41597015E+00
  0.69322922E+00  0.54309849E+00  0.52409017E+00
  0.72780467E+00  0.28648581E+00  0.67136633E+00
  0.69777218E+00  0.58186477E-01  0.64386144E+00
  0.78869974E+00  0.31031829E+00  0.90147561E+00
  0.67973962E+00  0.40960510E+00  0.64904952E-01
  0.55899041E+00  0.36094475E+00  0.84849783E+00
  0.16073079E+00  0.15446353E+00  0.57458927E+00
  0.59938243E+00  0.63926563E-01  0.84610443E+00
  0.36196550E+00  0.96823287E+00  0.70161259E+00
  0.91057437E+00  0.18409199E+00  0.74099678E+00
  0.13981160E+00  0.90674931E+00  0.55124719E+00
  0.86297601E+00  0.13080050E+00  0.67292173E+00
  0.96305519E+00  0.48368911E+00  0.77841619E+00
  0.93965278E+00  0.37487821E+00  0.61469927E+00
  0.67020569E+00  0.25006604E+00  0.90680438E+00
  0.52131258E+00  0.12221161E+00  0.99502127E+00
  0.93987920E+00  0.41731455E+00  0.98052463E+00
  0.33372840E+00  0.27927710E+00  0.96889949E+00
  0.12174811E+00  0.24635115E-01  0.54312409E+00
  0.35255460E+00  0.93803899E-01  0.96917014E+00
  0.90371186E+00  0.93576795E+00  0.76655921E+00
  0.78183464E+00  0.39910608E+00  0.77874499E+00
  0.53865184E+00  0.36832736E+00  0.98716011E+00
  0.95071716E+00  0.17318397E+00  0.52383790E+00
  0.85376504E+00  0.17631357E+00  0.40984248E+00
  0.50090657E+00  0.65662363E-01  0.67139835E+00
  0.30799149E+00  0.54824368E+00  0.27975908E+00
  0.29707130E+00  0.35948290E+00  0.31523671E+00
  0.46258362E+00  0.71446222E-01  0.17686654E+00
  0.48393759E+00  0.10620589E+00  0.28832184E+00
  0.65205969E+00  0.14666964E+00  0.19041788E-01
  0.44711321E+00  0.57561889E-01  0.44707986E+00
  0.44899514E+00  0.47410821E+00  0.15098426E+00
  0.78601000E+00  0.64662499E+00  0.54858788E+00
  0.65750859E+00  0.53808268E+00  0.93026757E-01
  0.95717795E+00  0.35132273E+00  0.39920501E+00
  0.46935221E+00  0.35308340E+00  0.31284649E+00
  0.51244655E+00  0.63058745E+00  0.26463108E+00
  0.33757967E+00  0.25453544E+00  0.95582384E-01
  0.21805388E+00  0.44820214E+00  0.45597401E+00
  0.60478113E+00  0.16179228E+00  0.33659046E+00
  0.58758217E-01  0.67952235E+00  0.37371295E+00
  0.35037459E+00  0.39500977E+00  0.47393487E+00
  0.68441838E+00  0.19240619E+00  0.58491958E+00
  0.68065157E+00  0.52414268E-03  0.31708179E+00
  0.34888830E+00  0.91950466E+00  0.18363759E+00
  0.49956806E+00  0.74816544E-01  0.54328288E+00
  0.80602446E+00  0.71909927E+00  0.76365285E+00
  0.29269568E+00  0.77859338E+00  0.13220949E+00
  0.48815543E-01  0.68315738E+00  0.66451287E+00
  0.84937840E+00  0.58492543E+00  0.88503701E+00
  0.18734004E+00  0.50590605E+00  0.78435628E+00
  0.30533555E+00  0.74609829E+00  0.86839637E+00
  0.63838770E+00  0.94784653E+00  0.63816205E+00
  0.26295452E+00  0.63075635E+00  0.63015543E+00
  0.48550047E+00  0.14337226E+00  0.80163270E+00
  0.46772916E+00  0.95866514E+00  0.77607756E+00
  0.56017495E-01  0.41327239E+00  0.44261976E+00
  0.58767813E-01  0.71943275E-01  0.23729596E+00
  0.69228375E-01  0.39690116E+00  0.72741958E+00
  0.89797481E+00  0.28452352E+00  0.94214338E+00
  0.31350261E+00  0.78964227E+00  0.71526623E+00
  0.45253516E+00  0.72177884E+00  0.57724752E+00
  0.68722365E+00  0.56139654E+00  0.25748200E+00
  0.68091794E+00  0.17459660E+00  0.12110433E+00
  0.83837692E+00  0.46444839E+00  0.49790613E+00
  0.92996402E+00  0.50261937E-04  0.59175322E+00
  0.24541024E+00  0.33941207E+00  0.62134536E+00
  0.45231123E+00  0.68167971E+00  0.76030986E+00
  0.60921384E+00  0.84360960E+00  0.50115949E+00
  0.17787238E+00  0.62626457E+00  0.84341112E+00
  0.13447695E-01  0.15436709E+00  0.15688580E+00
  0.66316195E+00  0.20158678E+00  0.41157692E+00
  0.75256142E+00  0.99312852E+00  0.43472753E+00
  0.14782968E-01  0.76961591E+00  0.61018531E+00
  0.61636470E+00  0.96314181E+00  0.20307375E+00
  0.84885944E+00  0.20625957E+00  0.11633936E+00
  0.93051973E+00  0.30414464E-02  0.17222630E+00
  0.75723413E+00  0.78111374E+00  0.68206591E+00
  0.15809033E-01  0.15247798E+00  0.29668373E-01
  0.31060971E+00  0.22443004E+00  0.58492720E+00
  0.17095370E-01  0.81145089E+00  0.49476576E+00
  0.33680687E+00  0.61512424E+00  0.42654820E+00
  0.85177689E+00  0.69163833E+00  0.97235645E+00
  0.60702164E-01  0.74234366E+00  0.78767711E+00
  0.55203574E+00  0.90644577E+00  0.39422459E+00
  0.14889122E+00  0.53220168E+00  0.65141953E+00
  0.56544410E-01  0.14825398E+00  0.35082796E+00
  0.62564078E+00  0.78743051E+00  0.68221647E+00
  0.91349061E+00  0.60299821E+00  0.39866379E-01
  0.14795404E+00  0.24845235E+00  0.53012861E+00
  0.84925690E+00  0.20834761E-01  0.11727012E+00
  0.14851561E+00  0.21903905E+00  0.83829521E+00
  0.00000000E+00  0.00000000E+00  0.00000000E+00
  0.00000000E+00  0.00000000E+00  0.00000000E+00
  0.00000000E+00  0.00000000E+00  0.00000000E+00
  0.00000000E+00  0.00000000E+00  0.00000000E+00
  0.00000000E+00  0.00000000E+00  0.00000000E+00
  0.00000000E+00  0.00000000E+00  0.00000000E+00
  0.00000000E+00  0.00000000E+00  0.00000000E+00
  0.00000000E+00  0.00000000E+00  0.00000000E+00
  0.00000000E+00  0.00000000E+00  0.00000000E+00
  0.00000000E+00  0.00000000E+00  0.00000000E+00
  0.00000000E+00  0.00000000E+00  0.00000000E+00
  0.00000000E+00  0.00000000E+00  0.00000000E+00
  0.00000000E+00  0.00000000E+00  0.00000000E+00
  0.00000000E+00  0.00000000E+00  0.00000000E+00
  0.00000000E+00  0.00000000E+00  0.00000000E+00
  0.00000000E+00  0.00000000E+00  0.00000000E+00
  0.00000000E+00  0.00000000E+00  0.00000000E+00
  0.00000000E+00  0.00000000E+00  0.00000000E+00
  0.00000000E+00  0.00000000E+00  0.00000000E+00
  0.00000000E+00  0.00000000E+00  0.00000000E+00
  0.00000000E+00  0.00000000E+00  0.00000000E+00
  0.00000000E+00  0.00000000E+00  0.00000000E+00
  0.00000000E+00  0.00000000E+00  0.00000000E+00
  0.00000000E+00  0.00000000E+00  0.00000000E+00
  0.00000000E+00  0.00000000E+00  0.00000000E+00
  0.00000000E+00  0.00000000E+00  0.00000000E+00
  0.00000000E+00  0.00000000E+00  0.00000000E+00
  0.00000000E+00  0.00000000E+00  0.00000000E+00
  0.00000000E+00  0.00000000E+00  0.00000000E+00
  0.00000000E+00  0.00000000E+00  0.00000000E+00
  0.00000000E+00  0.00000000E+00  0.00000000E+00
  0.00000000E+00  0.00000000E+00  0.00000000E+00
  0.00000000E+00  0.00000000E+00  0.00000000E+00
  0.00000000E+00  0.00000000E+00  0.00000000E+00
  0.00000000E+00  0.00000000E+00  0.00000000E+00
  0.00000000E+00  0.00000000E+00  0.00000000E+00
  0.00000000E+00  0.00000000E+00  0.00000000E+00
  0.00000000E+00  0.00000000E+00  0.00000000E+00
  0.00000000E+00  0.00000000E+00  0.00000000E+00
  0.00000000E+00  0.00000000E+00  0.00000000E+00
  0.00000000E+00  0.00000000E+00  0.00000000E+00
  0.00000000E+00  0.00000000E+00  0.00000000E+00
  0.00000000E+00  0.00000000E+00  0.00000000E+00
  0.00000000E+00  0.00000000E+00  0.00000000E+00
  0.00000000E+00  0.00000000E+00  0.00000000E+00
  0.00000000E+00  0.00000000E+00  0.00000000E+00
  0.00000000E+00  0.00000000E+00  0.00000000E+00
  0.00000000E+00  0.00000000E+00  0.00000000E+00
  0.00000000E+00  0.00000000E+00  0.00000000E+00
  0.00000000E+00  0.00000000E+00  0.00000000E+00
  0.00000000E+00  0.00000000E+00  0.00000000E+00
  0.00000000E+00  0.00000000E+00  0.00000000E+00
  0.00000000E+00  0.00000000E+00  0.00000000E+00
  0.00000000E+00  0.00000000E+00  0.00000000E+00
  0.00000000E+00  0.00000000E+00  0.00000000E+00
  0.00000000E+00  0.00000000E+00  0.00000000E+00
  0.00000000E+00  0.00000000E+00  0.00000000E+00
  0.00000000E+00  0.00000000E+00  0.00000000E+00
  0.00000000E+00  0.00000000E+00  0.00000000E+00
  0.00000000E+00  0.00000000E+00  0.00000000E+00
  0.00000000E+00  0.00000000E+00  0.00000000E+00
  0.00000000E+00  0.00000000E+00  0.00000000E+00
  0.00000000E+00  0.00000000E+00  0.00000000E+00
  0.00000000E+00  0.00000000E+00  0.00000000E+00
  0.00000000E+00  0.00000000E+00  0.00000000E+00
  0.00000000E+00  0.00000000E+00  0.00000000E+00
  0.00000000E+00  0.00000000E+00  0.00000000E+00
  0.00000000E+00  0.00000000E+00  0.00000000E+00
  0.00000000E+00  0.00000000E+00  0.00000000E+00
  0.00000000E+00  0.00000000E+00  0.00000000E+00
  0.00000000E+00  0.00000000E+00  0.00000000E+00
  0.00000000E+00  0.00000000E+00  0.00000000E+00
  0.00000000E+00  0.00000000E+00  0.00000000E+00
  0.00000000E+00  0.00000000E+00  0.00000000E+00
  0.00000000E+00  0.00000000E+00  0.00000000E+00
  0.00000000E+00  0.00000000E+00  0.00000000E+00
  0.00000000E+00  0.00000000E+00  0.00000000E+00
  0.00000000E+00  0.00000000E+00  0.00000000E+00
  0.00000000E+00  0.00000000E+00  0.00000000E+00
  0.00000000E+00  0.00000000E+00  0.00000000E+00
  0.00000000E+00  0.00000000E+00  0.00000000E+00
  0.00000000E+00  0.00000000E+00  0.00000000E+00
  0.00000000E+00  0.00000000E+00  0.00000000E+00
  0.00000000E+00  0.00000000E+00  0.00000000E+00
  0.00000000E+00  0.00000000E+00  0.00000000E+00
  0.00000000E+00  0.00000000E+00  0.00000000E+00
  0.00000000E+00  0.00000000E+00  0.00000000E+00
  0.00000000E+00  0.00000000E+00  0.00000000E+00
  0.00000000E+00  0.00000000E+00  0.00000000E+00
  0.00000000E+00  0.00000000E+00  0.00000000E+00
  0.00000000E+00  0.00000000E+00  0.00000000E+00
  0.00000000E+00  0.00000000E+00  0.00000000E+00
  0.00000000E+00  0.00000000E+00  0.00000000E+00
  0.00000000E+00  0.00000000E+00  0.00000000E+00
  0.00000000E+00  0.00000000E+00  0.00000000E+00
  0.00000000E+00  0.00000000E+00  0.00000000E+00
  0.00000000E+00  0.00000000E+00  0.00000000E+00
  0.00000000E+00  0.00000000E+00  0.00000000E+00
  0.00000000E+00  0.00000000E+00  0.00000000E+00
  0.00000000E+00  0.00000000E+00  0.00000000E+00
  0.00000000E+00  0.00000000E+00  0.00000000E+00
  0.00000000E+00  0.00000000E+00  0.00000000E+00
  0.00000000E+00  0.00000000E+00  0.00000000E+00
  0.00000000E+00  0.00000000E+00  0.00000000E+00
  0.00000000E+00  0.00000000E+00  0.00000000E+00
  0.00000000E+00  0.00000000E+00  0.00000000E+00
  0.00000000E+00  0.00000000E+00  0.00000000E+00
  0.00000000E+00  0.00000000E+00  0.00000000E+00
  0.00000000E+00  0.00000000E+00  0.00000000E+00
  0.00000000E+00  0.00000000E+00  0.00000000E+00
  0.00000000E+00  0.00000000E+00  0.00000000E+00
  0.00000000E+00  0.00000000E+00  0.00000000E+00
  0.00000000E+00  0.00000000E+00  0.00000000E+00
  0.00000000E+00  0.00000000E+00  0.00000000E+00
  0.00000000E+00  0.00000000E+00  0.00000000E+00
  0.00000000E+00  0.00000000E+00  0.00000000E+00
  0.00000000E+00  0.00000000E+00  0.00000000E+00
  0.00000000E+00  0.00000000E+00  0.00000000E+00
  0.00000000E+00  0.00000000E+00  0.00000000E+00
  0.00000000E+00  0.00000000E+00  0.00000000E+00
  0.00000000E+00  0.00000000E+00  0.00000000E+00
  0.00000000E+00  0.00000000E+00  0.00000000E+00
  0.00000000E+00  0.00000000E+00  0.00000000E+00
  0.00000000E+00  0.00000000E+00  0.00000000E+00
  0.00000000E+00  0.00000000E+00  0.00000000E+00
  0.00000000E+00  0.00000000E+00  0.00000000E+00
  0.00000000E+00  0.00000000E+00  0.00000000E+00
  0.00000000E+00  0.00000000E+00  0.00000000E+00
  0.00000000E+00  0.00000000E+00  0.00000000E+00
  0.00000000E+00  0.00000000E+00  0.00000000E+00
  0.00000000E+00  0.00000000E+00  0.00000000E+00
  0.00000000E+00  0.00000000E+00  0.00000000E+00
  0.00000000E+00  0.00000000E+00  0.00000000E+00
  0.00000000E+00  0.00000000E+00  0.00000000E+00
  0.00000000E+00  0.00000000E+00  0.00000000E+00
  0.00000000E+00  0.00000000E+00  0.00000000E+00
  0.00000000E+00  0.00000000E+00  0.00000000E+00
  0.00000000E+00  0.00000000E+00  0.00000000E+00
  0.00000000E+00  0.00000000E+00  0.00000000E+00
  0.00000000E+00  0.00000000E+00  0.00000000E+00
  0.00000000E+00  0.00000000E+00  0.00000000E+00
  0.00000000E+00  0.00000000E+00  0.00000000E+00
  0.00000000E+00  0.00000000E+00  0.00000000E+00
  0.00000000E+00  0.00000000E+00  0.00000000E+00
  0.00000000E+00  0.00000000E+00  0.00000000E+00
  0.00000000E+00  0.00000000E+00  0.00000000E+00
  0.00000000E+00  0.00000000E+00  0.00000000E+00
  0.00000000E+00  0.00000000E+00  0.00000000E+00
  0.00000000E+00  0.00000000E+00  0.00000000E+00
  0.00000000E+00  0.00000000E+00  0.00000000E+00
  0.00000000E+00  0.00000000E+00  0.00000000E+00
  0.00000000E+00  0.00000000E+00  0.00000000E+00
  0.00000000E+00  0.00000000E+00  0.00000000E+00
  0.00000000E+00  0.00000000E+00  0.00000000E+00
  0.00000000E+00  0.00000000E+00  0.00000000E+00
  0.00000000E+00  0.00000000E+00  0.00000000E+00
  0.00000000E+00  0.00000000E+00  0.00000000E+00
  0.00000000E+00  0.00000000E+00  0.00000000E+00
  0.00000000E+00  0.00000000E+00  0.00000000E+00
  0.00000000E+00  0.00000000E+00  0.00000000E+00
  0.00000000E+00  0.00000000E+00  0.00000000E+00
  0.00000000E+00  0.00000000E+00  0.00000000E+00
  0.00000000E+00  0.00000000E+00  0.00000000E+00
  0.00000000E+00  0.00000000E+00  0.00000000E+00
  0.00000000E+00  0.00000000E+00  0.00000000E+00
  0.00000000E+00  0.00000000E+00  0.00000000E+00
  0.00000000E+00  0.00000000E+00  0.00000000E+00
  0.00000000E+00  0.00000000E+00  0.00000000E+00
  0.00000000E+00  0.00000000E+00  0.00000000E+00
  0.00000000E+00  0.00000000E+00  0.00000000E+00
  0.00000000E+00  0.00000000E+00  0.00000000E+00
  0.00000000E+00  0.00000000E+00  0.00000000E+00
  0.00000000E+00  0.00000000E+00  0.00000000E+00
  0.00000000E+00  0.00000000E+00  0.00000000E+00
  0.00000000E+00  0.00000000E+00  0.00000000E+00
  0.00000000E+00  0.00000000E+00  0.00000000E+00
  0.00000000E+00  0.00000000E+00  0.00000000E+00
  0.00000000E+00  0.00000000E+00  0.00000000E+00
  0.00000000E+00  0.00000000E+00  0.00000000E+00
  0.00000000E+00  0.00000000E+00  0.00000000E+00
  0.00000000E+00  0.00000000E+00  0.00000000E+00
  0.00000000E+00  0.00000000E+00  0.00000000E+00
  0.00000000E+00  0.00000000E+00  0.00000000E+00
  0.00000000E+00  0.00000000E+00  0.00000000E+00
  0.00000000E+00  0.00000000E+00  0.00000000E+00
  0.00000000E+00  0.00000000E+00  0.00000000E+00
  0.00000000E+00  0.00000000E+00  0.00000000E+00
  0.00000000E+00  0.00000000E+00  0.00000000E+00
  0.00000000E+00  0.00000000E+00  0.00000000E+00
  0.00000000E+00  0.00000000E+00  0.00000000E+00
  0.00000000E+00  0.00000000E+00  0.00000000E+00
  0.00000000E+00  0.00000000E+00  0.00000000E+00
  0.00000000E+00  0.00000000E+00  0.00000000E+00
  0.00000000E+00  0.00000000E+00  0.00000000E+00
  0.00000000E+00  0.00000000E+00  0.00000000E+00
  0.00000000E+00  0.00000000E+00  0.00000000E+00
  0.00000000E+00  0.00000000E+00  0.00000000E+00
  0.00000000E+00  0.00000000E+00  0.00000000E+00
  0.00000000E+00  0.00000000E+00  0.00000000E+00
  0.00000000E+00  0.00000000E+00  0.00000000E+00
  0.00000000E+00  0.00000000E+00  0.00000000E+00
  0.00000000E+00  0.00000000E+00  0.00000000E+00
  0.00000000E+00  0.00000000E+00  0.00000000E+00
  0.00000000E+00  0.00000000E+00  0.00000000E+00
  0.00000000E+00  0.00000000E+00  0.00000000E+00
  0.00000000E+00  0.00000000E+00  0.00000000E+00
  0.00000000E+00  0.00000000E+00  0.00000000E+00
  0.00000000E+00  0.00000000E+00  0.00000000E+00
  0.00000000E+00  0.00000000E+00  0.00000000E+00
  0.00000000E+00  0.00000000E+00  0.00000000E+00
  0.00000000E+00  0.00000000E+00  0.00000000E+00
  0.00000000E+00  0.00000000E+00  0.00000000E+00
  0.00000000E+00  0.00000000E+00  0.00000000E+00
  0.00000000E+00  0.00000000E+00  0.00000000E+00
  0.00000000E+00  0.00000000E+00  0.00000000E+00
  0.00000000E+00  0.00000000E+00  0.00000000E+00
  0.00000000E+00  0.00000000E+00  0.00000000E+00
  0.00000000E+00  0.00000000E+00  0.00000000E+00
  0.00000000E+00  0.00000000E+00  0.00000000E+00
  0.00000000E+00  0.00000000E+00  0.00000000E+00
  0.00000000E+00  0.00000000E+00  0.00000000E+00
  0.00000000E+00  0.00000000E+00  0.00000000E+00
  0.00000000E+00  0.00000000E+00  0.00000000E+00
  0.00000000E+00  0.00000000E+00  0.00000000E+00
  0.00000000E+00  0.00000000E+00  0.00000000E+00
  0.00000000E+00  0.00000000E+00  0.00000000E+00
  0.00000000E+00  0.00000000E+00  0.00000000E+00
  0.00000000E+00  0.00000000E+00  0.00000000E+00
  0.00000000E+00  0.00000000E+00  0.00000000E+00
  0.00000000E+00  0.00000000E+00  0.00000000E+00
  0.00000000E+00  0.00000000E+00  0.00000000E+00
  0.00000000E+00  0.00000000E+00  0.00000000E+00
  0.00000000E+00  0.00000000E+00  0.00000000E+00
  0.00000000E+00  0.00000000E+00  0.00000000E+00
  0.00000000E+00  0.00000000E+00  0.00000000E+00
  0.00000000E+00  0.00000000E+00  0.00000000E+00
  0.00000000E+00  0.00000000E+00  0.00000000E+00
  0.00000000E+00  0.00000000E+00  0.00000000E+00
  0.00000000E+00  0.00000000E+00  0.00000000E+00
  0.00000000E+00  0.00000000E+00  0.00000000E+00
  0.00000000E+00  0.00000000E+00  0.00000000E+00
  0.00000000E+00  0.00000000E+00  0.00000000E+00
  0.00000000E+00  0.00000000E+00  0.00000000E+00
  0.00000000E+00  0.00000000E+00  0.00000000E+00
  0.00000000E+00  0.00000000E+00  0.00000000E+00
  0.00000000E+00  0.00000000E+00  0.00000000E+00
  0.00000000E+00  0.00000000E+00  0.00000000E+00
  0.00000000E+00  0.00000000E+00  0.00000000E+00
  0.00000000E+00  0.00000000E+00  0.00000000E+00
  0.00000000E+00  0.00000000E+00  0.00000000E+00
  0.00000000E+00  0.00000000E+00  0.00000000E+00
  0.00000000E+00  0.00000000E+00  0.00000000E+00
  0.00000000E+00  0.00000000E+00  0.00000000E+00
  0.00000000E+00  0.00000000E+00  0.00000000E+00
  0.00000000E+00  0.00000000E+00  0.00000000E+00
  0.00000000E+00  0.00000000E+00  0.00000000E+00
  0.00000000E+00  0.00000000E+00  0.00000000E+00
  0.00000000E+00  0.00000000E+00  0.00000000E+00
  0.00000000E+00  0.00000000E+00  0.00000000E+00
  0.00000000E+00  0.00000000E+00  0.00000000E+00
  0.00000000E+00  0.00000000E+00  0.00000000E+00
  0.00000000E+00  0.00000000E+00  0.00000000E+00
  0.00000000E+00  0.00000000E+00  0.00000000E+00
  0.00000000E+00  0.00000000E+00  0.00000000E+00
  0.00000000E+00  0.00000000E+00  0.00000000E+00
  0.00000000E+00  0.00000000E+00  0.00000000E+00
  0.00000000E+00  0.00000000E+00  0.00000000E+00
  0.00000000E+00  0.00000000E+00  0.00000000E+00
  0.00000000E+00  0.00000000E+00  0.00000000E+00
  0.00000000E+00  0.00000000E+00  0.00000000E+00
  0.00000000E+00  0.00000000E+00  0.00000000E+00
  0.00000000E+00  0.00000000E+00  0.00000000E+00
  0.00000000E+00  0.00000000E+00  0.00000000E+00
  0.00000000E+00  0.00000000E+00  0.00000000E+00
  0.00000000E+00  0.00000000E+00  0.00000000E+00
  0.00000000E+00  0.00000000E+00  0.00000000E+00
  0.00000000E+00  0.00000000E+00  0.00000000E+00
  0.00000000E+00  0.00000000E+00  0.00000000E+00
  0.00000000E+00  0.00000000E+00  0.00000000E+00
  0.00000000E+00  0.00000000E+00  0.00000000E+00
  0.00000000E+00  0.00000000E+00  0.00000000E+00
  0.00000000E+00  0.00000000E+00  0.00000000E+00
  0.00000000E+00  0.00000000E+00  0.00000000E+00
  0.00000000E+00  0.00000000E+00  0.00000000E+00
  0.00000000E+00  0.00000000E+00  0.00000000E+00
  0.00000000E+00  0.00000000E+00  0.00000000E+00
  0.00000000E+00  0.00000000E+00  0.00000000E+00
  0.00000000E+00  0.00000000E+00  0.00000000E+00
  0.00000000E+00  0.00000000E+00  0.00000000E+00
  0.00000000E+00  0.00000000E+00  0.00000000E+00
  0.00000000E+00  0.00000000E+00  0.00000000E+00
  0.00000000E+00  0.00000000E+00  0.00000000E+00
  0.00000000E+00  0.00000000E+00  0.00000000E+00
  0.00000000E+00  0.00000000E+00  0.00000000E+00
  0.00000000E+00  0.00000000E+00  0.00000000E+00
  0.00000000E+00  0.00000000E+00  0.00000000E+00
  0.00000000E+00  0.00000000E+00  0.00000000E+00
  0.00000000E+00  0.00000000E+00  0.00000000E+00
  0.00000000E+00  0.00000000E+00  0.00000000E+00
  0.00000000E+00  0.00000000E+00  0.00000000E+00
  0.00000000E+00  0.00000000E+00  0.00000000E+00
  0.00000000E+00  0.00000000E+00  0.00000000E+00
  0.00000000E+00  0.00000000E+00  0.00000000E+00
  0.00000000E+00  0.00000000E+00  0.00000000E+00
  0.00000000E+00  0.00000000E+00  0.00000000E+00
  0.00000000E+00  0.00000000E+00  0.00000000E+00
  0.00000000E+00  0.00000000E+00  0.00000000E+00
  0.00000000E+00  0.00000000E+00  0.00000000E+00
  0.00000000E+00  0.00000000E+00  0.00000000E+00
  0.00000000E+00  0.00000000E+00  0.00000000E+00
  0.00000000E+00  0.00000000E+00  0.00000000E+00
  0.00000000E+00  0.00000000E+00  0.00000000E+00
  0.00000000E+00  0.00000000E+00  0.00000000E+00
  0.00000000E+00  0.00000000E+00  0.00000000E+00
  0.00000000E+00  0.00000000E+00  0.00000000E+00
  0.00000000E+00  0.00000000E+00  0.00000000E+00
  0.00000000E+00  0.00000000E+00  0.00000000E+00
  0.00000000E+00  0.00000000E+00  0.00000000E+00
  0.00000000E+00  0.00000000E+00  0.00000000E+00
  0.00000000E+00  0.00000000E+00  0.00000000E+00
  0.00000000E+00  0.00000000E+00  0.00000000E+00
  0.00000000E+00  0.00000000E+00  0.00000000E+00
  0.00000000E+00  0.00000000E+00  0.00000000E+00
  0.00000000E+00  0.00000000E+00  0.00000000E+00
  0.00000000E+00  0.00000000E+00  0.00000000E+00
  0.00000000E+00  0.00000000E+00  0.00000000E+00
  0.00000000E+00  0.00000000E+00  0.00000000E+00
  0.00000000E+00  0.00000000E+00  0.00000000E+00
  0.00000000E+00  0.00000000E+00  0.00000000E+00
  0.00000000E+00  0.00000000E+00  0.00000000E+00
  0.00000000E+00  0.00000000E+00  0.00000000E+00
  0.00000000E+00  0.00000000E+00  0.00000000E+00
  0.00000000E+00  0.00000000E+00  0.00000000E+00
  0.00000000E+00  0.00000000E+00  0.00000000E+00
  0.00000000E+00  0.00000000E+00  0.00000000E+00
  0.00000000E+00  0.00000000E+00  0.00000000E+00
  0.00000000E+00  0.00000000E+00  0.00000000E+00
  0.00000000E+00  0.00000000E+00  0.00000000E+00
  0.00000000E+00  0.00000000E+00  0.00000000E+00
  0.00000000E+00  0.00000000E+00  0.00000000E+00
  0.00000000E+00  0.00000000E+00  0.00000000E+00
  0.00000000E+00  0.00000000E+00  0.00000000E+00
  0.00000000E+00  0.00000000E+00  0.00000000E+00
  0.00000000E+00  0.00000000E+00  0.00000000E+00
  0.00000000E+00  0.00000000E+00  0.00000000E+00
  0.00000000E+00  0.00000000E+00  0.00000000E+00
  0.00000000E+00  0.00000000E+00  0.00000000E+00
  0.00000000E+00  0.00000000E+00  0.00000000E+00
  0.00000000E+00  0.00000000E+00  0.00000000E+00
  0.00000000E+00  0.00000000E+00  0.00000000E+00
  0.00000000E+00  0.00000000E+00  0.00000000E+00
  0.00000000E+00  0.00000000E+00  0.00000000E+00
  0.00000000E+00  0.00000000E+00  0.00000000E+00
  0.00000000E+00  0.00000000E+00  0.00000000E+00
  0.00000000E+00  0.00000000E+00  0.00000000E+00
  0.00000000E+00  0.00000000E+00  0.00000000E+00
  0.00000000E+00  0.00000000E+00  0.00000000E+00
  0.00000000E+00  0.00000000E+00  0.00000000E+00
  0.00000000E+00  0.00000000E+00  0.00000000E+00
  0.00000000E+00  0.00000000E+00  0.00000000E+00
  0.00000000E+00  0.00000000E+00  0.00000000E+00
  0.00000000E+00  0.00000000E+00  0.00000000E+00
  0.00000000E+00  0.00000000E+00  0.00000000E+00
  0.00000000E+00  0.00000000E+00  0.00000000E+00
  0.00000000E+00  0.00000000E+00  0.00000000E+00
  0.00000000E+00  0.00000000E+00  0.00000000E+00
  0.00000000E+00  0.00000000E+00  0.00000000E+00
  0.00000000E+00  0.00000000E+00  0.00000000E+00
  0.00000000E+00  0.00000000E+00  0.00000000E+00
  0.00000000E+00  0.00000000E+00  0.00000000E+00
  0.00000000E+00  0.00000000E+00  0.00000000E+00
  0.00000000E+00  0.00000000E+00  0.00000000E+00
  0.00000000E+00  0.00000000E+00  0.00000000E+00
  0.00000000E+00  0.00000000E+00  0.00000000E+00
  0.00000000E+00  0.00000000E+00  0.00000000E+00
  0.00000000E+00  0.00000000E+00  0.00000000E+00
  0.00000000E+00  0.00000000E+00  0.00000000E+00
  0.00000000E+00  0.00000000E+00  0.00000000E+00
  0.00000000E+00  0.00000000E+00  0.00000000E+00
  0.00000000E+00  0.00000000E+00  0.00000000E+00
  0.00000000E+00  0.00000000E+00  0.00000000E+00
  0.00000000E+00  0.00000000E+00  0.00000000E+00
  0.00000000E+00  0.00000000E+00  0.00000000E+00
  0.00000000E+00  0.00000000E+00  0.00000000E+00
  0.00000000E+00  0.00000000E+00  0.00000000E+00
  0.00000000E+00  0.00000000E+00  0.00000000E+00
  0.00000000E+00  0.00000000E+00  0.00000000E+00
  0.00000000E+00  0.00000000E+00  0.00000000E+00
  0.00000000E+00  0.00000000E+00  0.00000000E+00
  0.00000000E+00  0.00000000E+00  0.00000000E+00
  0.00000000E+00  0.00000000E+00  0.00000000E+00
  0.00000000E+00  0.00000000E+00  0.00000000E+00
  0.00000000E+00  0.00000000E+00  0.00000000E+00
  0.00000000E+00  0.00000000E+00  0.00000000E+00
  0.00000000E+00  0.00000000E+00  0.00000000E+00
  0.00000000E+00  0.00000000E+00  0.00000000E+00
  0.00000000E+00  0.00000000E+00  0.00000000E+00
  0.00000000E+00  0.00000000E+00  0.00000000E+00
  0.00000000E+00  0.00000000E+00  0.00000000E+00
  0.00000000E+00  0.00000000E+00  0.00000000E+00
  0.00000000E+00  0.00000000E+00  0.00000000E+00
  0.00000000E+00  0.00000000E+00  0.00000000E+00
  0.00000000E+00  0.00000000E+00  0.00000000E+00
  0.00000000E+00  0.00000000E+00  0.00000000E+00
  0.00000000E+00  0.00000000E+00  0.00000000E+00
  0.00000000E+00  0.00000000E+00  0.00000000E+00
  0.00000000E+00  0.00000000E+00  0.00000000E+00
  0.00000000E+00  0.00000000E+00  0.00000000E+00
  0.00000000E+00  0.00000000E+00  0.00000000E+00
  0.00000000E+00  0.00000000E+00  0.00000000E+00
  0.00000000E+00  0.00000000E+00  0.00000000E+00
  0.00000000E+00  0.00000000E+00  0.00000000E+00
  0.00000000E+00  0.00000000E+00  0.00000000E+00
  0.00000000E+00  0.00000000E+00  0.00000000E+00
  0.00000000E+00  0.00000000E+00  0.00000000E+00
  0.00000000E+00  0.00000000E+00  0.00000000E+00
  0.00000000E+00  0.00000000E+00  0.00000000E+00
  0.00000000E+00  0.00000000E+00  0.00000000E+00
  0.00000000E+00  0.00000000E+00  0.00000000E+00
  0.00000000E+00  0.00000000E+00  0.00000000E+00
  0.00000000E+00  0.00000000E+00  0.00000000E+00
  0.00000000E+00  0.00000000E+00  0.00000000E+00
  0.00000000E+00  0.00000000E+00  0.00000000E+00
  0.00000000E+00  0.00000000E+00  0.00000000E+00
  0.00000000E+00  0.00000000E+00  0.00000000E+00
  0.00000000E+00  0.00000000E+00  0.00000000E+00
  0.00000000E+00  0.00000000E+00  0.00000000E+00
  0.00000000E+00  0.00000000E+00  0.00000000E+00
  0.00000000E+00  0.00000000E+00  0.00000000E+00
  0.00000000E+00  0.00000000E+00  0.00000000E+00
  0.00000000E+00  0.00000000E+00  0.00000000E+00
  0.00000000E+00  0.00000000E+00  0.00000000E+00
  0.00000000E+00  0.00000000E+00  0.00000000E+00
  0.00000000E+00  0.00000000E+00  0.00000000E+00
  0.00000000E+00  0.00000000E+00  0.00000000E+00
  0.00000000E+00  0.00000000E+00  0.00000000E+00
  0.00000000E+00  0.00000000E+00  0.00000000E+00
  0.00000000E+00  0.00000000E+00  0.00000000E+00
  0.00000000E+00  0.00000000E+00  0.00000000E+00
  0.00000000E+00  0.00000000E+00  0.00000000E+00
  0.00000000E+00  0.00000000E+00  0.00000000E+00
  0.00000000E+00  0.00000000E+00  0.00000000E+00
  0.00000000E+00  0.00000000E+00  0.00000000E+00
  0.00000000E+00  0.00000000E+00  0.00000000E+00
  0.00000000E+00  0.00000000E+00  0.00000000E+00
  0.00000000E+00  0.00000000E+00  0.00000000E+00
  0.00000000E+00  0.00000000E+00  0.00000000E+00
  0.00000000E+00  0.00000000E+00  0.00000000E+00
  0.00000000E+00  0.00000000E+00  0.00000000E+00
  0.00000000E+00  0.00000000E+00  0.00000000E+00
  0.00000000E+00  0.00000000E+00  0.00000000E+00
  0.00000000E+00  0.00000000E+00  0.00000000E+00
  0.00000000E+00  0.00000000E+00  0.00000000E+00
  0.00000000E+00  0.00000000E+00  0.00000000E+00
  0.00000000E+00  0.00000000E+00  0.00000000E+00
  0.00000000E+00  0.00000000E+00  0.00000000E+00
  0.00000000E+00  0.00000000E+00  0.00000000E+00
  0.00000000E+00  0.00000000E+00  0.00000000E+00
  0.00000000E+00  0.00000000E+00  0.00000000E+00
  0.00000000E+00  0.00000000E+00  0.00000000E+00
  0.00000000E+00  0.00000000E+00  0.00000000E+00
  0.00000000E+00  0.00000000E+00  0.00000000E+00
  0.00000000E+00  0.00000000E+00  0.00000000E+00
  0.00000000E+00  0.00000000E+00  0.00000000E+00
  0.00000000E+00  0.00000000E+00  0.00000000E+00
  0.00000000E+00  0.00000000E+00  0.00000000E+00
  0.00000000E+00  0.00000000E+00  0.00000000E+00
  0.00000000E+00  0.00000000E+00  0.00000000E+00
  0.00000000E+00  0.00000000E+00  0.00000000E+00
  0.00000000E+00  0.00000000E+00  0.00000000E+00
  0.00000000E+00  0.00000000E+00  0.00000000E+00
  0.00000000E+00  0.00000000E+00  0.00000000E+00
