POSCAR
 1.000000
   41.1664572067442691   -6.1738258602132436   13.4264690265793565
   -0.0000000004692906   33.2912889554995672    5.0788515597675659
   -0.0000000000983709    0.0000000000594303   51.2280273686805074
   C    H 
  3078  3186
Direct
    0.9530028230462928    0.0824769966043138    0.0057645651918449     C001
    0.9530028230462928    0.0824769966043138    0.3390978985251782     C002
    0.9530028230462928    0.0824769966043138    0.6724312318585115     C003
    0.9530028230462928    0.4158103299376471    0.0057645651918449     C004
    0.9530028230462928    0.4158103299376471    0.3390978985251782     C005
    0.9530028230462928    0.4158103299376471    0.6724312318585115     C006
    0.9530028230462928    0.7491436632709805    0.0057645651918449     C007
    0.9530028230462928    0.7491436632709805    0.3390978985251782     C008
    0.9530028230462928    0.7491436632709805    0.6724312318585115     C009
    0.2863361563796261    0.0824769966043138    0.0057645651918449     C010
    0.2863361563796261    0.0824769966043138    0.3390978985251782     C011
    0.2863361563796261    0.0824769966043138    0.6724312318585115     C012
    0.2863361563796261    0.4158103299376471    0.0057645651918449     C013
    0.2863361563796261    0.4158103299376471    0.3390978985251782     C014
    0.2863361563796261    0.4158103299376471    0.6724312318585115     C015
    0.2863361563796261    0.7491436632709805    0.0057645651918449     C016
    0.2863361563796261    0.7491436632709805    0.3390978985251782     C017
    0.2863361563796261    0.7491436632709805    0.6724312318585115     C018
    0.6196694897129594    0.0824769966043138    0.0057645651918449     C019
    0.6196694897129594    0.0824769966043138    0.3390978985251782     C020
    0.6196694897129594    0.0824769966043138    0.6724312318585115     C021
    0.6196694897129594    0.4158103299376471    0.0057645651918449     C022
    0.6196694897129594    0.4158103299376471    0.3390978985251782     C023
    0.6196694897129594    0.4158103299376471    0.6724312318585115     C024
    0.6196694897129594    0.7491436632709805    0.0057645651918449     C025
    0.6196694897129594    0.7491436632709805    0.3390978985251782     C026
    0.6196694897129594    0.7491436632709805    0.6724312318585115     C027
    0.2731473237685937    0.1538353379534682    0.1171367664309345     C028
    0.2731473237685937    0.1538353379534682    0.4504700997642679     C029
    0.2731473237685937    0.1538353379534682    0.7838034330976011     C030
    0.2731473237685937    0.4871686712868015    0.1171367664309345     C031
    0.2731473237685937    0.4871686712868015    0.4504700997642679     C032
    0.2731473237685937    0.4871686712868015    0.7838034330976011     C033
    0.2731473237685937    0.8205020046201349    0.1171367664309345     C034
    0.2731473237685937    0.8205020046201349    0.4504700997642679     C035
    0.2731473237685937    0.8205020046201349    0.7838034330976011     C036
    0.6064806571019271    0.1538353379534682    0.1171367664309345     C037
    0.6064806571019271    0.1538353379534682    0.4504700997642679     C038
    0.6064806571019271    0.1538353379534682    0.7838034330976011     C039
    0.6064806571019271    0.4871686712868015    0.1171367664309345     C040
    0.6064806571019271    0.4871686712868015    0.4504700997642679     C041
    0.6064806571019271    0.4871686712868015    0.7838034330976011     C042
    0.6064806571019271    0.8205020046201349    0.1171367664309345     C043
    0.6064806571019271    0.8205020046201349    0.4504700997642679     C044
    0.6064806571019271    0.8205020046201349    0.7838034330976011     C045
    0.9398139904352604    0.1538353379534682    0.1171367664309345     C046
    0.9398139904352604    0.1538353379534682    0.4504700997642679     C047
    0.9398139904352604    0.1538353379534682    0.7838034330976011     C048
    0.9398139904352604    0.4871686712868015    0.1171367664309345     C049
    0.9398139904352604    0.4871686712868015    0.4504700997642679     C050
    0.9398139904352604    0.4871686712868015    0.7838034330976011     C051
    0.9398139904352604    0.8205020046201349    0.1171367664309345     C052
    0.9398139904352604    0.8205020046201349    0.4504700997642679     C053
    0.9398139904352604    0.8205020046201349    0.7838034330976011     C054
    0.2600184236155580    0.1204784727364592    0.1091812882257210     C055
    0.2600184236155580    0.1204784727364592    0.4425146215590545     C056
    0.2600184236155580    0.1204784727364592    0.7758479548923878     C057
    0.2600184236155580    0.4538118060697925    0.1091812882257210     C058
    0.2600184236155580    0.4538118060697925    0.4425146215590545     C059
    0.2600184236155580    0.4538118060697925    0.7758479548923878     C060
    0.2600184236155580    0.7871451394031258    0.1091812882257210     C061
    0.2600184236155580    0.7871451394031258    0.4425146215590545     C062
    0.2600184236155580    0.7871451394031258    0.7758479548923878     C063
    0.5933517569488913    0.1204784727364592    0.1091812882257210     C064
    0.5933517569488913    0.1204784727364592    0.4425146215590545     C065
    0.5933517569488913    0.1204784727364592    0.7758479548923878     C066
    0.5933517569488913    0.4538118060697925    0.1091812882257210     C067
    0.5933517569488913    0.4538118060697925    0.4425146215590545     C068
    0.5933517569488913    0.4538118060697925    0.7758479548923878     C069
    0.5933517569488913    0.7871451394031258    0.1091812882257210     C070
    0.5933517569488913    0.7871451394031258    0.4425146215590545     C071
    0.5933517569488913    0.7871451394031258    0.7758479548923878     C072
    0.9266850902822246    0.1204784727364592    0.1091812882257210     C073
    0.9266850902822246    0.1204784727364592    0.4425146215590545     C074
    0.9266850902822246    0.1204784727364592    0.7758479548923878     C075
    0.9266850902822246    0.4538118060697925    0.1091812882257210     C076
    0.9266850902822246    0.4538118060697925    0.4425146215590545     C077
    0.9266850902822246    0.4538118060697925    0.7758479548923878     C078
    0.9266850902822246    0.7871451394031258    0.1091812882257210     C079
    0.9266850902822246    0.7871451394031258    0.4425146215590545     C080
    0.9266850902822246    0.7871451394031258    0.7758479548923878     C081
    0.2572354098151031    0.0864592648352369    0.1638086422697544     C082
    0.2572354098151031    0.0864592648352369    0.4971419756030877     C083
    0.2572354098151031    0.0864592648352369    0.8304753089364211     C084
    0.2572354098151031    0.4197925981685703    0.1638086422697544     C085
    0.2572354098151031    0.4197925981685703    0.4971419756030877     C086
    0.2572354098151031    0.4197925981685703    0.8304753089364211     C087
    0.2572354098151031    0.7531259315019037    0.1638086422697544     C088
    0.2572354098151031    0.7531259315019037    0.4971419756030877     C089
    0.2572354098151031    0.7531259315019037    0.8304753089364211     C090
    0.5905687431484363    0.0864592648352369    0.1638086422697544     C091
    0.5905687431484363    0.0864592648352369    0.4971419756030877     C092
    0.5905687431484363    0.0864592648352369    0.8304753089364211     C093
    0.5905687431484363    0.4197925981685703    0.1638086422697544     C094
    0.5905687431484363    0.4197925981685703    0.4971419756030877     C095
    0.5905687431484363    0.4197925981685703    0.8304753089364211     C096
    0.5905687431484363    0.7531259315019037    0.1638086422697544     C097
    0.5905687431484363    0.7531259315019037    0.4971419756030877     C098
    0.5905687431484363    0.7531259315019037    0.8304753089364211     C099
    0.9239020764817697    0.0864592648352369    0.1638086422697544     C100
    0.9239020764817697    0.0864592648352369    0.4971419756030877     C101
    0.9239020764817697    0.0864592648352369    0.8304753089364211     C102
    0.9239020764817697    0.4197925981685703    0.1638086422697544     C103
    0.9239020764817697    0.4197925981685703    0.4971419756030877     C104
    0.9239020764817697    0.4197925981685703    0.8304753089364211     C105
    0.9239020764817697    0.7531259315019037    0.1638086422697544     C106
    0.9239020764817697    0.7531259315019037    0.4971419756030877     C107
    0.9239020764817697    0.7531259315019037    0.8304753089364211     C108
    0.1630261217072144    0.0351065836650255    0.1518228808093058     C109
    0.1630261217072144    0.0351065836650255    0.4851562141426391     C110
    0.1630261217072144    0.0351065836650255    0.8184895474759724     C111
    0.1630261217072144    0.3684399169983589    0.1518228808093058     C112
    0.1630261217072144    0.3684399169983589    0.4851562141426391     C113
    0.1630261217072144    0.3684399169983589    0.8184895474759724     C114
    0.1630261217072144    0.7017732503316922    0.1518228808093058     C115
    0.1630261217072144    0.7017732503316922    0.4851562141426391     C116
    0.1630261217072144    0.7017732503316922    0.8184895474759724     C117
    0.4963594550405477    0.0351065836650255    0.1518228808093058     C118
    0.4963594550405477    0.0351065836650255    0.4851562141426391     C119
    0.4963594550405477    0.0351065836650255    0.8184895474759724     C120
    0.4963594550405477    0.3684399169983589    0.1518228808093058     C121
    0.4963594550405477    0.3684399169983589    0.4851562141426391     C122
    0.4963594550405477    0.3684399169983589    0.8184895474759724     C123
    0.4963594550405477    0.7017732503316922    0.1518228808093058     C124
    0.4963594550405477    0.7017732503316922    0.4851562141426391     C125
    0.4963594550405477    0.7017732503316922    0.8184895474759724     C126
    0.8296927883738811    0.0351065836650255    0.1518228808093058     C127
    0.8296927883738811    0.0351065836650255    0.4851562141426391     C128
    0.8296927883738811    0.0351065836650255    0.8184895474759724     C129
    0.8296927883738811    0.3684399169983589    0.1518228808093058     C130
    0.8296927883738811    0.3684399169983589    0.4851562141426391     C131
    0.8296927883738811    0.3684399169983589    0.8184895474759724     C132
    0.8296927883738811    0.7017732503316922    0.1518228808093058     C133
    0.8296927883738811    0.7017732503316922    0.4851562141426391     C134
    0.8296927883738811    0.7017732503316922    0.8184895474759724     C135
    0.2483778285260960    0.0944070705879247    0.1910574165050497     C136
    0.2483778285260960    0.0944070705879247    0.5243907498383831     C137
    0.2483778285260960    0.0944070705879247    0.8577240831717163     C138
    0.2483778285260960    0.4277404039212581    0.1910574165050497     C139
    0.2483778285260960    0.4277404039212581    0.5243907498383831     C140
    0.2483778285260960    0.4277404039212581    0.8577240831717163     C141
    0.2483778285260960    0.7610737372545915    0.1910574165050497     C142
    0.2483778285260960    0.7610737372545915    0.5243907498383831     C143
    0.2483778285260960    0.7610737372545915    0.8577240831717163     C144
    0.5817111618594293    0.0944070705879247    0.1910574165050497     C145
    0.5817111618594293    0.0944070705879247    0.5243907498383831     C146
    0.5817111618594293    0.0944070705879247    0.8577240831717163     C147
    0.5817111618594293    0.4277404039212581    0.1910574165050497     C148
    0.5817111618594293    0.4277404039212581    0.5243907498383831     C149
    0.5817111618594293    0.4277404039212581    0.8577240831717163     C150
    0.5817111618594293    0.7610737372545915    0.1910574165050497     C151
    0.5817111618594293    0.7610737372545915    0.5243907498383831     C152
    0.5817111618594293    0.7610737372545915    0.8577240831717163     C153
    0.9150444951927627    0.0944070705879247    0.1910574165050497     C154
    0.9150444951927627    0.0944070705879247    0.5243907498383831     C155
    0.9150444951927627    0.0944070705879247    0.8577240831717163     C156
    0.9150444951927627    0.4277404039212581    0.1910574165050497     C157
    0.9150444951927627    0.4277404039212581    0.5243907498383831     C158
    0.9150444951927627    0.4277404039212581    0.8577240831717163     C159
    0.9150444951927627    0.7610737372545915    0.1910574165050497     C160
    0.9150444951927627    0.7610737372545915    0.5243907498383831     C161
    0.9150444951927627    0.7610737372545915    0.8577240831717163     C162
    0.2995423536642345    0.1770937260793572    0.1009303954971710     C163
    0.2995423536642345    0.1770937260793572    0.4342637288305042     C164
    0.2995423536642345    0.1770937260793572    0.7675970621638376     C165
    0.2995423536642345    0.5104270594126906    0.1009303954971710     C166
    0.2995423536642345    0.5104270594126906    0.4342637288305042     C167
    0.2995423536642345    0.5104270594126906    0.7675970621638376     C168
    0.2995423536642345    0.8437603927460240    0.1009303954971710     C169
    0.2995423536642345    0.8437603927460240    0.4342637288305042     C170
    0.2995423536642345    0.8437603927460240    0.7675970621638376     C171
    0.6328756869975679    0.1770937260793572    0.1009303954971710     C172
    0.6328756869975679    0.1770937260793572    0.4342637288305042     C173
    0.6328756869975679    0.1770937260793572    0.7675970621638376     C174
    0.6328756869975679    0.5104270594126906    0.1009303954971710     C175
    0.6328756869975679    0.5104270594126906    0.4342637288305042     C176
    0.6328756869975679    0.5104270594126906    0.7675970621638376     C177
    0.6328756869975679    0.8437603927460240    0.1009303954971710     C178
    0.6328756869975679    0.8437603927460240    0.4342637288305042     C179
    0.6328756869975679    0.8437603927460240    0.7675970621638376     C180
    0.9662090203309012    0.1770937260793572    0.1009303954971710     C181
    0.9662090203309012    0.1770937260793572    0.4342637288305042     C182
    0.9662090203309012    0.1770937260793572    0.7675970621638376     C183
    0.9662090203309012    0.5104270594126906    0.1009303954971710     C184
    0.9662090203309012    0.5104270594126906    0.4342637288305042     C185
    0.9662090203309012    0.5104270594126906    0.7675970621638376     C186
    0.9662090203309012    0.8437603927460240    0.1009303954971710     C187
    0.9662090203309012    0.8437603927460240    0.4342637288305042     C188
    0.9662090203309012    0.8437603927460240    0.7675970621638376     C189
    0.1444891093208106    0.0401869467728342    0.1797571357151970     C190
    0.1444891093208106    0.0401869467728342    0.5130904690485303     C191
    0.1444891093208106    0.0401869467728342    0.8464238023818637     C192
    0.1444891093208106    0.3735202801061677    0.1797571357151970     C193
    0.1444891093208106    0.3735202801061677    0.5130904690485303     C194
    0.1444891093208106    0.3735202801061677    0.8464238023818637     C195
    0.1444891093208106    0.7068536134395009    0.1797571357151970     C196
    0.1444891093208106    0.7068536134395009    0.5130904690485303     C197
    0.1444891093208106    0.7068536134395009    0.8464238023818637     C198
    0.4778224426541440    0.0401869467728342    0.1797571357151970     C199
    0.4778224426541440    0.0401869467728342    0.5130904690485303     C200
    0.4778224426541440    0.0401869467728342    0.8464238023818637     C201
    0.4778224426541440    0.3735202801061677    0.1797571357151970     C202
    0.4778224426541440    0.3735202801061677    0.5130904690485303     C203
    0.4778224426541440    0.3735202801061677    0.8464238023818637     C204
    0.4778224426541440    0.7068536134395009    0.1797571357151970     C205
    0.4778224426541440    0.7068536134395009    0.5130904690485303     C206
    0.4778224426541440    0.7068536134395009    0.8464238023818637     C207
    0.8111557759874772    0.0401869467728342    0.1797571357151970     C208
    0.8111557759874772    0.0401869467728342    0.5130904690485303     C209
    0.8111557759874772    0.0401869467728342    0.8464238023818637     C210
    0.8111557759874772    0.3735202801061677    0.1797571357151970     C211
    0.8111557759874772    0.3735202801061677    0.5130904690485303     C212
    0.8111557759874772    0.3735202801061677    0.8464238023818637     C213
    0.8111557759874772    0.7068536134395009    0.1797571357151970     C214
    0.8111557759874772    0.7068536134395009    0.5130904690485303     C215
    0.8111557759874772    0.7068536134395009    0.8464238023818637     C216
    0.1672352159300926    0.9931183643484607    0.1510582055128621     C217
    0.1672352159300926    0.9931183643484607    0.4843915388461953     C218
    0.1672352159300926    0.9931183643484607    0.8177248721795287     C219
    0.1672352159300926    0.3264516976817941    0.1510582055128621     C220
    0.1672352159300926    0.3264516976817941    0.4843915388461953     C221
    0.1672352159300926    0.3264516976817941    0.8177248721795287     C222
    0.1672352159300926    0.6597850310151274    0.1510582055128621     C223
    0.1672352159300926    0.6597850310151274    0.4843915388461953     C224
    0.1672352159300926    0.6597850310151274    0.8177248721795287     C225
    0.5005685492634260    0.9931183643484607    0.1510582055128621     C226
    0.5005685492634260    0.9931183643484607    0.4843915388461953     C227
    0.5005685492634260    0.9931183643484607    0.8177248721795287     C228
    0.5005685492634260    0.3264516976817941    0.1510582055128621     C229
    0.5005685492634260    0.3264516976817941    0.4843915388461953     C230
    0.5005685492634260    0.3264516976817941    0.8177248721795287     C231
    0.5005685492634260    0.6597850310151274    0.1510582055128621     C232
    0.5005685492634260    0.6597850310151274    0.4843915388461953     C233
    0.5005685492634260    0.6597850310151274    0.8177248721795287     C234
    0.8339018825967592    0.9931183643484607    0.1510582055128621     C235
    0.8339018825967592    0.9931183643484607    0.4843915388461953     C236
    0.8339018825967592    0.9931183643484607    0.8177248721795287     C237
    0.8339018825967592    0.3264516976817941    0.1510582055128621     C238
    0.8339018825967592    0.3264516976817941    0.4843915388461953     C239
    0.8339018825967592    0.3264516976817941    0.8177248721795287     C240
    0.8339018825967592    0.6597850310151274    0.1510582055128621     C241
    0.8339018825967592    0.6597850310151274    0.4843915388461953     C242
    0.8339018825967592    0.6597850310151274    0.8177248721795287     C243
    0.2820343180870193    0.1073167066365208    0.0870320552302765     C244
    0.2820343180870193    0.1073167066365208    0.4203653885636098     C245
    0.2820343180870193    0.1073167066365208    0.7536987218969431     C246
    0.2820343180870193    0.4406500399698542    0.0870320552302765     C247
    0.2820343180870193    0.4406500399698542    0.4203653885636098     C248
    0.2820343180870193    0.4406500399698542    0.7536987218969431     C249
    0.2820343180870193    0.7739833733031876    0.0870320552302765     C250
    0.2820343180870193    0.7739833733031876    0.4203653885636098     C251
    0.2820343180870193    0.7739833733031876    0.7536987218969431     C252
    0.6153676514203527    0.1073167066365208    0.0870320552302765     C253
    0.6153676514203527    0.1073167066365208    0.4203653885636098     C254
    0.6153676514203527    0.1073167066365208    0.7536987218969431     C255
    0.6153676514203527    0.4406500399698542    0.0870320552302765     C256
    0.6153676514203527    0.4406500399698542    0.4203653885636098     C257
    0.6153676514203527    0.4406500399698542    0.7536987218969431     C258
    0.6153676514203527    0.7739833733031876    0.0870320552302765     C259
    0.6153676514203527    0.7739833733031876    0.4203653885636098     C260
    0.6153676514203527    0.7739833733031876    0.7536987218969431     C261
    0.9487009847536859    0.1073167066365208    0.0870320552302765     C262
    0.9487009847536859    0.1073167066365208    0.4203653885636098     C263
    0.9487009847536859    0.1073167066365208    0.7536987218969431     C264
    0.9487009847536859    0.4406500399698542    0.0870320552302765     C265
    0.9487009847536859    0.4406500399698542    0.4203653885636098     C266
    0.9487009847536859    0.4406500399698542    0.7536987218969431     C267
    0.9487009847536859    0.7739833733031876    0.0870320552302765     C268
    0.9487009847536859    0.7739833733031876    0.4203653885636098     C269
    0.9487009847536859    0.7739833733031876    0.7536987218969431     C270
    0.1508524728269615    0.0990988219199340    0.1298138215902485     C271
    0.1508524728269615    0.0990988219199340    0.4631471549235818     C272
    0.1508524728269615    0.0990988219199340    0.7964804882569152     C273
    0.1508524728269615    0.4324321552532674    0.1298138215902485     C274
    0.1508524728269615    0.4324321552532674    0.4631471549235818     C275
    0.1508524728269615    0.4324321552532674    0.7964804882569152     C276
    0.1508524728269615    0.7657654885866008    0.1298138215902485     C277
    0.1508524728269615    0.7657654885866008    0.4631471549235818     C278
    0.1508524728269615    0.7657654885866008    0.7964804882569152     C279
    0.4841858061602948    0.0990988219199340    0.1298138215902485     C280
    0.4841858061602948    0.0990988219199340    0.4631471549235818     C281
    0.4841858061602948    0.0990988219199340    0.7964804882569152     C282
    0.4841858061602948    0.4324321552532674    0.1298138215902485     C283
    0.4841858061602948    0.4324321552532674    0.4631471549235818     C284
    0.4841858061602948    0.4324321552532674    0.7964804882569152     C285
    0.4841858061602948    0.7657654885866008    0.1298138215902485     C286
    0.4841858061602948    0.7657654885866008    0.4631471549235818     C287
    0.4841858061602948    0.7657654885866008    0.7964804882569152     C288
    0.8175191394936281    0.0990988219199340    0.1298138215902485     C289
    0.8175191394936281    0.0990988219199340    0.4631471549235818     C290
    0.8175191394936281    0.0990988219199340    0.7964804882569152     C291
    0.8175191394936281    0.4324321552532674    0.1298138215902485     C292
    0.8175191394936281    0.4324321552532674    0.4631471549235818     C293
    0.8175191394936281    0.4324321552532674    0.7964804882569152     C294
    0.8175191394936281    0.7657654885866008    0.1298138215902485     C295
    0.8175191394936281    0.7657654885866008    0.4631471549235818     C296
    0.8175191394936281    0.7657654885866008    0.7964804882569152     C297
    0.0390091930373744    0.0245171776666625    0.0311230781154010     C298
    0.0390091930373744    0.0245171776666625    0.3644564114487343     C299
    0.0390091930373744    0.0245171776666625    0.6977897447820676     C300
    0.0390091930373744    0.3578505109999959    0.0311230781154010     C301
    0.0390091930373744    0.3578505109999959    0.3644564114487343     C302
    0.0390091930373744    0.3578505109999959    0.6977897447820676     C303
    0.0390091930373744    0.6911838443333291    0.0311230781154010     C304
    0.0390091930373744    0.6911838443333291    0.3644564114487343     C305
    0.0390091930373744    0.6911838443333291    0.6977897447820676     C306
    0.3723425263707076    0.0245171776666625    0.0311230781154010     C307
    0.3723425263707076    0.0245171776666625    0.3644564114487343     C308
    0.3723425263707076    0.0245171776666625    0.6977897447820676     C309
    0.3723425263707076    0.3578505109999959    0.0311230781154010     C310
    0.3723425263707076    0.3578505109999959    0.3644564114487343     C311
    0.3723425263707076    0.3578505109999959    0.6977897447820676     C312
    0.3723425263707076    0.6911838443333291    0.0311230781154010     C313
    0.3723425263707076    0.6911838443333291    0.3644564114487343     C314
    0.3723425263707076    0.6911838443333291    0.6977897447820676     C315
    0.7056758597040410    0.0245171776666625    0.0311230781154010     C316
    0.7056758597040410    0.0245171776666625    0.3644564114487343     C317
    0.7056758597040410    0.0245171776666625    0.6977897447820676     C318
    0.7056758597040410    0.3578505109999959    0.0311230781154010     C319
    0.7056758597040410    0.3578505109999959    0.3644564114487343     C320
    0.7056758597040410    0.3578505109999959    0.6977897447820676     C321
    0.7056758597040410    0.6911838443333291    0.0311230781154010     C322
    0.7056758597040410    0.6911838443333291    0.3644564114487343     C323
    0.7056758597040410    0.6911838443333291    0.6977897447820676     C324
    0.0552975735192190    0.9951104643052744    0.0189601431126043     C325
    0.0552975735192190    0.9951104643052744    0.3522934764459377     C326
    0.0552975735192190    0.9951104643052744    0.6856268097792710     C327
    0.0552975735192190    0.3284437976386076    0.0189601431126043     C328
    0.0552975735192190    0.3284437976386076    0.3522934764459377     C329
    0.0552975735192190    0.3284437976386076    0.6856268097792710     C330
    0.0552975735192190    0.6617771309719409    0.0189601431126043     C331
    0.0552975735192190    0.6617771309719409    0.3522934764459377     C332
    0.0552975735192190    0.6617771309719409    0.6856268097792710     C333
    0.3886309068525523    0.9951104643052744    0.0189601431126043     C334
    0.3886309068525523    0.9951104643052744    0.3522934764459377     C335
    0.3886309068525523    0.9951104643052744    0.6856268097792710     C336
    0.3886309068525523    0.3284437976386076    0.0189601431126043     C337
    0.3886309068525523    0.3284437976386076    0.3522934764459377     C338
    0.3886309068525523    0.3284437976386076    0.6856268097792710     C339
    0.3886309068525523    0.6617771309719409    0.0189601431126043     C340
    0.3886309068525523    0.6617771309719409    0.3522934764459377     C341
    0.3886309068525523    0.6617771309719409    0.6856268097792710     C342
    0.7219642401858857    0.9951104643052744    0.0189601431126043     C343
    0.7219642401858857    0.9951104643052744    0.3522934764459377     C344
    0.7219642401858857    0.9951104643052744    0.6856268097792710     C345
    0.7219642401858857    0.3284437976386076    0.0189601431126043     C346
    0.7219642401858857    0.3284437976386076    0.3522934764459377     C347
    0.7219642401858857    0.3284437976386076    0.6856268097792710     C348
    0.7219642401858857    0.6617771309719409    0.0189601431126043     C349
    0.7219642401858857    0.6617771309719409    0.3522934764459377     C350
    0.7219642401858857    0.6617771309719409    0.6856268097792710     C351
    0.0131741898431030    0.0140484365779503    0.0564911889118385     C352
    0.0131741898431030    0.0140484365779503    0.3898245222451718     C353
    0.0131741898431030    0.0140484365779503    0.7231578555785052     C354
    0.0131741898431030    0.3473817699112836    0.0564911889118385     C355
    0.0131741898431030    0.3473817699112836    0.3898245222451718     C356
    0.0131741898431030    0.3473817699112836    0.7231578555785052     C357
    0.0131741898431030    0.6807151032446169    0.0564911889118385     C358
    0.0131741898431030    0.6807151032446169    0.3898245222451718     C359
    0.0131741898431030    0.6807151032446169    0.7231578555785052     C360
    0.3465075231764363    0.0140484365779503    0.0564911889118385     C361
    0.3465075231764363    0.0140484365779503    0.3898245222451718     C362
    0.3465075231764363    0.0140484365779503    0.7231578555785052     C363
    0.3465075231764363    0.3473817699112836    0.0564911889118385     C364
    0.3465075231764363    0.3473817699112836    0.3898245222451718     C365
    0.3465075231764363    0.3473817699112836    0.7231578555785052     C366
    0.3465075231764363    0.6807151032446169    0.0564911889118385     C367
    0.3465075231764363    0.6807151032446169    0.3898245222451718     C368
    0.3465075231764363    0.6807151032446169    0.7231578555785052     C369
    0.6798408565097697    0.0140484365779503    0.0564911889118385     C370
    0.6798408565097697    0.0140484365779503    0.3898245222451718     C371
    0.6798408565097697    0.0140484365779503    0.7231578555785052     C372
    0.6798408565097697    0.3473817699112836    0.0564911889118385     C373
    0.6798408565097697    0.3473817699112836    0.3898245222451718     C374
    0.6798408565097697    0.3473817699112836    0.7231578555785052     C375
    0.6798408565097697    0.6807151032446169    0.0564911889118385     C376
    0.6798408565097697    0.6807151032446169    0.3898245222451718     C377
    0.6798408565097697    0.6807151032446169    0.7231578555785052     C378
    0.2205028160855536    0.0792702885779386    0.2137290336415321     C379
    0.2205028160855536    0.0792702885779386    0.5470623669748655     C380
    0.2205028160855536    0.0792702885779386    0.8803957003081988     C381
    0.2205028160855536    0.4126036219112721    0.2137290336415321     C382
    0.2205028160855536    0.4126036219112721    0.5470623669748655     C383
    0.2205028160855536    0.4126036219112721    0.8803957003081988     C384
    0.2205028160855536    0.7459369552446053    0.2137290336415321     C385
    0.2205028160855536    0.7459369552446053    0.5470623669748655     C386
    0.2205028160855536    0.7459369552446053    0.8803957003081988     C387
    0.5538361494188869    0.0792702885779386    0.2137290336415321     C388
    0.5538361494188869    0.0792702885779386    0.5470623669748655     C389
    0.5538361494188869    0.0792702885779386    0.8803957003081988     C390
    0.5538361494188869    0.4126036219112721    0.2137290336415321     C391
    0.5538361494188869    0.4126036219112721    0.5470623669748655     C392
    0.5538361494188869    0.4126036219112721    0.8803957003081988     C393
    0.5538361494188869    0.7459369552446053    0.2137290336415321     C394
    0.5538361494188869    0.7459369552446053    0.5470623669748655     C395
    0.5538361494188869    0.7459369552446053    0.8803957003081988     C396
    0.8871694827522202    0.0792702885779386    0.2137290336415321     C397
    0.8871694827522202    0.0792702885779386    0.5470623669748655     C398
    0.8871694827522202    0.0792702885779386    0.8803957003081988     C399
    0.8871694827522202    0.4126036219112721    0.2137290336415321     C400
    0.8871694827522202    0.4126036219112721    0.5470623669748655     C401
    0.8871694827522202    0.4126036219112721    0.8803957003081988     C402
    0.8871694827522202    0.7459369552446053    0.2137290336415321     C403
    0.8871694827522202    0.7459369552446053    0.5470623669748655     C404
    0.8871694827522202    0.7459369552446053    0.8803957003081988     C405
    0.3766105096557878    0.9625725700749796    0.2954542280332002     C406
    0.3766105096557878    0.9625725700749796    0.6287875613665336     C407
    0.3766105096557878    0.9625725700749796    0.9621208946998668     C408
    0.3766105096557878    0.2959059034083129    0.2954542280332002     C409
    0.3766105096557878    0.2959059034083129    0.6287875613665336     C410
    0.3766105096557878    0.2959059034083129    0.9621208946998668     C411
    0.3766105096557878    0.6292392367416464    0.2954542280332002     C412
    0.3766105096557878    0.6292392367416464    0.6287875613665336     C413
    0.3766105096557878    0.6292392367416464    0.9621208946998668     C414
    0.7099438429891212    0.9625725700749796    0.2954542280332002     C415
    0.7099438429891212    0.9625725700749796    0.6287875613665336     C416
    0.7099438429891212    0.9625725700749796    0.9621208946998668     C417
    0.7099438429891212    0.2959059034083129    0.2954542280332002     C418
    0.7099438429891212    0.2959059034083129    0.6287875613665336     C419
    0.7099438429891212    0.2959059034083129    0.9621208946998668     C420
    0.7099438429891212    0.6292392367416464    0.2954542280332002     C421
    0.7099438429891212    0.6292392367416464    0.6287875613665336     C422
    0.7099438429891212    0.6292392367416464    0.9621208946998668     C423
    0.0432771763224544    0.9625725700749796    0.2954542280332002     C424
    0.0432771763224544    0.9625725700749796    0.6287875613665336     C425
    0.0432771763224544    0.9625725700749796    0.9621208946998668     C426
    0.0432771763224544    0.2959059034083129    0.2954542280332002     C427
    0.0432771763224544    0.2959059034083129    0.6287875613665336     C428
    0.0432771763224544    0.2959059034083129    0.9621208946998668     C429
    0.0432771763224544    0.6292392367416464    0.2954542280332002     C430
    0.0432771763224544    0.6292392367416464    0.6287875613665336     C431
    0.0432771763224544    0.6292392367416464    0.9621208946998668     C432
    0.1688423774030312    0.0632371354778116    0.1243754898500757     C433
    0.1688423774030312    0.0632371354778116    0.4577088231834092     C434
    0.1688423774030312    0.0632371354778116    0.7910421565167425     C435
    0.1688423774030312    0.3965704688111449    0.1243754898500757     C436
    0.1688423774030312    0.3965704688111449    0.4577088231834092     C437
    0.1688423774030312    0.3965704688111449    0.7910421565167425     C438
    0.1688423774030312    0.7299038021444783    0.1243754898500757     C439
    0.1688423774030312    0.7299038021444783    0.4577088231834092     C440
    0.1688423774030312    0.7299038021444783    0.7910421565167425     C441
    0.5021757107363645    0.0632371354778116    0.1243754898500757     C442
    0.5021757107363645    0.0632371354778116    0.4577088231834092     C443
    0.5021757107363645    0.0632371354778116    0.7910421565167425     C444
    0.5021757107363645    0.3965704688111449    0.1243754898500757     C445
    0.5021757107363645    0.3965704688111449    0.4577088231834092     C446
    0.5021757107363645    0.3965704688111449    0.7910421565167425     C447
    0.5021757107363645    0.7299038021444783    0.1243754898500757     C448
    0.5021757107363645    0.7299038021444783    0.4577088231834092     C449
    0.5021757107363645    0.7299038021444783    0.7910421565167425     C450
    0.8355090440696978    0.0632371354778116    0.1243754898500757     C451
    0.8355090440696978    0.0632371354778116    0.4577088231834092     C452
    0.8355090440696978    0.0632371354778116    0.7910421565167425     C453
    0.8355090440696978    0.3965704688111449    0.1243754898500757     C454
    0.8355090440696978    0.3965704688111449    0.4577088231834092     C455
    0.8355090440696978    0.3965704688111449    0.7910421565167425     C456
    0.8355090440696978    0.7299038021444783    0.1243754898500757     C457
    0.8355090440696978    0.7299038021444783    0.4577088231834092     C458
    0.8355090440696978    0.7299038021444783    0.7910421565167425     C459
    0.1215797497996615    0.0347966722323527    0.2922308570442029     C460
    0.1215797497996615    0.0347966722323527    0.6255641903775362     C461
    0.1215797497996615    0.0347966722323527    0.9588975237108696     C462
    0.1215797497996615    0.3681300055656860    0.2922308570442029     C463
    0.1215797497996615    0.3681300055656860    0.6255641903775362     C464
    0.1215797497996615    0.3681300055656860    0.9588975237108696     C465
    0.1215797497996615    0.7014633388990194    0.2922308570442029     C466
    0.1215797497996615    0.7014633388990194    0.6255641903775362     C467
    0.1215797497996615    0.7014633388990194    0.9588975237108696     C468
    0.4549130831329948    0.0347966722323527    0.2922308570442029     C469
    0.4549130831329948    0.0347966722323527    0.6255641903775362     C470
    0.4549130831329948    0.0347966722323527    0.9588975237108696     C471
    0.4549130831329948    0.3681300055656860    0.2922308570442029     C472
    0.4549130831329948    0.3681300055656860    0.6255641903775362     C473
    0.4549130831329948    0.3681300055656860    0.9588975237108696     C474
    0.4549130831329948    0.7014633388990194    0.2922308570442029     C475
    0.4549130831329948    0.7014633388990194    0.6255641903775362     C476
    0.4549130831329948    0.7014633388990194    0.9588975237108696     C477
    0.7882464164663282    0.0347966722323527    0.2922308570442029     C478
    0.7882464164663282    0.0347966722323527    0.6255641903775362     C479
    0.7882464164663282    0.0347966722323527    0.9588975237108696     C480
    0.7882464164663282    0.3681300055656860    0.2922308570442029     C481
    0.7882464164663282    0.3681300055656860    0.6255641903775362     C482
    0.7882464164663282    0.3681300055656860    0.9588975237108696     C483
    0.7882464164663282    0.7014633388990194    0.2922308570442029     C484
    0.7882464164663282    0.7014633388990194    0.6255641903775362     C485
    0.7882464164663282    0.7014633388990194    0.9588975237108696     C486
    0.2280158540900702    0.0955030224163446    0.1240020068793426     C487
    0.2280158540900702    0.0955030224163446    0.4573353402126759     C488
    0.2280158540900702    0.0955030224163446    0.7906686735460092     C489
    0.2280158540900702    0.4288363557496778    0.1240020068793426     C490
    0.2280158540900702    0.4288363557496778    0.4573353402126759     C491
    0.2280158540900702    0.4288363557496778    0.7906686735460092     C492
    0.2280158540900702    0.7621696890830112    0.1240020068793426     C493
    0.2280158540900702    0.7621696890830112    0.4573353402126759     C494
    0.2280158540900702    0.7621696890830112    0.7906686735460092     C495
    0.5613491874234036    0.0955030224163446    0.1240020068793426     C496
    0.5613491874234036    0.0955030224163446    0.4573353402126759     C497
    0.5613491874234036    0.0955030224163446    0.7906686735460092     C498
    0.5613491874234036    0.4288363557496778    0.1240020068793426     C499
    0.5613491874234036    0.4288363557496778    0.4573353402126759     C500
    0.5613491874234036    0.4288363557496778    0.7906686735460092     C501
    0.5613491874234036    0.7621696890830112    0.1240020068793426     C502
    0.5613491874234036    0.7621696890830112    0.4573353402126759     C503
    0.5613491874234036    0.7621696890830112    0.7906686735460092     C504
    0.8946825207567368    0.0955030224163446    0.1240020068793426     C505
    0.8946825207567368    0.0955030224163446    0.4573353402126759     C506
    0.8946825207567368    0.0955030224163446    0.7906686735460092     C507
    0.8946825207567368    0.4288363557496778    0.1240020068793426     C508
    0.8946825207567368    0.4288363557496778    0.4573353402126759     C509
    0.8946825207567368    0.4288363557496778    0.7906686735460092     C510
    0.8946825207567368    0.7621696890830112    0.1240020068793426     C511
    0.8946825207567368    0.7621696890830112    0.4573353402126759     C512
    0.8946825207567368    0.7621696890830112    0.7906686735460092     C513
    0.2359740667923188    0.0727222275560474    0.1508902220800934     C514
    0.2359740667923188    0.0727222275560474    0.4842235554134268     C515
    0.2359740667923188    0.0727222275560474    0.8175568887467600     C516
    0.2359740667923188    0.4060555608893808    0.1508902220800934     C517
    0.2359740667923188    0.4060555608893808    0.4842235554134268     C518
    0.2359740667923188    0.4060555608893808    0.8175568887467600     C519
    0.2359740667923188    0.7393888942227141    0.1508902220800934     C520
    0.2359740667923188    0.7393888942227141    0.4842235554134268     C521
    0.2359740667923188    0.7393888942227141    0.8175568887467600     C522
    0.5693074001256522    0.0727222275560474    0.1508902220800934     C523
    0.5693074001256522    0.0727222275560474    0.4842235554134268     C524
    0.5693074001256522    0.0727222275560474    0.8175568887467600     C525
    0.5693074001256522    0.4060555608893808    0.1508902220800934     C526
    0.5693074001256522    0.4060555608893808    0.4842235554134268     C527
    0.5693074001256522    0.4060555608893808    0.8175568887467600     C528
    0.5693074001256522    0.7393888942227141    0.1508902220800934     C529
    0.5693074001256522    0.7393888942227141    0.4842235554134268     C530
    0.5693074001256522    0.7393888942227141    0.8175568887467600     C531
    0.9026407334589854    0.0727222275560474    0.1508902220800934     C532
    0.9026407334589854    0.0727222275560474    0.4842235554134268     C533
    0.9026407334589854    0.0727222275560474    0.8175568887467600     C534
    0.9026407334589854    0.4060555608893808    0.1508902220800934     C535
    0.9026407334589854    0.4060555608893808    0.4842235554134268     C536
    0.9026407334589854    0.4060555608893808    0.8175568887467600     C537
    0.9026407334589854    0.7393888942227141    0.1508902220800934     C538
    0.9026407334589854    0.7393888942227141    0.4842235554134268     C539
    0.9026407334589854    0.7393888942227141    0.8175568887467600     C540
    0.9353712529233966    0.2664208346454110    0.1654191754358293     C541
    0.9353712529233966    0.2664208346454110    0.4987525087691627     C542
    0.9353712529233966    0.2664208346454110    0.8320858421024959     C543
    0.9353712529233966    0.5997541679787444    0.1654191754358293     C544
    0.9353712529233966    0.5997541679787444    0.4987525087691627     C545
    0.9353712529233966    0.5997541679787444    0.8320858421024959     C546
    0.9353712529233966    0.9330875013120777    0.1654191754358293     C547
    0.9353712529233966    0.9330875013120777    0.4987525087691627     C548
    0.9353712529233966    0.9330875013120777    0.8320858421024959     C549
    0.2687045862567299    0.2664208346454110    0.1654191754358293     C550
    0.2687045862567299    0.2664208346454110    0.4987525087691627     C551
    0.2687045862567299    0.2664208346454110    0.8320858421024959     C552
    0.2687045862567299    0.5997541679787444    0.1654191754358293     C553
    0.2687045862567299    0.5997541679787444    0.4987525087691627     C554
    0.2687045862567299    0.5997541679787444    0.8320858421024959     C555
    0.2687045862567299    0.9330875013120777    0.1654191754358293     C556
    0.2687045862567299    0.9330875013120777    0.4987525087691627     C557
    0.2687045862567299    0.9330875013120777    0.8320858421024959     C558
    0.6020379195900631    0.2664208346454110    0.1654191754358293     C559
    0.6020379195900631    0.2664208346454110    0.4987525087691627     C560
    0.6020379195900631    0.2664208346454110    0.8320858421024959     C561
    0.6020379195900631    0.5997541679787444    0.1654191754358293     C562
    0.6020379195900631    0.5997541679787444    0.4987525087691627     C563
    0.6020379195900631    0.5997541679787444    0.8320858421024959     C564
    0.6020379195900631    0.9330875013120777    0.1654191754358293     C565
    0.6020379195900631    0.9330875013120777    0.4987525087691627     C566
    0.6020379195900631    0.9330875013120777    0.8320858421024959     C567
    0.1244322787734258    0.0833456228664202    0.0733254062215802     C568
    0.1244322787734258    0.0833456228664202    0.4066587395549135     C569
    0.1244322787734258    0.0833456228664202    0.7399920728882468     C570
    0.1244322787734258    0.4166789561997537    0.0733254062215802     C571
    0.1244322787734258    0.4166789561997537    0.4066587395549135     C572
    0.1244322787734258    0.4166789561997537    0.7399920728882468     C573
    0.1244322787734258    0.7500122895330870    0.0733254062215802     C574
    0.1244322787734258    0.7500122895330870    0.4066587395549135     C575
    0.1244322787734258    0.7500122895330870    0.7399920728882468     C576
    0.4577656121067591    0.0833456228664202    0.0733254062215802     C577
    0.4577656121067591    0.0833456228664202    0.4066587395549135     C578
    0.4577656121067591    0.0833456228664202    0.7399920728882468     C579
    0.4577656121067591    0.4166789561997537    0.0733254062215802     C580
    0.4577656121067591    0.4166789561997537    0.4066587395549135     C581
    0.4577656121067591    0.4166789561997537    0.7399920728882468     C582
    0.4577656121067591    0.7500122895330870    0.0733254062215802     C583
    0.4577656121067591    0.7500122895330870    0.4066587395549135     C584
    0.4577656121067591    0.7500122895330870    0.7399920728882468     C585
    0.7910989454400925    0.0833456228664202    0.0733254062215802     C586
    0.7910989454400925    0.0833456228664202    0.4066587395549135     C587
    0.7910989454400925    0.0833456228664202    0.7399920728882468     C588
    0.7910989454400925    0.4166789561997537    0.0733254062215802     C589
    0.7910989454400925    0.4166789561997537    0.4066587395549135     C590
    0.7910989454400925    0.4166789561997537    0.7399920728882468     C591
    0.7910989454400925    0.7500122895330870    0.0733254062215802     C592
    0.7910989454400925    0.7500122895330870    0.4066587395549135     C593
    0.7910989454400925    0.7500122895330870    0.7399920728882468     C594
    0.1194828001277933    0.5082820252875903    0.8828964208374508     C595
    0.1194828001277933    0.5082820252875903    0.2162297541707842     C596
    0.1194828001277933    0.5082820252875903    0.5495630875041175     C597
    0.1194828001277933    0.8416153586209236    0.8828964208374508     C598
    0.1194828001277933    0.8416153586209236    0.2162297541707842     C599
    0.1194828001277933    0.8416153586209236    0.5495630875041175     C600
    0.1194828001277933    0.1749486919542569    0.8828964208374508     C601
    0.1194828001277933    0.1749486919542569    0.2162297541707842     C602
    0.1194828001277933    0.1749486919542569    0.5495630875041175     C603
    0.4528161334611267    0.5082820252875903    0.8828964208374508     C604
    0.4528161334611267    0.5082820252875903    0.2162297541707842     C605
    0.4528161334611267    0.5082820252875903    0.5495630875041175     C606
    0.4528161334611267    0.8416153586209236    0.8828964208374508     C607
    0.4528161334611267    0.8416153586209236    0.2162297541707842     C608
    0.4528161334611267    0.8416153586209236    0.5495630875041175     C609
    0.4528161334611267    0.1749486919542569    0.8828964208374508     C610
    0.4528161334611267    0.1749486919542569    0.2162297541707842     C611
    0.4528161334611267    0.1749486919542569    0.5495630875041175     C612
    0.7861494667944601    0.5082820252875903    0.8828964208374508     C613
    0.7861494667944601    0.5082820252875903    0.2162297541707842     C614
    0.7861494667944601    0.5082820252875903    0.5495630875041175     C615
    0.7861494667944601    0.8416153586209236    0.8828964208374508     C616
    0.7861494667944601    0.8416153586209236    0.2162297541707842     C617
    0.7861494667944601    0.8416153586209236    0.5495630875041175     C618
    0.7861494667944601    0.1749486919542569    0.8828964208374508     C619
    0.7861494667944601    0.1749486919542569    0.2162297541707842     C620
    0.7861494667944601    0.1749486919542569    0.5495630875041175     C621
    0.9218828609545071    0.1495376952728535    0.2165672363463104     C622
    0.9218828609545071    0.1495376952728535    0.5499005696796436     C623
    0.9218828609545071    0.1495376952728535    0.8832339030129769     C624
    0.9218828609545071    0.4828710286061869    0.2165672363463104     C625
    0.9218828609545071    0.4828710286061869    0.5499005696796436     C626
    0.9218828609545071    0.4828710286061869    0.8832339030129769     C627
    0.9218828609545071    0.8162043619395203    0.2165672363463104     C628
    0.9218828609545071    0.8162043619395203    0.5499005696796436     C629
    0.9218828609545071    0.8162043619395203    0.8832339030129769     C630
    0.2552161942878404    0.1495376952728535    0.2165672363463104     C631
    0.2552161942878404    0.1495376952728535    0.5499005696796436     C632
    0.2552161942878404    0.1495376952728535    0.8832339030129769     C633
    0.2552161942878404    0.4828710286061869    0.2165672363463104     C634
    0.2552161942878404    0.4828710286061869    0.5499005696796436     C635
    0.2552161942878404    0.4828710286061869    0.8832339030129769     C636
    0.2552161942878404    0.8162043619395203    0.2165672363463104     C637
    0.2552161942878404    0.8162043619395203    0.5499005696796436     C638
    0.2552161942878404    0.8162043619395203    0.8832339030129769     C639
    0.5885495276211737    0.1495376952728535    0.2165672363463104     C640
    0.5885495276211737    0.1495376952728535    0.5499005696796436     C641
    0.5885495276211737    0.1495376952728535    0.8832339030129769     C642
    0.5885495276211737    0.4828710286061869    0.2165672363463104     C643
    0.5885495276211737    0.4828710286061869    0.5499005696796436     C644
    0.5885495276211737    0.4828710286061869    0.8832339030129769     C645
    0.5885495276211737    0.8162043619395203    0.2165672363463104     C646
    0.5885495276211737    0.8162043619395203    0.5499005696796436     C647
    0.5885495276211737    0.8162043619395203    0.8832339030129769     C648
    0.0982130620923423    0.4606860070410553    0.1893833088045946     C649
    0.0982130620923423    0.4606860070410553    0.5227166421379280     C650
    0.0982130620923423    0.4606860070410553    0.8560499754712614     C651
    0.0982130620923423    0.7940193403743887    0.1893833088045946     C652
    0.0982130620923423    0.7940193403743887    0.5227166421379280     C653
    0.0982130620923423    0.7940193403743887    0.8560499754712614     C654
    0.0982130620923423    0.1273526737077220    0.1893833088045946     C655
    0.0982130620923423    0.1273526737077220    0.5227166421379280     C656
    0.0982130620923423    0.1273526737077220    0.8560499754712614     C657
    0.4315463954256756    0.4606860070410553    0.1893833088045946     C658
    0.4315463954256756    0.4606860070410553    0.5227166421379280     C659
    0.4315463954256756    0.4606860070410553    0.8560499754712614     C660
    0.4315463954256756    0.7940193403743887    0.1893833088045946     C661
    0.4315463954256756    0.7940193403743887    0.5227166421379280     C662
    0.4315463954256756    0.7940193403743887    0.8560499754712614     C663
    0.4315463954256756    0.1273526737077220    0.1893833088045946     C664
    0.4315463954256756    0.1273526737077220    0.5227166421379280     C665
    0.4315463954256756    0.1273526737077220    0.8560499754712614     C666
    0.7648797287590089    0.4606860070410553    0.1893833088045946     C667
    0.7648797287590089    0.4606860070410553    0.5227166421379280     C668
    0.7648797287590089    0.4606860070410553    0.8560499754712614     C669
    0.7648797287590089    0.7940193403743887    0.1893833088045946     C670
    0.7648797287590089    0.7940193403743887    0.5227166421379280     C671
    0.7648797287590089    0.7940193403743887    0.8560499754712614     C672
    0.7648797287590089    0.1273526737077220    0.1893833088045946     C673
    0.7648797287590089    0.1273526737077220    0.5227166421379280     C674
    0.7648797287590089    0.1273526737077220    0.8560499754712614     C675
    0.9935395439978061    0.2661992917745744    0.2126568190082325     C676
    0.9935395439978061    0.2661992917745744    0.5459901523415659     C677
    0.9935395439978061    0.2661992917745744    0.8793234856748992     C678
    0.9935395439978061    0.5995326251079076    0.2126568190082325     C679
    0.9935395439978061    0.5995326251079076    0.5459901523415659     C680
    0.9935395439978061    0.5995326251079076    0.8793234856748992     C681
    0.9935395439978061    0.9328659584412409    0.2126568190082325     C682
    0.9935395439978061    0.9328659584412409    0.5459901523415659     C683
    0.9935395439978061    0.9328659584412409    0.8793234856748992     C684
    0.3268728773311393    0.2661992917745744    0.2126568190082325     C685
    0.3268728773311393    0.2661992917745744    0.5459901523415659     C686
    0.3268728773311393    0.2661992917745744    0.8793234856748992     C687
    0.3268728773311393    0.5995326251079076    0.2126568190082325     C688
    0.3268728773311393    0.5995326251079076    0.5459901523415659     C689
    0.3268728773311393    0.5995326251079076    0.8793234856748992     C690
    0.3268728773311393    0.9328659584412409    0.2126568190082325     C691
    0.3268728773311393    0.9328659584412409    0.5459901523415659     C692
    0.3268728773311393    0.9328659584412409    0.8793234856748992     C693
    0.6602062106644726    0.2661992917745744    0.2126568190082325     C694
    0.6602062106644726    0.2661992917745744    0.5459901523415659     C695
    0.6602062106644726    0.2661992917745744    0.8793234856748992     C696
    0.6602062106644726    0.5995326251079076    0.2126568190082325     C697
    0.6602062106644726    0.5995326251079076    0.5459901523415659     C698
    0.6602062106644726    0.5995326251079076    0.8793234856748992     C699
    0.6602062106644726    0.9328659584412409    0.2126568190082325     C700
    0.6602062106644726    0.9328659584412409    0.5459901523415659     C701
    0.6602062106644726    0.9328659584412409    0.8793234856748992     C702
    0.9707673487227662    0.2985875342666316    0.2166867288007772     C703
    0.9707673487227662    0.2985875342666316    0.5500200621341105     C704
    0.9707673487227662    0.2985875342666316    0.8833533954674438     C705
    0.9707673487227662    0.6319208675999650    0.2166867288007772     C706
    0.9707673487227662    0.6319208675999650    0.5500200621341105     C707
    0.9707673487227662    0.6319208675999650    0.8833533954674438     C708
    0.9707673487227662    0.9652542009332983    0.2166867288007772     C709
    0.9707673487227662    0.9652542009332983    0.5500200621341105     C710
    0.9707673487227662    0.9652542009332983    0.8833533954674438     C711
    0.3041006820560995    0.2985875342666316    0.2166867288007772     C712
    0.3041006820560995    0.2985875342666316    0.5500200621341105     C713
    0.3041006820560995    0.2985875342666316    0.8833533954674438     C714
    0.3041006820560995    0.6319208675999650    0.2166867288007772     C715
    0.3041006820560995    0.6319208675999650    0.5500200621341105     C716
    0.3041006820560995    0.6319208675999650    0.8833533954674438     C717
    0.3041006820560995    0.9652542009332983    0.2166867288007772     C718
    0.3041006820560995    0.9652542009332983    0.5500200621341105     C719
    0.3041006820560995    0.9652542009332983    0.8833533954674438     C720
    0.6374340153894329    0.2985875342666316    0.2166867288007772     C721
    0.6374340153894329    0.2985875342666316    0.5500200621341105     C722
    0.6374340153894329    0.2985875342666316    0.8833533954674438     C723
    0.6374340153894329    0.6319208675999650    0.2166867288007772     C724
    0.6374340153894329    0.6319208675999650    0.5500200621341105     C725
    0.6374340153894329    0.6319208675999650    0.8833533954674438     C726
    0.6374340153894329    0.9652542009332983    0.2166867288007772     C727
    0.6374340153894329    0.9652542009332983    0.5500200621341105     C728
    0.6374340153894329    0.9652542009332983    0.8833533954674438     C729
    0.9601944012538317    0.2059682385044512    0.2678390656662046     C730
    0.9601944012538317    0.2059682385044512    0.6011723989995379     C731
    0.9601944012538317    0.2059682385044512    0.9345057323328712     C732
    0.9601944012538317    0.5393015718377846    0.2678390656662046     C733
    0.9601944012538317    0.5393015718377846    0.6011723989995379     C734
    0.9601944012538317    0.5393015718377846    0.9345057323328712     C735
    0.9601944012538317    0.8726349051711180    0.2678390656662046     C736
    0.9601944012538317    0.8726349051711180    0.6011723989995379     C737
    0.9601944012538317    0.8726349051711180    0.9345057323328712     C738
    0.2935277345871650    0.2059682385044512    0.2678390656662046     C739
    0.2935277345871650    0.2059682385044512    0.6011723989995379     C740
    0.2935277345871650    0.2059682385044512    0.9345057323328712     C741
    0.2935277345871650    0.5393015718377846    0.2678390656662046     C742
    0.2935277345871650    0.5393015718377846    0.6011723989995379     C743
    0.2935277345871650    0.5393015718377846    0.9345057323328712     C744
    0.2935277345871650    0.8726349051711180    0.2678390656662046     C745
    0.2935277345871650    0.8726349051711180    0.6011723989995379     C746
    0.2935277345871650    0.8726349051711180    0.9345057323328712     C747
    0.6268610679204984    0.2059682385044512    0.2678390656662046     C748
    0.6268610679204984    0.2059682385044512    0.6011723989995379     C749
    0.6268610679204984    0.2059682385044512    0.9345057323328712     C750
    0.6268610679204984    0.5393015718377846    0.2678390656662046     C751
    0.6268610679204984    0.5393015718377846    0.6011723989995379     C752
    0.6268610679204984    0.5393015718377846    0.9345057323328712     C753
    0.6268610679204984    0.8726349051711180    0.2678390656662046     C754
    0.6268610679204984    0.8726349051711180    0.6011723989995379     C755
    0.6268610679204984    0.8726349051711180    0.9345057323328712     C756
    0.9892767271881699    0.2387353667754905    0.2672214241403083     C757
    0.9892767271881699    0.2387353667754905    0.6005547574736415     C758
    0.9892767271881699    0.2387353667754905    0.9338880908069748     C759
    0.9892767271881699    0.5720687001088238    0.2672214241403083     C760
    0.9892767271881699    0.5720687001088238    0.6005547574736415     C761
    0.9892767271881699    0.5720687001088238    0.9338880908069748     C762
    0.9892767271881699    0.9054020334421572    0.2672214241403083     C763
    0.9892767271881699    0.9054020334421572    0.6005547574736415     C764
    0.9892767271881699    0.9054020334421572    0.9338880908069748     C765
    0.3226100605215032    0.2387353667754905    0.2672214241403083     C766
    0.3226100605215032    0.2387353667754905    0.6005547574736415     C767
    0.3226100605215032    0.2387353667754905    0.9338880908069748     C768
    0.3226100605215032    0.5720687001088238    0.2672214241403083     C769
    0.3226100605215032    0.5720687001088238    0.6005547574736415     C770
    0.3226100605215032    0.5720687001088238    0.9338880908069748     C771
    0.3226100605215032    0.9054020334421572    0.2672214241403083     C772
    0.3226100605215032    0.9054020334421572    0.6005547574736415     C773
    0.3226100605215032    0.9054020334421572    0.9338880908069748     C774
    0.6559433938548366    0.2387353667754905    0.2672214241403083     C775
    0.6559433938548366    0.2387353667754905    0.6005547574736415     C776
    0.6559433938548366    0.2387353667754905    0.9338880908069748     C777
    0.6559433938548366    0.5720687001088238    0.2672214241403083     C778
    0.6559433938548366    0.5720687001088238    0.6005547574736415     C779
    0.6559433938548366    0.5720687001088238    0.9338880908069748     C780
    0.6559433938548366    0.9054020334421572    0.2672214241403083     C781
    0.6559433938548366    0.9054020334421572    0.6005547574736415     C782
    0.6559433938548366    0.9054020334421572    0.9338880908069748     C783
    0.0350867613751750    0.2010673136157219    0.2797096163577163     C784
    0.0350867613751750    0.2010673136157219    0.6130429496910497     C785
    0.0350867613751750    0.2010673136157219    0.9463762830243829     C786
    0.0350867613751750    0.5344006469490553    0.2797096163577163     C787
    0.0350867613751750    0.5344006469490553    0.6130429496910497     C788
    0.0350867613751750    0.5344006469490553    0.9463762830243829     C789
    0.0350867613751750    0.8677339802823887    0.2797096163577163     C790
    0.0350867613751750    0.8677339802823887    0.6130429496910497     C791
    0.0350867613751750    0.8677339802823887    0.9463762830243829     C792
    0.3684200947085083    0.2010673136157219    0.2797096163577163     C793
    0.3684200947085083    0.2010673136157219    0.6130429496910497     C794
    0.3684200947085083    0.2010673136157219    0.9463762830243829     C795
    0.3684200947085083    0.5344006469490553    0.2797096163577163     C796
    0.3684200947085083    0.5344006469490553    0.6130429496910497     C797
    0.3684200947085083    0.5344006469490553    0.9463762830243829     C798
    0.3684200947085083    0.8677339802823887    0.2797096163577163     C799
    0.3684200947085083    0.8677339802823887    0.6130429496910497     C800
    0.3684200947085083    0.8677339802823887    0.9463762830243829     C801
    0.7017534280418417    0.2010673136157219    0.2797096163577163     C802
    0.7017534280418417    0.2010673136157219    0.6130429496910497     C803
    0.7017534280418417    0.2010673136157219    0.9463762830243829     C804
    0.7017534280418417    0.5344006469490553    0.2797096163577163     C805
    0.7017534280418417    0.5344006469490553    0.6130429496910497     C806
    0.7017534280418417    0.5344006469490553    0.9463762830243829     C807
    0.7017534280418417    0.8677339802823887    0.2797096163577163     C808
    0.7017534280418417    0.8677339802823887    0.6130429496910497     C809
    0.7017534280418417    0.8677339802823887    0.9463762830243829     C810
    0.8925248421639556    0.1360461785859205    0.2360488981881338     C811
    0.8925248421639556    0.1360461785859205    0.5693822315214672     C812
    0.8925248421639556    0.1360461785859205    0.9027155648548004     C813
    0.8925248421639556    0.4693795119192539    0.2360488981881338     C814
    0.8925248421639556    0.4693795119192539    0.5693822315214672     C815
    0.8925248421639556    0.4693795119192539    0.9027155648548004     C816
    0.8925248421639556    0.8027128452525871    0.2360488981881338     C817
    0.8925248421639556    0.8027128452525871    0.5693822315214672     C818
    0.8925248421639556    0.8027128452525871    0.9027155648548004     C819
    0.2258581754972888    0.1360461785859205    0.2360488981881338     C820
    0.2258581754972888    0.1360461785859205    0.5693822315214672     C821
    0.2258581754972888    0.1360461785859205    0.9027155648548004     C822
    0.2258581754972888    0.4693795119192539    0.2360488981881338     C823
    0.2258581754972888    0.4693795119192539    0.5693822315214672     C824
    0.2258581754972888    0.4693795119192539    0.9027155648548004     C825
    0.2258581754972888    0.8027128452525871    0.2360488981881338     C826
    0.2258581754972888    0.8027128452525871    0.5693822315214672     C827
    0.2258581754972888    0.8027128452525871    0.9027155648548004     C828
    0.5591915088306222    0.1360461785859205    0.2360488981881338     C829
    0.5591915088306222    0.1360461785859205    0.5693822315214672     C830
    0.5591915088306222    0.1360461785859205    0.9027155648548004     C831
    0.5591915088306222    0.4693795119192539    0.2360488981881338     C832
    0.5591915088306222    0.4693795119192539    0.5693822315214672     C833
    0.5591915088306222    0.4693795119192539    0.9027155648548004     C834
    0.5591915088306222    0.8027128452525871    0.2360488981881338     C835
    0.5591915088306222    0.8027128452525871    0.5693822315214672     C836
    0.5591915088306222    0.8027128452525871    0.9027155648548004     C837
    0.0064393024501371    0.2200449258009805    0.2879605412314480     C838
    0.0064393024501371    0.2200449258009805    0.6212938745647814     C839
    0.0064393024501371    0.2200449258009805    0.9546272078981146     C840
    0.0064393024501371    0.5533782591343139    0.2879605412314480     C841
    0.0064393024501371    0.5533782591343139    0.6212938745647814     C842
    0.0064393024501371    0.5533782591343139    0.9546272078981146     C843
    0.0064393024501371    0.8867115924676472    0.2879605412314480     C844
    0.0064393024501371    0.8867115924676472    0.6212938745647814     C845
    0.0064393024501371    0.8867115924676472    0.9546272078981146     C846
    0.3397726357834705    0.2200449258009805    0.2879605412314480     C847
    0.3397726357834705    0.2200449258009805    0.6212938745647814     C848
    0.3397726357834705    0.2200449258009805    0.9546272078981146     C849
    0.3397726357834705    0.5533782591343139    0.2879605412314480     C850
    0.3397726357834705    0.5533782591343139    0.6212938745647814     C851
    0.3397726357834705    0.5533782591343139    0.9546272078981146     C852
    0.3397726357834705    0.8867115924676472    0.2879605412314480     C853
    0.3397726357834705    0.8867115924676472    0.6212938745647814     C854
    0.3397726357834705    0.8867115924676472    0.9546272078981146     C855
    0.6731059691168038    0.2200449258009805    0.2879605412314480     C856
    0.6731059691168038    0.2200449258009805    0.6212938745647814     C857
    0.6731059691168038    0.2200449258009805    0.9546272078981146     C858
    0.6731059691168038    0.5533782591343139    0.2879605412314480     C859
    0.6731059691168038    0.5533782591343139    0.6212938745647814     C860
    0.6731059691168038    0.5533782591343139    0.9546272078981146     C861
    0.6731059691168038    0.8867115924676472    0.2879605412314480     C862
    0.6731059691168038    0.8867115924676472    0.6212938745647814     C863
    0.6731059691168038    0.8867115924676472    0.9546272078981146     C864
    0.0105210119099406    0.2616423822354084    0.2345958512021697     C865
    0.0105210119099406    0.2616423822354084    0.5679291845355031     C866
    0.0105210119099406    0.2616423822354084    0.9012625178688364     C867
    0.0105210119099406    0.5949757155687417    0.2345958512021697     C868
    0.0105210119099406    0.5949757155687417    0.5679291845355031     C869
    0.0105210119099406    0.5949757155687417    0.9012625178688364     C870
    0.0105210119099406    0.9283090489020751    0.2345958512021697     C871
    0.0105210119099406    0.9283090489020751    0.5679291845355031     C872
    0.0105210119099406    0.9283090489020751    0.9012625178688364     C873
    0.3438543452432739    0.2616423822354084    0.2345958512021697     C874
    0.3438543452432739    0.2616423822354084    0.5679291845355031     C875
    0.3438543452432739    0.2616423822354084    0.9012625178688364     C876
    0.3438543452432739    0.5949757155687417    0.2345958512021697     C877
    0.3438543452432739    0.5949757155687417    0.5679291845355031     C878
    0.3438543452432739    0.5949757155687417    0.9012625178688364     C879
    0.3438543452432739    0.9283090489020751    0.2345958512021697     C880
    0.3438543452432739    0.9283090489020751    0.5679291845355031     C881
    0.3438543452432739    0.9283090489020751    0.9012625178688364     C882
    0.6771876785766072    0.2616423822354084    0.2345958512021697     C883
    0.6771876785766072    0.2616423822354084    0.5679291845355031     C884
    0.6771876785766072    0.2616423822354084    0.9012625178688364     C885
    0.6771876785766072    0.5949757155687417    0.2345958512021697     C886
    0.6771876785766072    0.5949757155687417    0.5679291845355031     C887
    0.6771876785766072    0.5949757155687417    0.9012625178688364     C888
    0.6771876785766072    0.9283090489020751    0.2345958512021697     C889
    0.6771876785766072    0.9283090489020751    0.5679291845355031     C890
    0.6771876785766072    0.9283090489020751    0.9012625178688364     C891
    0.1195312029693067    0.4959421717364695    0.1899228515176773     C892
    0.1195312029693067    0.4959421717364695    0.5232561848510106     C893
    0.1195312029693067    0.4959421717364695    0.8565895181843439     C894
    0.1195312029693067    0.8292755050698029    0.1899228515176773     C895
    0.1195312029693067    0.8292755050698029    0.5232561848510106     C896
    0.1195312029693067    0.8292755050698029    0.8565895181843439     C897
    0.1195312029693067    0.1626088384031361    0.1899228515176773     C898
    0.1195312029693067    0.1626088384031361    0.5232561848510106     C899
    0.1195312029693067    0.1626088384031361    0.8565895181843439     C900
    0.4528645363026400    0.4959421717364695    0.1899228515176773     C901
    0.4528645363026400    0.4959421717364695    0.5232561848510106     C902
    0.4528645363026400    0.4959421717364695    0.8565895181843439     C903
    0.4528645363026400    0.8292755050698029    0.1899228515176773     C904
    0.4528645363026400    0.8292755050698029    0.5232561848510106     C905
    0.4528645363026400    0.8292755050698029    0.8565895181843439     C906
    0.4528645363026400    0.1626088384031361    0.1899228515176773     C907
    0.4528645363026400    0.1626088384031361    0.5232561848510106     C908
    0.4528645363026400    0.1626088384031361    0.8565895181843439     C909
    0.7861978696359734    0.4959421717364695    0.1899228515176773     C910
    0.7861978696359734    0.4959421717364695    0.5232561848510106     C911
    0.7861978696359734    0.4959421717364695    0.8565895181843439     C912
    0.7861978696359734    0.8292755050698029    0.1899228515176773     C913
    0.7861978696359734    0.8292755050698029    0.5232561848510106     C914
    0.7861978696359734    0.8292755050698029    0.8565895181843439     C915
    0.7861978696359734    0.1626088384031361    0.1899228515176773     C916
    0.7861978696359734    0.1626088384031361    0.5232561848510106     C917
    0.7861978696359734    0.1626088384031361    0.8565895181843439     C918
    0.2450317002146311    0.2376196801447374    0.1640602040274235     C919
    0.2450317002146311    0.2376196801447374    0.4973935373607569     C920
    0.2450317002146311    0.2376196801447374    0.8307268706940902     C921
    0.2450317002146311    0.5709530134780708    0.1640602040274235     C922
    0.2450317002146311    0.5709530134780708    0.4973935373607569     C923
    0.2450317002146311    0.5709530134780708    0.8307268706940902     C924
    0.2450317002146311    0.9042863468114041    0.1640602040274235     C925
    0.2450317002146311    0.9042863468114041    0.4973935373607569     C926
    0.2450317002146311    0.9042863468114041    0.8307268706940902     C927
    0.5783650335479644    0.2376196801447374    0.1640602040274235     C928
    0.5783650335479644    0.2376196801447374    0.4973935373607569     C929
    0.5783650335479644    0.2376196801447374    0.8307268706940902     C930
    0.5783650335479644    0.5709530134780708    0.1640602040274235     C931
    0.5783650335479644    0.5709530134780708    0.4973935373607569     C932
    0.5783650335479644    0.5709530134780708    0.8307268706940902     C933
    0.5783650335479644    0.9042863468114041    0.1640602040274235     C934
    0.5783650335479644    0.9042863468114041    0.4973935373607569     C935
    0.5783650335479644    0.9042863468114041    0.8307268706940902     C936
    0.9116983668812977    0.2376196801447374    0.1640602040274235     C937
    0.9116983668812977    0.2376196801447374    0.4973935373607569     C938
    0.9116983668812977    0.2376196801447374    0.8307268706940902     C939
    0.9116983668812977    0.5709530134780708    0.1640602040274235     C940
    0.9116983668812977    0.5709530134780708    0.4973935373607569     C941
    0.9116983668812977    0.5709530134780708    0.8307268706940902     C942
    0.9116983668812977    0.9042863468114041    0.1640602040274235     C943
    0.9116983668812977    0.9042863468114041    0.4973935373607569     C944
    0.9116983668812977    0.9042863468114041    0.8307268706940902     C945
    0.3211963703823804    0.1679366652461377    0.0759908005660876     C946
    0.3211963703823804    0.1679366652461377    0.4093241338994210     C947
    0.3211963703823804    0.1679366652461377    0.7426574672327544     C948
    0.3211963703823804    0.5012699985794711    0.0759908005660876     C949
    0.3211963703823804    0.5012699985794711    0.4093241338994210     C950
    0.3211963703823804    0.5012699985794711    0.7426574672327544     C951
    0.3211963703823804    0.8346033319128043    0.0759908005660876     C952
    0.3211963703823804    0.8346033319128043    0.4093241338994210     C953
    0.3211963703823804    0.8346033319128043    0.7426574672327544     C954
    0.6545297037157136    0.1679366652461377    0.0759908005660876     C955
    0.6545297037157136    0.1679366652461377    0.4093241338994210     C956
    0.6545297037157136    0.1679366652461377    0.7426574672327544     C957
    0.6545297037157136    0.5012699985794711    0.0759908005660876     C958
    0.6545297037157136    0.5012699985794711    0.4093241338994210     C959
    0.6545297037157136    0.5012699985794711    0.7426574672327544     C960
    0.6545297037157136    0.8346033319128043    0.0759908005660876     C961
    0.6545297037157136    0.8346033319128043    0.4093241338994210     C962
    0.6545297037157136    0.8346033319128043    0.7426574672327544     C963
    0.9878630370490470    0.1679366652461377    0.0759908005660876     C964
    0.9878630370490470    0.1679366652461377    0.4093241338994210     C965
    0.9878630370490470    0.1679366652461377    0.7426574672327544     C966
    0.9878630370490470    0.5012699985794711    0.0759908005660876     C967
    0.9878630370490470    0.5012699985794711    0.4093241338994210     C968
    0.9878630370490470    0.5012699985794711    0.7426574672327544     C969
    0.9878630370490470    0.8346033319128043    0.0759908005660876     C970
    0.9878630370490470    0.8346033319128043    0.4093241338994210     C971
    0.9878630370490470    0.8346033319128043    0.7426574672327544     C972
    0.0979829297959726    0.0549879376978224    0.0730087785984943     C973
    0.0979829297959726    0.0549879376978224    0.4063421119318277     C974
    0.0979829297959726    0.0549879376978224    0.7396754452651609     C975
    0.0979829297959726    0.3883212710311558    0.0730087785984943     C976
    0.0979829297959726    0.3883212710311558    0.4063421119318277     C977
    0.0979829297959726    0.3883212710311558    0.7396754452651609     C978
    0.0979829297959726    0.7216546043644890    0.0730087785984943     C979
    0.0979829297959726    0.7216546043644890    0.4063421119318277     C980
    0.0979829297959726    0.7216546043644890    0.7396754452651609     C981
    0.4313162631293059    0.0549879376978224    0.0730087785984943     C982
    0.4313162631293059    0.0549879376978224    0.4063421119318277     C983
    0.4313162631293059    0.0549879376978224    0.7396754452651609     C984
    0.4313162631293059    0.3883212710311558    0.0730087785984943     C985
    0.4313162631293059    0.3883212710311558    0.4063421119318277     C986
    0.4313162631293059    0.3883212710311558    0.7396754452651609     C987
    0.4313162631293059    0.7216546043644890    0.0730087785984943     C988
    0.4313162631293059    0.7216546043644890    0.4063421119318277     C989
    0.4313162631293059    0.7216546043644890    0.7396754452651609     C990
    0.7646495964626392    0.0549879376978224    0.0730087785984943     C991
    0.7646495964626392    0.0549879376978224    0.4063421119318277     C992
    0.7646495964626392    0.0549879376978224    0.7396754452651609     C993
    0.7646495964626392    0.3883212710311558    0.0730087785984943     C994
    0.7646495964626392    0.3883212710311558    0.4063421119318277     C995
    0.7646495964626392    0.3883212710311558    0.7396754452651609     C996
    0.7646495964626392    0.7216546043644890    0.0730087785984943     C997
    0.7646495964626392    0.7216546043644890    0.4063421119318277     C998
    0.7646495964626392    0.7216546043644890    0.7396754452651609     C999
    0.1290475318551912    0.0742521410419574    0.2987640364411840    C1000
    0.1290475318551912    0.0742521410419574    0.6320973697745172    C1001
    0.1290475318551912    0.0742521410419574    0.9654307031078505    C1002
    0.1290475318551912    0.4075854743752908    0.2987640364411840    C1003
    0.1290475318551912    0.4075854743752908    0.6320973697745172    C1004
    0.1290475318551912    0.4075854743752908    0.9654307031078505    C1005
    0.1290475318551912    0.7409188077086241    0.2987640364411840    C1006
    0.1290475318551912    0.7409188077086241    0.6320973697745172    C1007
    0.1290475318551912    0.7409188077086241    0.9654307031078505    C1008
    0.4623808651885245    0.0742521410419574    0.2987640364411840    C1009
    0.4623808651885245    0.0742521410419574    0.6320973697745172    C1010
    0.4623808651885245    0.0742521410419574    0.9654307031078505    C1011
    0.4623808651885245    0.4075854743752908    0.2987640364411840    C1012
    0.4623808651885245    0.4075854743752908    0.6320973697745172    C1013
    0.4623808651885245    0.4075854743752908    0.9654307031078505    C1014
    0.4623808651885245    0.7409188077086241    0.2987640364411840    C1015
    0.4623808651885245    0.7409188077086241    0.6320973697745172    C1016
    0.4623808651885245    0.7409188077086241    0.9654307031078505    C1017
    0.7957141985218579    0.0742521410419574    0.2987640364411840    C1018
    0.7957141985218579    0.0742521410419574    0.6320973697745172    C1019
    0.7957141985218579    0.0742521410419574    0.9654307031078505    C1020
    0.7957141985218579    0.4075854743752908    0.2987640364411840    C1021
    0.7957141985218579    0.4075854743752908    0.6320973697745172    C1022
    0.7957141985218579    0.4075854743752908    0.9654307031078505    C1023
    0.7957141985218579    0.7409188077086241    0.2987640364411840    C1024
    0.7957141985218579    0.7409188077086241    0.6320973697745172    C1025
    0.7957141985218579    0.7409188077086241    0.9654307031078505    C1026
    0.1479637779243967    0.9982615434837590    0.3237077597917322    C1027
    0.1479637779243967    0.9982615434837590    0.6570410931250654    C1028
    0.1479637779243967    0.9982615434837590    0.9903744264583988    C1029
    0.1479637779243967    0.3315948768170922    0.3237077597917322    C1030
    0.1479637779243967    0.3315948768170922    0.6570410931250654    C1031
    0.1479637779243967    0.3315948768170922    0.9903744264583988    C1032
    0.1479637779243967    0.6649282101504256    0.3237077597917322    C1033
    0.1479637779243967    0.6649282101504256    0.6570410931250654    C1034
    0.1479637779243967    0.6649282101504256    0.9903744264583988    C1035
    0.4812971112577301    0.9982615434837590    0.3237077597917322    C1036
    0.4812971112577301    0.9982615434837590    0.6570410931250654    C1037
    0.4812971112577301    0.9982615434837590    0.9903744264583988    C1038
    0.4812971112577301    0.3315948768170922    0.3237077597917322    C1039
    0.4812971112577301    0.3315948768170922    0.6570410931250654    C1040
    0.4812971112577301    0.3315948768170922    0.9903744264583988    C1041
    0.4812971112577301    0.6649282101504256    0.3237077597917322    C1042
    0.4812971112577301    0.6649282101504256    0.6570410931250654    C1043
    0.4812971112577301    0.6649282101504256    0.9903744264583988    C1044
    0.8146304445910635    0.9982615434837590    0.3237077597917322    C1045
    0.8146304445910635    0.9982615434837590    0.6570410931250654    C1046
    0.8146304445910635    0.9982615434837590    0.9903744264583988    C1047
    0.8146304445910635    0.3315948768170922    0.3237077597917322    C1048
    0.8146304445910635    0.3315948768170922    0.6570410931250654    C1049
    0.8146304445910635    0.3315948768170922    0.9903744264583988    C1050
    0.8146304445910635    0.6649282101504256    0.3237077597917322    C1051
    0.8146304445910635    0.6649282101504256    0.6570410931250654    C1052
    0.8146304445910635    0.6649282101504256    0.9903744264583988    C1053
    0.3103342537180266    0.1300998279025348    0.0684649314695805    C1054
    0.3103342537180266    0.1300998279025348    0.4017982648029139    C1055
    0.3103342537180266    0.1300998279025348    0.7351315981362472    C1056
    0.3103342537180266    0.4634331612358682    0.0684649314695805    C1057
    0.3103342537180266    0.4634331612358682    0.4017982648029139    C1058
    0.3103342537180266    0.4634331612358682    0.7351315981362472    C1059
    0.3103342537180266    0.7967664945692015    0.0684649314695805    C1060
    0.3103342537180266    0.7967664945692015    0.4017982648029139    C1061
    0.3103342537180266    0.7967664945692015    0.7351315981362472    C1062
    0.6436675870513600    0.1300998279025348    0.0684649314695805    C1063
    0.6436675870513600    0.1300998279025348    0.4017982648029139    C1064
    0.6436675870513600    0.1300998279025348    0.7351315981362472    C1065
    0.6436675870513600    0.4634331612358682    0.0684649314695805    C1066
    0.6436675870513600    0.4634331612358682    0.4017982648029139    C1067
    0.6436675870513600    0.4634331612358682    0.7351315981362472    C1068
    0.6436675870513600    0.7967664945692015    0.0684649314695805    C1069
    0.6436675870513600    0.7967664945692015    0.4017982648029139    C1070
    0.6436675870513600    0.7967664945692015    0.7351315981362472    C1071
    0.9770009203846933    0.1300998279025348    0.0684649314695805    C1072
    0.9770009203846933    0.1300998279025348    0.4017982648029139    C1073
    0.9770009203846933    0.1300998279025348    0.7351315981362472    C1074
    0.9770009203846933    0.4634331612358682    0.0684649314695805    C1075
    0.9770009203846933    0.4634331612358682    0.4017982648029139    C1076
    0.9770009203846933    0.4634331612358682    0.7351315981362472    C1077
    0.9770009203846933    0.7967664945692015    0.0684649314695805    C1078
    0.9770009203846933    0.7967664945692015    0.4017982648029139    C1079
    0.9770009203846933    0.7967664945692015    0.7351315981362472    C1080
    0.1332997212394236    0.1764179324661883    0.3084817314758788    C1081
    0.1332997212394236    0.1764179324661883    0.6418150648092120    C1082
    0.1332997212394236    0.1764179324661883    0.9751483981425453    C1083
    0.1332997212394236    0.5097512657995217    0.3084817314758788    C1084
    0.1332997212394236    0.5097512657995217    0.6418150648092120    C1085
    0.1332997212394236    0.5097512657995217    0.9751483981425453    C1086
    0.1332997212394236    0.8430845991328551    0.3084817314758788    C1087
    0.1332997212394236    0.8430845991328551    0.6418150648092120    C1088
    0.1332997212394236    0.8430845991328551    0.9751483981425453    C1089
    0.4666330545727568    0.1764179324661883    0.3084817314758788    C1090
    0.4666330545727568    0.1764179324661883    0.6418150648092120    C1091
    0.4666330545727568    0.1764179324661883    0.9751483981425453    C1092
    0.4666330545727568    0.5097512657995217    0.3084817314758788    C1093
    0.4666330545727568    0.5097512657995217    0.6418150648092120    C1094
    0.4666330545727568    0.5097512657995217    0.9751483981425453    C1095
    0.4666330545727568    0.8430845991328551    0.3084817314758788    C1096
    0.4666330545727568    0.8430845991328551    0.6418150648092120    C1097
    0.4666330545727568    0.8430845991328551    0.9751483981425453    C1098
    0.7999663879060901    0.1764179324661883    0.3084817314758788    C1099
    0.7999663879060901    0.1764179324661883    0.6418150648092120    C1100
    0.7999663879060901    0.1764179324661883    0.9751483981425453    C1101
    0.7999663879060901    0.5097512657995217    0.3084817314758788    C1102
    0.7999663879060901    0.5097512657995217    0.6418150648092120    C1103
    0.7999663879060901    0.5097512657995217    0.9751483981425453    C1104
    0.7999663879060901    0.8430845991328551    0.3084817314758788    C1105
    0.7999663879060901    0.8430845991328551    0.6418150648092120    C1106
    0.7999663879060901    0.8430845991328551    0.9751483981425453    C1107
    0.0445351915528331    0.1832228760675617    0.3020803691462013    C1108
    0.0445351915528331    0.1832228760675617    0.6354137024795347    C1109
    0.0445351915528331    0.1832228760675617    0.9687470358128680    C1110
    0.0445351915528331    0.5165562094008951    0.3020803691462013    C1111
    0.0445351915528331    0.5165562094008951    0.6354137024795347    C1112
    0.0445351915528331    0.5165562094008951    0.9687470358128680    C1113
    0.0445351915528331    0.8498895427342285    0.3020803691462013    C1114
    0.0445351915528331    0.8498895427342285    0.6354137024795347    C1115
    0.0445351915528331    0.8498895427342285    0.9687470358128680    C1116
    0.3778685248861664    0.1832228760675617    0.3020803691462013    C1117
    0.3778685248861664    0.1832228760675617    0.6354137024795347    C1118
    0.3778685248861664    0.1832228760675617    0.9687470358128680    C1119
    0.3778685248861664    0.5165562094008951    0.3020803691462013    C1120
    0.3778685248861664    0.5165562094008951    0.6354137024795347    C1121
    0.3778685248861664    0.5165562094008951    0.9687470358128680    C1122
    0.3778685248861664    0.8498895427342285    0.3020803691462013    C1123
    0.3778685248861664    0.8498895427342285    0.6354137024795347    C1124
    0.3778685248861664    0.8498895427342285    0.9687470358128680    C1125
    0.7112018582194997    0.1832228760675617    0.3020803691462013    C1126
    0.7112018582194997    0.1832228760675617    0.6354137024795347    C1127
    0.7112018582194997    0.1832228760675617    0.9687470358128680    C1128
    0.7112018582194997    0.5165562094008951    0.3020803691462013    C1129
    0.7112018582194997    0.5165562094008951    0.6354137024795347    C1130
    0.7112018582194997    0.5165562094008951    0.9687470358128680    C1131
    0.7112018582194997    0.8498895427342285    0.3020803691462013    C1132
    0.7112018582194997    0.8498895427342285    0.6354137024795347    C1133
    0.7112018582194997    0.8498895427342285    0.9687470358128680    C1134
    0.0261695525303767    0.1750795814019477    0.3309273689360500    C1135
    0.0261695525303767    0.1750795814019477    0.6642607022693833    C1136
    0.0261695525303767    0.1750795814019477    0.9975940356027165    C1137
    0.0261695525303767    0.5084129147352811    0.3309273689360500    C1138
    0.0261695525303767    0.5084129147352811    0.6642607022693833    C1139
    0.0261695525303767    0.5084129147352811    0.9975940356027165    C1140
    0.0261695525303767    0.8417462480686144    0.3309273689360500    C1141
    0.0261695525303767    0.8417462480686144    0.6642607022693833    C1142
    0.0261695525303767    0.8417462480686144    0.9975940356027165    C1143
    0.3595028858637099    0.1750795814019477    0.3309273689360500    C1144
    0.3595028858637099    0.1750795814019477    0.6642607022693833    C1145
    0.3595028858637099    0.1750795814019477    0.9975940356027165    C1146
    0.3595028858637099    0.5084129147352811    0.3309273689360500    C1147
    0.3595028858637099    0.5084129147352811    0.6642607022693833    C1148
    0.3595028858637099    0.5084129147352811    0.9975940356027165    C1149
    0.3595028858637099    0.8417462480686144    0.3309273689360500    C1150
    0.3595028858637099    0.8417462480686144    0.6642607022693833    C1151
    0.3595028858637099    0.8417462480686144    0.9975940356027165    C1152
    0.6928362191970433    0.1750795814019477    0.3309273689360500    C1153
    0.6928362191970433    0.1750795814019477    0.6642607022693833    C1154
    0.6928362191970433    0.1750795814019477    0.9975940356027165    C1155
    0.6928362191970433    0.5084129147352811    0.3309273689360500    C1156
    0.6928362191970433    0.5084129147352811    0.6642607022693833    C1157
    0.6928362191970433    0.5084129147352811    0.9975940356027165    C1158
    0.6928362191970433    0.8417462480686144    0.3309273689360500    C1159
    0.6928362191970433    0.8417462480686144    0.6642607022693833    C1160
    0.6928362191970433    0.8417462480686144    0.9975940356027165    C1161
    0.0834632493295769    0.2692871679947489    0.3604417778167555    C1162
    0.0834632493295769    0.2692871679947489    0.6937751111500888    C1163
    0.0834632493295769    0.2692871679947489    0.0271084444834221    C1164
    0.0834632493295769    0.6026205013280823    0.3604417778167555    C1165
    0.0834632493295769    0.6026205013280823    0.6937751111500888    C1166
    0.0834632493295769    0.6026205013280823    0.0271084444834221    C1167
    0.0834632493295769    0.9359538346614156    0.3604417778167555    C1168
    0.0834632493295769    0.9359538346614156    0.6937751111500888    C1169
    0.0834632493295769    0.9359538346614156    0.0271084444834221    C1170
    0.4167965826629102    0.2692871679947489    0.3604417778167555    C1171
    0.4167965826629102    0.2692871679947489    0.6937751111500888    C1172
    0.4167965826629102    0.2692871679947489    0.0271084444834221    C1173
    0.4167965826629102    0.6026205013280823    0.3604417778167555    C1174
    0.4167965826629102    0.6026205013280823    0.6937751111500888    C1175
    0.4167965826629102    0.6026205013280823    0.0271084444834221    C1176
    0.4167965826629102    0.9359538346614156    0.3604417778167555    C1177
    0.4167965826629102    0.9359538346614156    0.6937751111500888    C1178
    0.4167965826629102    0.9359538346614156    0.0271084444834221    C1179
    0.7501299159962436    0.2692871679947489    0.3604417778167555    C1180
    0.7501299159962436    0.2692871679947489    0.6937751111500888    C1181
    0.7501299159962436    0.2692871679947489    0.0271084444834221    C1182
    0.7501299159962436    0.6026205013280823    0.3604417778167555    C1183
    0.7501299159962436    0.6026205013280823    0.6937751111500888    C1184
    0.7501299159962436    0.6026205013280823    0.0271084444834221    C1185
    0.7501299159962436    0.9359538346614156    0.3604417778167555    C1186
    0.7501299159962436    0.9359538346614156    0.6937751111500888    C1187
    0.7501299159962436    0.9359538346614156    0.0271084444834221    C1188
    0.1176000972892126    0.1653798867781378    0.3597809411366774    C1189
    0.1176000972892126    0.1653798867781378    0.6931142744700107    C1190
    0.1176000972892126    0.1653798867781378    0.0264476078033440    C1191
    0.1176000972892126    0.4987132201114711    0.3597809411366774    C1192
    0.1176000972892126    0.4987132201114711    0.6931142744700107    C1193
    0.1176000972892126    0.4987132201114711    0.0264476078033440    C1194
    0.1176000972892126    0.8320465534448045    0.3597809411366774    C1195
    0.1176000972892126    0.8320465534448045    0.6931142744700107    C1196
    0.1176000972892126    0.8320465534448045    0.0264476078033440    C1197
    0.4509334306225460    0.1653798867781378    0.3597809411366774    C1198
    0.4509334306225460    0.1653798867781378    0.6931142744700107    C1199
    0.4509334306225460    0.1653798867781378    0.0264476078033440    C1200
    0.4509334306225460    0.4987132201114711    0.3597809411366774    C1201
    0.4509334306225460    0.4987132201114711    0.6931142744700107    C1202
    0.4509334306225460    0.4987132201114711    0.0264476078033440    C1203
    0.4509334306225460    0.8320465534448045    0.3597809411366774    C1204
    0.4509334306225460    0.8320465534448045    0.6931142744700107    C1205
    0.4509334306225460    0.8320465534448045    0.0264476078033440    C1206
    0.7842667639558792    0.1653798867781378    0.3597809411366774    C1207
    0.7842667639558792    0.1653798867781378    0.6931142744700107    C1208
    0.7842667639558792    0.1653798867781378    0.0264476078033440    C1209
    0.7842667639558792    0.4987132201114711    0.3597809411366774    C1210
    0.7842667639558792    0.4987132201114711    0.6931142744700107    C1211
    0.7842667639558792    0.4987132201114711    0.0264476078033440    C1212
    0.7842667639558792    0.8320465534448045    0.3597809411366774    C1213
    0.7842667639558792    0.8320465534448045    0.6931142744700107    C1214
    0.7842667639558792    0.8320465534448045    0.0264476078033440    C1215
    0.1586309476880492    0.2081875986173902    0.3079171881892239    C1216
    0.1586309476880492    0.2081875986173902    0.6412505215225572    C1217
    0.1586309476880492    0.2081875986173902    0.9745838548558905    C1218
    0.1586309476880492    0.5415209319507235    0.3079171881892239    C1219
    0.1586309476880492    0.5415209319507235    0.6412505215225572    C1220
    0.1586309476880492    0.5415209319507235    0.9745838548558905    C1221
    0.1586309476880492    0.8748542652840569    0.3079171881892239    C1222
    0.1586309476880492    0.8748542652840569    0.6412505215225572    C1223
    0.1586309476880492    0.8748542652840569    0.9745838548558905    C1224
    0.4919642810213825    0.2081875986173902    0.3079171881892239    C1225
    0.4919642810213825    0.2081875986173902    0.6412505215225572    C1226
    0.4919642810213825    0.2081875986173902    0.9745838548558905    C1227
    0.4919642810213825    0.5415209319507235    0.3079171881892239    C1228
    0.4919642810213825    0.5415209319507235    0.6412505215225572    C1229
    0.4919642810213825    0.5415209319507235    0.9745838548558905    C1230
    0.4919642810213825    0.8748542652840569    0.3079171881892239    C1231
    0.4919642810213825    0.8748542652840569    0.6412505215225572    C1232
    0.4919642810213825    0.8748542652840569    0.9745838548558905    C1233
    0.8252976143547158    0.2081875986173902    0.3079171881892239    C1234
    0.8252976143547158    0.2081875986173902    0.6412505215225572    C1235
    0.8252976143547158    0.2081875986173902    0.9745838548558905    C1236
    0.8252976143547158    0.5415209319507235    0.3079171881892239    C1237
    0.8252976143547158    0.5415209319507235    0.6412505215225572    C1238
    0.8252976143547158    0.5415209319507235    0.9745838548558905    C1239
    0.8252976143547158    0.8748542652840569    0.3079171881892239    C1240
    0.8252976143547158    0.8748542652840569    0.6412505215225572    C1241
    0.8252976143547158    0.8748542652840569    0.9745838548558905    C1242
    0.9895718649217686    0.2124829850396048    0.3157321768785009    C1243
    0.9895718649217686    0.2124829850396048    0.6490655102118342    C1244
    0.9895718649217686    0.2124829850396048    0.9823988435451676    C1245
    0.9895718649217686    0.5458163183729382    0.3157321768785009    C1246
    0.9895718649217686    0.5458163183729382    0.6490655102118342    C1247
    0.9895718649217686    0.5458163183729382    0.9823988435451676    C1248
    0.9895718649217686    0.8791496517062715    0.3157321768785009    C1249
    0.9895718649217686    0.8791496517062715    0.6490655102118342    C1250
    0.9895718649217686    0.8791496517062715    0.9823988435451676    C1251
    0.3229051982551020    0.2124829850396048    0.3157321768785009    C1252
    0.3229051982551020    0.2124829850396048    0.6490655102118342    C1253
    0.3229051982551020    0.2124829850396048    0.9823988435451676    C1254
    0.3229051982551020    0.5458163183729382    0.3157321768785009    C1255
    0.3229051982551020    0.5458163183729382    0.6490655102118342    C1256
    0.3229051982551020    0.5458163183729382    0.9823988435451676    C1257
    0.3229051982551020    0.8791496517062715    0.3157321768785009    C1258
    0.3229051982551020    0.8791496517062715    0.6490655102118342    C1259
    0.3229051982551020    0.8791496517062715    0.9823988435451676    C1260
    0.6562385315884354    0.2124829850396048    0.3157321768785009    C1261
    0.6562385315884354    0.2124829850396048    0.6490655102118342    C1262
    0.6562385315884354    0.2124829850396048    0.9823988435451676    C1263
    0.6562385315884354    0.5458163183729382    0.3157321768785009    C1264
    0.6562385315884354    0.5458163183729382    0.6490655102118342    C1265
    0.6562385315884354    0.5458163183729382    0.9823988435451676    C1266
    0.6562385315884354    0.8791496517062715    0.3157321768785009    C1267
    0.6562385315884354    0.8791496517062715    0.6490655102118342    C1268
    0.6562385315884354    0.8791496517062715    0.9823988435451676    C1269
    0.1301305864532866    0.2060809493126186    0.3570734875182107    C1270
    0.1301305864532866    0.2060809493126186    0.6904068208515439    C1271
    0.1301305864532866    0.2060809493126186    0.0237401541848773    C1272
    0.1301305864532866    0.5394142826459518    0.3570734875182107    C1273
    0.1301305864532866    0.5394142826459518    0.6904068208515439    C1274
    0.1301305864532866    0.5394142826459518    0.0237401541848773    C1275
    0.1301305864532866    0.8727476159792851    0.3570734875182107    C1276
    0.1301305864532866    0.8727476159792851    0.6904068208515439    C1277
    0.1301305864532866    0.8727476159792851    0.0237401541848773    C1278
    0.4634639197866199    0.2060809493126186    0.3570734875182107    C1279
    0.4634639197866199    0.2060809493126186    0.6904068208515439    C1280
    0.4634639197866199    0.2060809493126186    0.0237401541848773    C1281
    0.4634639197866199    0.5394142826459518    0.3570734875182107    C1282
    0.4634639197866199    0.5394142826459518    0.6904068208515439    C1283
    0.4634639197866199    0.5394142826459518    0.0237401541848773    C1284
    0.4634639197866199    0.8727476159792851    0.3570734875182107    C1285
    0.4634639197866199    0.8727476159792851    0.6904068208515439    C1286
    0.4634639197866199    0.8727476159792851    0.0237401541848773    C1287
    0.7967972531199532    0.2060809493126186    0.3570734875182107    C1288
    0.7967972531199532    0.2060809493126186    0.6904068208515439    C1289
    0.7967972531199532    0.2060809493126186    0.0237401541848773    C1290
    0.7967972531199532    0.5394142826459518    0.3570734875182107    C1291
    0.7967972531199532    0.5394142826459518    0.6904068208515439    C1292
    0.7967972531199532    0.5394142826459518    0.0237401541848773    C1293
    0.7967972531199532    0.8727476159792851    0.3570734875182107    C1294
    0.7967972531199532    0.8727476159792851    0.6904068208515439    C1295
    0.7967972531199532    0.8727476159792851    0.0237401541848773    C1296
    0.1529749465905493    0.2257557337453807    0.3324667872223672    C1297
    0.1529749465905493    0.2257557337453807    0.6658001205557005    C1298
    0.1529749465905493    0.2257557337453807    0.9991334538890339    C1299
    0.1529749465905493    0.5590890670787141    0.3324667872223672    C1300
    0.1529749465905493    0.5590890670787141    0.6658001205557005    C1301
    0.1529749465905493    0.5590890670787141    0.9991334538890339    C1302
    0.1529749465905493    0.8924224004120473    0.3324667872223672    C1303
    0.1529749465905493    0.8924224004120473    0.6658001205557005    C1304
    0.1529749465905493    0.8924224004120473    0.9991334538890339    C1305
    0.4863082799238826    0.2257557337453807    0.3324667872223672    C1306
    0.4863082799238826    0.2257557337453807    0.6658001205557005    C1307
    0.4863082799238826    0.2257557337453807    0.9991334538890339    C1308
    0.4863082799238826    0.5590890670787141    0.3324667872223672    C1309
    0.4863082799238826    0.5590890670787141    0.6658001205557005    C1310
    0.4863082799238826    0.5590890670787141    0.9991334538890339    C1311
    0.4863082799238826    0.8924224004120473    0.3324667872223672    C1312
    0.4863082799238826    0.8924224004120473    0.6658001205557005    C1313
    0.4863082799238826    0.8924224004120473    0.9991334538890339    C1314
    0.8196416132572160    0.2257557337453807    0.3324667872223672    C1315
    0.8196416132572160    0.2257557337453807    0.6658001205557005    C1316
    0.8196416132572160    0.2257557337453807    0.9991334538890339    C1317
    0.8196416132572160    0.5590890670787141    0.3324667872223672    C1318
    0.8196416132572160    0.5590890670787141    0.6658001205557005    C1319
    0.8196416132572160    0.5590890670787141    0.9991334538890339    C1320
    0.8196416132572160    0.8924224004120473    0.3324667872223672    C1321
    0.8196416132572160    0.8924224004120473    0.6658001205557005    C1322
    0.8196416132572160    0.8924224004120473    0.9991334538890339    C1323
    0.2202783108610471    0.2183112779061660    0.1882088833359514    C1324
    0.2202783108610471    0.2183112779061660    0.5215422166692849    C1325
    0.2202783108610471    0.2183112779061660    0.8548755500026182    C1326
    0.2202783108610471    0.5516446112394994    0.1882088833359514    C1327
    0.2202783108610471    0.5516446112394994    0.5215422166692849    C1328
    0.2202783108610471    0.5516446112394994    0.8548755500026182    C1329
    0.2202783108610471    0.8849779445728326    0.1882088833359514    C1330
    0.2202783108610471    0.8849779445728326    0.5215422166692849    C1331
    0.2202783108610471    0.8849779445728326    0.8548755500026182    C1332
    0.5536116441943805    0.2183112779061660    0.1882088833359514    C1333
    0.5536116441943805    0.2183112779061660    0.5215422166692849    C1334
    0.5536116441943805    0.2183112779061660    0.8548755500026182    C1335
    0.5536116441943805    0.5516446112394994    0.1882088833359514    C1336
    0.5536116441943805    0.5516446112394994    0.5215422166692849    C1337
    0.5536116441943805    0.5516446112394994    0.8548755500026182    C1338
    0.5536116441943805    0.8849779445728326    0.1882088833359514    C1339
    0.5536116441943805    0.8849779445728326    0.5215422166692849    C1340
    0.5536116441943805    0.8849779445728326    0.8548755500026182    C1341
    0.8869449775277138    0.2183112779061660    0.1882088833359514    C1342
    0.8869449775277138    0.2183112779061660    0.5215422166692849    C1343
    0.8869449775277138    0.2183112779061660    0.8548755500026182    C1344
    0.8869449775277138    0.5516446112394994    0.1882088833359514    C1345
    0.8869449775277138    0.5516446112394994    0.5215422166692849    C1346
    0.8869449775277138    0.5516446112394994    0.8548755500026182    C1347
    0.8869449775277138    0.8849779445728326    0.1882088833359514    C1348
    0.8869449775277138    0.8849779445728326    0.5215422166692849    C1349
    0.8869449775277138    0.8849779445728326    0.8548755500026182    C1350
    0.1162917420896210    0.1506915764018369    0.3360130623116437    C1351
    0.1162917420896210    0.1506915764018369    0.6693463956449770    C1352
    0.1162917420896210    0.1506915764018369    0.0026797289783103    C1353
    0.1162917420896210    0.4840249097351703    0.3360130623116437    C1354
    0.1162917420896210    0.4840249097351703    0.6693463956449770    C1355
    0.1162917420896210    0.4840249097351703    0.0026797289783103    C1356
    0.1162917420896210    0.8173582430685036    0.3360130623116437    C1357
    0.1162917420896210    0.8173582430685036    0.6693463956449770    C1358
    0.1162917420896210    0.8173582430685036    0.0026797289783103    C1359
    0.4496250754229543    0.1506915764018369    0.3360130623116437    C1360
    0.4496250754229543    0.1506915764018369    0.6693463956449770    C1361
    0.4496250754229543    0.1506915764018369    0.0026797289783103    C1362
    0.4496250754229543    0.4840249097351703    0.3360130623116437    C1363
    0.4496250754229543    0.4840249097351703    0.6693463956449770    C1364
    0.4496250754229543    0.4840249097351703    0.0026797289783103    C1365
    0.4496250754229543    0.8173582430685036    0.3360130623116437    C1366
    0.4496250754229543    0.8173582430685036    0.6693463956449770    C1367
    0.4496250754229543    0.8173582430685036    0.0026797289783103    C1368
    0.7829584087562876    0.1506915764018369    0.3360130623116437    C1369
    0.7829584087562876    0.1506915764018369    0.6693463956449770    C1370
    0.7829584087562876    0.1506915764018369    0.0026797289783103    C1371
    0.7829584087562876    0.4840249097351703    0.3360130623116437    C1372
    0.7829584087562876    0.4840249097351703    0.6693463956449770    C1373
    0.7829584087562876    0.4840249097351703    0.0026797289783103    C1374
    0.7829584087562876    0.8173582430685036    0.3360130623116437    C1375
    0.7829584087562876    0.8173582430685036    0.6693463956449770    C1376
    0.7829584087562876    0.8173582430685036    0.0026797289783103    C1377
    0.2194307640549645    0.2275580893833568    0.2141582475626451    C1378
    0.2194307640549645    0.2275580893833568    0.5474915808959784    C1379
    0.2194307640549645    0.2275580893833568    0.8808249142293116    C1380
    0.2194307640549645    0.5608914227166901    0.2141582475626451    C1381
    0.2194307640549645    0.5608914227166901    0.5474915808959784    C1382
    0.2194307640549645    0.5608914227166901    0.8808249142293116    C1383
    0.2194307640549645    0.8942247560500234    0.2141582475626451    C1384
    0.2194307640549645    0.8942247560500234    0.5474915808959784    C1385
    0.2194307640549645    0.8942247560500234    0.8808249142293116    C1386
    0.5527640973882979    0.2275580893833568    0.2141582475626451    C1387
    0.5527640973882979    0.2275580893833568    0.5474915808959784    C1388
    0.5527640973882979    0.2275580893833568    0.8808249142293116    C1389
    0.5527640973882979    0.5608914227166901    0.2141582475626451    C1390
    0.5527640973882979    0.5608914227166901    0.5474915808959784    C1391
    0.5527640973882979    0.5608914227166901    0.8808249142293116    C1392
    0.5527640973882979    0.8942247560500234    0.2141582475626451    C1393
    0.5527640973882979    0.8942247560500234    0.5474915808959784    C1394
    0.5527640973882979    0.8942247560500234    0.8808249142293116    C1395
    0.8860974307216312    0.2275580893833568    0.2141582475626451    C1396
    0.8860974307216312    0.2275580893833568    0.5474915808959784    C1397
    0.8860974307216312    0.2275580893833568    0.8808249142293116    C1398
    0.8860974307216312    0.5608914227166901    0.2141582475626451    C1399
    0.8860974307216312    0.5608914227166901    0.5474915808959784    C1400
    0.8860974307216312    0.5608914227166901    0.8808249142293116    C1401
    0.8860974307216312    0.8942247560500234    0.2141582475626451    C1402
    0.8860974307216312    0.8942247560500234    0.5474915808959784    C1403
    0.8860974307216312    0.8942247560500234    0.8808249142293116    C1404
    0.0632677504394130    0.0696829343076661    0.4476282647928062    C1405
    0.0632677504394130    0.0696829343076661    0.7809615981261395    C1406
    0.0632677504394130    0.0696829343076661    0.1142949314594728    C1407
    0.0632677504394130    0.4030162676409996    0.4476282647928062    C1408
    0.0632677504394130    0.4030162676409996    0.7809615981261395    C1409
    0.0632677504394130    0.4030162676409996    0.1142949314594728    C1410
    0.0632677504394130    0.7363496009743329    0.4476282647928062    C1411
    0.0632677504394130    0.7363496009743329    0.7809615981261395    C1412
    0.0632677504394130    0.7363496009743329    0.1142949314594728    C1413
    0.3966010837727463    0.0696829343076661    0.4476282647928062    C1414
    0.3966010837727463    0.0696829343076661    0.7809615981261395    C1415
    0.3966010837727463    0.0696829343076661    0.1142949314594728    C1416
    0.3966010837727463    0.4030162676409996    0.4476282647928062    C1417
    0.3966010837727463    0.4030162676409996    0.7809615981261395    C1418
    0.3966010837727463    0.4030162676409996    0.1142949314594728    C1419
    0.3966010837727463    0.7363496009743329    0.4476282647928062    C1420
    0.3966010837727463    0.7363496009743329    0.7809615981261395    C1421
    0.3966010837727463    0.7363496009743329    0.1142949314594728    C1422
    0.7299344171060796    0.0696829343076661    0.4476282647928062    C1423
    0.7299344171060796    0.0696829343076661    0.7809615981261395    C1424
    0.7299344171060796    0.0696829343076661    0.1142949314594728    C1425
    0.7299344171060796    0.4030162676409996    0.4476282647928062    C1426
    0.7299344171060796    0.4030162676409996    0.7809615981261395    C1427
    0.7299344171060796    0.4030162676409996    0.1142949314594728    C1428
    0.7299344171060796    0.7363496009743329    0.4476282647928062    C1429
    0.7299344171060796    0.7363496009743329    0.7809615981261395    C1430
    0.7299344171060796    0.7363496009743329    0.1142949314594728    C1431
    0.9979440065614100    0.1917871020130900    0.3364871782044947    C1432
    0.9979440065614100    0.1917871020130900    0.6698205115378280    C1433
    0.9979440065614100    0.1917871020130900    0.0031538448711613    C1434
    0.9979440065614100    0.5251204353464234    0.3364871782044947    C1435
    0.9979440065614100    0.5251204353464234    0.6698205115378280    C1436
    0.9979440065614100    0.5251204353464234    0.0031538448711613    C1437
    0.9979440065614100    0.8584537686797566    0.3364871782044947    C1438
    0.9979440065614100    0.8584537686797566    0.6698205115378280    C1439
    0.9979440065614100    0.8584537686797566    0.0031538448711613    C1440
    0.3312773398947434    0.1917871020130900    0.3364871782044947    C1441
    0.3312773398947434    0.1917871020130900    0.6698205115378280    C1442
    0.3312773398947434    0.1917871020130900    0.0031538448711613    C1443
    0.3312773398947434    0.5251204353464234    0.3364871782044947    C1444
    0.3312773398947434    0.5251204353464234    0.6698205115378280    C1445
    0.3312773398947434    0.5251204353464234    0.0031538448711613    C1446
    0.3312773398947434    0.8584537686797566    0.3364871782044947    C1447
    0.3312773398947434    0.8584537686797566    0.6698205115378280    C1448
    0.3312773398947434    0.8584537686797566    0.0031538448711613    C1449
    0.6646106732280768    0.1917871020130900    0.3364871782044947    C1450
    0.6646106732280768    0.1917871020130900    0.6698205115378280    C1451
    0.6646106732280768    0.1917871020130900    0.0031538448711613    C1452
    0.6646106732280768    0.5251204353464234    0.3364871782044947    C1453
    0.6646106732280768    0.5251204353464234    0.6698205115378280    C1454
    0.6646106732280768    0.5251204353464234    0.0031538448711613    C1455
    0.6646106732280768    0.8584537686797566    0.3364871782044947    C1456
    0.6646106732280768    0.8584537686797566    0.6698205115378280    C1457
    0.6646106732280768    0.8584537686797566    0.0031538448711613    C1458
    0.0894824623983310    0.0999614467910681    0.1160887087762343    C1459
    0.0894824623983310    0.0999614467910681    0.4494220421095676    C1460
    0.0894824623983310    0.0999614467910681    0.7827553754429010    C1461
    0.0894824623983310    0.4332947801244015    0.1160887087762343    C1462
    0.0894824623983310    0.4332947801244015    0.4494220421095676    C1463
    0.0894824623983310    0.4332947801244015    0.7827553754429010    C1464
    0.0894824623983310    0.7666281134577347    0.1160887087762343    C1465
    0.0894824623983310    0.7666281134577347    0.4494220421095676    C1466
    0.0894824623983310    0.7666281134577347    0.7827553754429010    C1467
    0.4228157957316644    0.0999614467910681    0.1160887087762343    C1468
    0.4228157957316644    0.0999614467910681    0.4494220421095676    C1469
    0.4228157957316644    0.0999614467910681    0.7827553754429010    C1470
    0.4228157957316644    0.4332947801244015    0.1160887087762343    C1471
    0.4228157957316644    0.4332947801244015    0.4494220421095676    C1472
    0.4228157957316644    0.4332947801244015    0.7827553754429010    C1473
    0.4228157957316644    0.7666281134577347    0.1160887087762343    C1474
    0.4228157957316644    0.7666281134577347    0.4494220421095676    C1475
    0.4228157957316644    0.7666281134577347    0.7827553754429010    C1476
    0.7561491290649978    0.0999614467910681    0.1160887087762343    C1477
    0.7561491290649978    0.0999614467910681    0.4494220421095676    C1478
    0.7561491290649978    0.0999614467910681    0.7827553754429010    C1479
    0.7561491290649978    0.4332947801244015    0.1160887087762343    C1480
    0.7561491290649978    0.4332947801244015    0.4494220421095676    C1481
    0.7561491290649978    0.4332947801244015    0.7827553754429010    C1482
    0.7561491290649978    0.7666281134577347    0.1160887087762343    C1483
    0.7561491290649978    0.7666281134577347    0.4494220421095676    C1484
    0.7561491290649978    0.7666281134577347    0.7827553754429010    C1485
    0.1283849160058492    0.9982699366147187    0.3076274057299320    C1486
    0.1283849160058492    0.9982699366147187    0.6409607390632653    C1487
    0.1283849160058492    0.9982699366147187    0.9742940723965986    C1488
    0.1283849160058492    0.3316032699480520    0.3076274057299320    C1489
    0.1283849160058492    0.3316032699480520    0.6409607390632653    C1490
    0.1283849160058492    0.3316032699480520    0.9742940723965986    C1491
    0.1283849160058492    0.6649366032813853    0.3076274057299320    C1492
    0.1283849160058492    0.6649366032813853    0.6409607390632653    C1493
    0.1283849160058492    0.6649366032813853    0.9742940723965986    C1494
    0.4617182493391826    0.9982699366147187    0.3076274057299320    C1495
    0.4617182493391826    0.9982699366147187    0.6409607390632653    C1496
    0.4617182493391826    0.9982699366147187    0.9742940723965986    C1497
    0.4617182493391826    0.3316032699480520    0.3076274057299320    C1498
    0.4617182493391826    0.3316032699480520    0.6409607390632653    C1499
    0.4617182493391826    0.3316032699480520    0.9742940723965986    C1500
    0.4617182493391826    0.6649366032813853    0.3076274057299320    C1501
    0.4617182493391826    0.6649366032813853    0.6409607390632653    C1502
    0.4617182493391826    0.6649366032813853    0.9742940723965986    C1503
    0.7950515826725160    0.9982699366147187    0.3076274057299320    C1504
    0.7950515826725160    0.9982699366147187    0.6409607390632653    C1505
    0.7950515826725160    0.9982699366147187    0.9742940723965986    C1506
    0.7950515826725160    0.3316032699480520    0.3076274057299320    C1507
    0.7950515826725160    0.3316032699480520    0.6409607390632653    C1508
    0.7950515826725160    0.3316032699480520    0.9742940723965986    C1509
    0.7950515826725160    0.6649366032813853    0.3076274057299320    C1510
    0.7950515826725160    0.6649366032813853    0.6409607390632653    C1511
    0.7950515826725160    0.6649366032813853    0.9742940723965986    C1512
    0.1510909508201170    0.1219182689063298    0.1015064534706730    C1513
    0.1510909508201170    0.1219182689063298    0.4348397868040063    C1514
    0.1510909508201170    0.1219182689063298    0.7681731201373396    C1515
    0.1510909508201170    0.4552516022396631    0.1015064534706730    C1516
    0.1510909508201170    0.4552516022396631    0.4348397868040063    C1517
    0.1510909508201170    0.4552516022396631    0.7681731201373396    C1518
    0.1510909508201170    0.7885849355729964    0.1015064534706730    C1519
    0.1510909508201170    0.7885849355729964    0.4348397868040063    C1520
    0.1510909508201170    0.7885849355729964    0.7681731201373396    C1521
    0.4844242841534503    0.1219182689063298    0.1015064534706730    C1522
    0.4844242841534503    0.1219182689063298    0.4348397868040063    C1523
    0.4844242841534503    0.1219182689063298    0.7681731201373396    C1524
    0.4844242841534503    0.4552516022396631    0.1015064534706730    C1525
    0.4844242841534503    0.4552516022396631    0.4348397868040063    C1526
    0.4844242841534503    0.4552516022396631    0.7681731201373396    C1527
    0.4844242841534503    0.7885849355729964    0.1015064534706730    C1528
    0.4844242841534503    0.7885849355729964    0.4348397868040063    C1529
    0.4844242841534503    0.7885849355729964    0.7681731201373396    C1530
    0.8177576174867837    0.1219182689063298    0.1015064534706730    C1531
    0.8177576174867837    0.1219182689063298    0.4348397868040063    C1532
    0.8177576174867837    0.1219182689063298    0.7681731201373396    C1533
    0.8177576174867837    0.4552516022396631    0.1015064534706730    C1534
    0.8177576174867837    0.4552516022396631    0.4348397868040063    C1535
    0.8177576174867837    0.4552516022396631    0.7681731201373396    C1536
    0.8177576174867837    0.7885849355729964    0.1015064534706730    C1537
    0.8177576174867837    0.7885849355729964    0.4348397868040063    C1538
    0.8177576174867837    0.7885849355729964    0.7681731201373396    C1539
    0.2089585566595029    0.2408111737482747    0.0442182791782167    C1540
    0.2089585566595029    0.2408111737482747    0.3775516125115500    C1541
    0.2089585566595029    0.2408111737482747    0.7108849458448834    C1542
    0.2089585566595029    0.5741445070816080    0.0442182791782167    C1543
    0.2089585566595029    0.5741445070816080    0.3775516125115500    C1544
    0.2089585566595029    0.5741445070816080    0.7108849458448834    C1545
    0.2089585566595029    0.9074778404149413    0.0442182791782167    C1546
    0.2089585566595029    0.9074778404149413    0.3775516125115500    C1547
    0.2089585566595029    0.9074778404149413    0.7108849458448834    C1548
    0.5422918899928363    0.2408111737482747    0.0442182791782167    C1549
    0.5422918899928363    0.2408111737482747    0.3775516125115500    C1550
    0.5422918899928363    0.2408111737482747    0.7108849458448834    C1551
    0.5422918899928363    0.5741445070816080    0.0442182791782167    C1552
    0.5422918899928363    0.5741445070816080    0.3775516125115500    C1553
    0.5422918899928363    0.5741445070816080    0.7108849458448834    C1554
    0.5422918899928363    0.9074778404149413    0.0442182791782167    C1555
    0.5422918899928363    0.9074778404149413    0.3775516125115500    C1556
    0.5422918899928363    0.9074778404149413    0.7108849458448834    C1557
    0.8756252233261695    0.2408111737482747    0.0442182791782167    C1558
    0.8756252233261695    0.2408111737482747    0.3775516125115500    C1559
    0.8756252233261695    0.2408111737482747    0.7108849458448834    C1560
    0.8756252233261695    0.5741445070816080    0.0442182791782167    C1561
    0.8756252233261695    0.5741445070816080    0.3775516125115500    C1562
    0.8756252233261695    0.5741445070816080    0.7108849458448834    C1563
    0.8756252233261695    0.9074778404149413    0.0442182791782167    C1564
    0.8756252233261695    0.9074778404149413    0.3775516125115500    C1565
    0.8756252233261695    0.9074778404149413    0.7108849458448834    C1566
    0.2085056979678258    0.1004050934158588    0.2359382429502758    C1567
    0.2085056979678258    0.1004050934158588    0.5692715762836091    C1568
    0.2085056979678258    0.1004050934158588    0.9026049096169424    C1569
    0.2085056979678258    0.4337384267491922    0.2359382429502758    C1570
    0.2085056979678258    0.4337384267491922    0.5692715762836091    C1571
    0.2085056979678258    0.4337384267491922    0.9026049096169424    C1572
    0.2085056979678258    0.7670717600825254    0.2359382429502758    C1573
    0.2085056979678258    0.7670717600825254    0.5692715762836091    C1574
    0.2085056979678258    0.7670717600825254    0.9026049096169424    C1575
    0.5418390313011592    0.1004050934158588    0.2359382429502758    C1576
    0.5418390313011592    0.1004050934158588    0.5692715762836091    C1577
    0.5418390313011592    0.1004050934158588    0.9026049096169424    C1578
    0.5418390313011592    0.4337384267491922    0.2359382429502758    C1579
    0.5418390313011592    0.4337384267491922    0.5692715762836091    C1580
    0.5418390313011592    0.4337384267491922    0.9026049096169424    C1581
    0.5418390313011592    0.7670717600825254    0.2359382429502758    C1582
    0.5418390313011592    0.7670717600825254    0.5692715762836091    C1583
    0.5418390313011592    0.7670717600825254    0.9026049096169424    C1584
    0.8751723646344924    0.1004050934158588    0.2359382429502758    C1585
    0.8751723646344924    0.1004050934158588    0.5692715762836091    C1586
    0.8751723646344924    0.1004050934158588    0.9026049096169424    C1587
    0.8751723646344924    0.4337384267491922    0.2359382429502758    C1588
    0.8751723646344924    0.4337384267491922    0.5692715762836091    C1589
    0.8751723646344924    0.4337384267491922    0.9026049096169424    C1590
    0.8751723646344924    0.7670717600825254    0.2359382429502758    C1591
    0.8751723646344924    0.7670717600825254    0.5692715762836091    C1592
    0.8751723646344924    0.7670717600825254    0.9026049096169424    C1593
    0.0312378452614170    0.9462512646185108    0.3954406349368431    C1594
    0.0312378452614170    0.9462512646185108    0.7287739682701764    C1595
    0.0312378452614170    0.9462512646185108    0.0621073016035097    C1596
    0.0312378452614170    0.2795845979518442    0.3954406349368431    C1597
    0.0312378452614170    0.2795845979518442    0.7287739682701764    C1598
    0.0312378452614170    0.2795845979518442    0.0621073016035097    C1599
    0.0312378452614170    0.6129179312851776    0.3954406349368431    C1600
    0.0312378452614170    0.6129179312851776    0.7287739682701764    C1601
    0.0312378452614170    0.6129179312851776    0.0621073016035097    C1602
    0.3645711785947503    0.9462512646185108    0.3954406349368431    C1603
    0.3645711785947503    0.9462512646185108    0.7287739682701764    C1604
    0.3645711785947503    0.9462512646185108    0.0621073016035097    C1605
    0.3645711785947503    0.2795845979518442    0.3954406349368431    C1606
    0.3645711785947503    0.2795845979518442    0.7287739682701764    C1607
    0.3645711785947503    0.2795845979518442    0.0621073016035097    C1608
    0.3645711785947503    0.6129179312851776    0.3954406349368431    C1609
    0.3645711785947503    0.6129179312851776    0.7287739682701764    C1610
    0.3645711785947503    0.6129179312851776    0.0621073016035097    C1611
    0.6979045119280837    0.9462512646185108    0.3954406349368431    C1612
    0.6979045119280837    0.9462512646185108    0.7287739682701764    C1613
    0.6979045119280837    0.9462512646185108    0.0621073016035097    C1614
    0.6979045119280837    0.2795845979518442    0.3954406349368431    C1615
    0.6979045119280837    0.2795845979518442    0.7287739682701764    C1616
    0.6979045119280837    0.2795845979518442    0.0621073016035097    C1617
    0.6979045119280837    0.6129179312851776    0.3954406349368431    C1618
    0.6979045119280837    0.6129179312851776    0.7287739682701764    C1619
    0.6979045119280837    0.6129179312851776    0.0621073016035097    C1620
    0.1492964763789721    0.0745882870626117    0.3152093316523636    C1621
    0.1492964763789721    0.0745882870626117    0.6485426649856970    C1622
    0.1492964763789721    0.0745882870626117    0.9818759983190304    C1623
    0.1492964763789721    0.4079216203959450    0.3152093316523636    C1624
    0.1492964763789721    0.4079216203959450    0.6485426649856970    C1625
    0.1492964763789721    0.4079216203959450    0.9818759983190304    C1626
    0.1492964763789721    0.7412549537292783    0.3152093316523636    C1627
    0.1492964763789721    0.7412549537292783    0.6485426649856970    C1628
    0.1492964763789721    0.7412549537292783    0.9818759983190304    C1629
    0.4826298097123054    0.0745882870626117    0.3152093316523636    C1630
    0.4826298097123054    0.0745882870626117    0.6485426649856970    C1631
    0.4826298097123054    0.0745882870626117    0.9818759983190304    C1632
    0.4826298097123054    0.4079216203959450    0.3152093316523636    C1633
    0.4826298097123054    0.4079216203959450    0.6485426649856970    C1634
    0.4826298097123054    0.4079216203959450    0.9818759983190304    C1635
    0.4826298097123054    0.7412549537292783    0.3152093316523636    C1636
    0.4826298097123054    0.7412549537292783    0.6485426649856970    C1637
    0.4826298097123054    0.7412549537292783    0.9818759983190304    C1638
    0.8159631430456387    0.0745882870626117    0.3152093316523636    C1639
    0.8159631430456387    0.0745882870626117    0.6485426649856970    C1640
    0.8159631430456387    0.0745882870626117    0.9818759983190304    C1641
    0.8159631430456387    0.4079216203959450    0.3152093316523636    C1642
    0.8159631430456387    0.4079216203959450    0.6485426649856970    C1643
    0.8159631430456387    0.4079216203959450    0.9818759983190304    C1644
    0.8159631430456387    0.7412549537292783    0.3152093316523636    C1645
    0.8159631430456387    0.7412549537292783    0.6485426649856970    C1646
    0.8159631430456387    0.7412549537292783    0.9818759983190304    C1647
    0.1571102831830853    0.0367433911383621    0.3284885352183415    C1648
    0.1571102831830853    0.0367433911383621    0.6618218685516748    C1649
    0.1571102831830853    0.0367433911383621    0.9951552018850081    C1650
    0.1571102831830853    0.3700767244716955    0.3284885352183415    C1651
    0.1571102831830853    0.3700767244716955    0.6618218685516748    C1652
    0.1571102831830853    0.3700767244716955    0.9951552018850081    C1653
    0.1571102831830853    0.7034100578050289    0.3284885352183415    C1654
    0.1571102831830853    0.7034100578050289    0.6618218685516748    C1655
    0.1571102831830853    0.7034100578050289    0.9951552018850081    C1656
    0.4904436165164188    0.0367433911383621    0.3284885352183415    C1657
    0.4904436165164188    0.0367433911383621    0.6618218685516748    C1658
    0.4904436165164188    0.0367433911383621    0.9951552018850081    C1659
    0.4904436165164188    0.3700767244716955    0.3284885352183415    C1660
    0.4904436165164188    0.3700767244716955    0.6618218685516748    C1661
    0.4904436165164188    0.3700767244716955    0.9951552018850081    C1662
    0.4904436165164188    0.7034100578050289    0.3284885352183415    C1663
    0.4904436165164188    0.7034100578050289    0.6618218685516748    C1664
    0.4904436165164188    0.7034100578050289    0.9951552018850081    C1665
    0.8237769498497520    0.0367433911383621    0.3284885352183415    C1666
    0.8237769498497520    0.0367433911383621    0.6618218685516748    C1667
    0.8237769498497520    0.0367433911383621    0.9951552018850081    C1668
    0.8237769498497520    0.3700767244716955    0.3284885352183415    C1669
    0.8237769498497520    0.3700767244716955    0.6618218685516748    C1670
    0.8237769498497520    0.3700767244716955    0.9951552018850081    C1671
    0.8237769498497520    0.7034100578050289    0.3284885352183415    C1672
    0.8237769498497520    0.7034100578050289    0.6618218685516748    C1673
    0.8237769498497520    0.7034100578050289    0.9951552018850081    C1674
    0.0552511419487479    0.9570870837883270    0.3674751863881028    C1675
    0.0552511419487479    0.9570870837883270    0.7008085197214362    C1676
    0.0552511419487479    0.9570870837883270    0.0341418530547695    C1677
    0.0552511419487479    0.2904204171216602    0.3674751863881028    C1678
    0.0552511419487479    0.2904204171216602    0.7008085197214362    C1679
    0.0552511419487479    0.2904204171216602    0.0341418530547695    C1680
    0.0552511419487479    0.6237537504549936    0.3674751863881028    C1681
    0.0552511419487479    0.6237537504549936    0.7008085197214362    C1682
    0.0552511419487479    0.6237537504549936    0.0341418530547695    C1683
    0.3885844752820813    0.9570870837883270    0.3674751863881028    C1684
    0.3885844752820813    0.9570870837883270    0.7008085197214362    C1685
    0.3885844752820813    0.9570870837883270    0.0341418530547695    C1686
    0.3885844752820813    0.2904204171216602    0.3674751863881028    C1687
    0.3885844752820813    0.2904204171216602    0.7008085197214362    C1688
    0.3885844752820813    0.2904204171216602    0.0341418530547695    C1689
    0.3885844752820813    0.6237537504549936    0.3674751863881028    C1690
    0.3885844752820813    0.6237537504549936    0.7008085197214362    C1691
    0.3885844752820813    0.6237537504549936    0.0341418530547695    C1692
    0.7219178086154145    0.9570870837883270    0.3674751863881028    C1693
    0.7219178086154145    0.9570870837883270    0.7008085197214362    C1694
    0.7219178086154145    0.9570870837883270    0.0341418530547695    C1695
    0.7219178086154145    0.2904204171216602    0.3674751863881028    C1696
    0.7219178086154145    0.2904204171216602    0.7008085197214362    C1697
    0.7219178086154145    0.2904204171216602    0.0341418530547695    C1698
    0.7219178086154145    0.6237537504549936    0.3674751863881028    C1699
    0.7219178086154145    0.6237537504549936    0.7008085197214362    C1700
    0.7219178086154145    0.6237537504549936    0.0341418530547695    C1701
    0.0117954766919212    0.9751040092229810    0.4045786542461720    C1702
    0.0117954766919212    0.9751040092229810    0.7379119875795053    C1703
    0.0117954766919212    0.9751040092229810    0.0712453209128386    C1704
    0.0117954766919212    0.3084373425563143    0.4045786542461720    C1705
    0.0117954766919212    0.3084373425563143    0.7379119875795053    C1706
    0.0117954766919212    0.3084373425563143    0.0712453209128386    C1707
    0.0117954766919212    0.6417706758896475    0.4045786542461720    C1708
    0.0117954766919212    0.6417706758896475    0.7379119875795053    C1709
    0.0117954766919212    0.6417706758896475    0.0712453209128386    C1710
    0.3451288100252545    0.9751040092229810    0.4045786542461720    C1711
    0.3451288100252545    0.9751040092229810    0.7379119875795053    C1712
    0.3451288100252545    0.9751040092229810    0.0712453209128386    C1713
    0.3451288100252545    0.3084373425563143    0.4045786542461720    C1714
    0.3451288100252545    0.3084373425563143    0.7379119875795053    C1715
    0.3451288100252545    0.3084373425563143    0.0712453209128386    C1716
    0.3451288100252545    0.6417706758896475    0.4045786542461720    C1717
    0.3451288100252545    0.6417706758896475    0.7379119875795053    C1718
    0.3451288100252545    0.6417706758896475    0.0712453209128386    C1719
    0.6784621433585878    0.9751040092229810    0.4045786542461720    C1720
    0.6784621433585878    0.9751040092229810    0.7379119875795053    C1721
    0.6784621433585878    0.9751040092229810    0.0712453209128386    C1722
    0.6784621433585878    0.3084373425563143    0.4045786542461720    C1723
    0.6784621433585878    0.3084373425563143    0.7379119875795053    C1724
    0.6784621433585878    0.3084373425563143    0.0712453209128386    C1725
    0.6784621433585878    0.6417706758896475    0.4045786542461720    C1726
    0.6784621433585878    0.6417706758896475    0.7379119875795053    C1727
    0.6784621433585878    0.6417706758896475    0.0712453209128386    C1728
    0.1496440029724790    0.1673855031648589    0.1056410087035378    C1729
    0.1496440029724790    0.1673855031648589    0.4389743420368711    C1730
    0.1496440029724790    0.1673855031648589    0.7723076753702044    C1731
    0.1496440029724790    0.5007188364981923    0.1056410087035378    C1732
    0.1496440029724790    0.5007188364981923    0.4389743420368711    C1733
    0.1496440029724790    0.5007188364981923    0.7723076753702044    C1734
    0.1496440029724790    0.8340521698315255    0.1056410087035378    C1735
    0.1496440029724790    0.8340521698315255    0.4389743420368711    C1736
    0.1496440029724790    0.8340521698315255    0.7723076753702044    C1737
    0.4829773363058124    0.1673855031648589    0.1056410087035378    C1738
    0.4829773363058124    0.1673855031648589    0.4389743420368711    C1739
    0.4829773363058124    0.1673855031648589    0.7723076753702044    C1740
    0.4829773363058124    0.5007188364981923    0.1056410087035378    C1741
    0.4829773363058124    0.5007188364981923    0.4389743420368711    C1742
    0.4829773363058124    0.5007188364981923    0.7723076753702044    C1743
    0.4829773363058124    0.8340521698315255    0.1056410087035378    C1744
    0.4829773363058124    0.8340521698315255    0.4389743420368711    C1745
    0.4829773363058124    0.8340521698315255    0.7723076753702044    C1746
    0.8163106696391458    0.1673855031648589    0.1056410087035378    C1747
    0.8163106696391458    0.1673855031648589    0.4389743420368711    C1748
    0.8163106696391458    0.1673855031648589    0.7723076753702044    C1749
    0.8163106696391458    0.5007188364981923    0.1056410087035378    C1750
    0.8163106696391458    0.5007188364981923    0.4389743420368711    C1751
    0.8163106696391458    0.5007188364981923    0.7723076753702044    C1752
    0.8163106696391458    0.8340521698315255    0.1056410087035378    C1753
    0.8163106696391458    0.8340521698315255    0.4389743420368711    C1754
    0.8163106696391458    0.8340521698315255    0.7723076753702044    C1755
    0.2301238334526302    0.2946954513294630    0.0605849617678522    C1756
    0.2301238334526302    0.2946954513294630    0.3939182951011855    C1757
    0.2301238334526302    0.2946954513294630    0.7272516284345188    C1758
    0.2301238334526302    0.6280287846627963    0.0605849617678522    C1759
    0.2301238334526302    0.6280287846627963    0.3939182951011855    C1760
    0.2301238334526302    0.6280287846627963    0.7272516284345188    C1761
    0.2301238334526302    0.9613621179961296    0.0605849617678522    C1762
    0.2301238334526302    0.9613621179961296    0.3939182951011855    C1763
    0.2301238334526302    0.9613621179961296    0.7272516284345188    C1764
    0.5634571667859636    0.2946954513294630    0.0605849617678522    C1765
    0.5634571667859636    0.2946954513294630    0.3939182951011855    C1766
    0.5634571667859636    0.2946954513294630    0.7272516284345188    C1767
    0.5634571667859636    0.6280287846627963    0.0605849617678522    C1768
    0.5634571667859636    0.6280287846627963    0.3939182951011855    C1769
    0.5634571667859636    0.6280287846627963    0.7272516284345188    C1770
    0.5634571667859636    0.9613621179961296    0.0605849617678522    C1771
    0.5634571667859636    0.9613621179961296    0.3939182951011855    C1772
    0.5634571667859636    0.9613621179961296    0.7272516284345188    C1773
    0.8967905001192968    0.2946954513294630    0.0605849617678522    C1774
    0.8967905001192968    0.2946954513294630    0.3939182951011855    C1775
    0.8967905001192968    0.2946954513294630    0.7272516284345188    C1776
    0.8967905001192968    0.6280287846627963    0.0605849617678522    C1777
    0.8967905001192968    0.6280287846627963    0.3939182951011855    C1778
    0.8967905001192968    0.6280287846627963    0.7272516284345188    C1779
    0.8967905001192968    0.9613621179961296    0.0605849617678522    C1780
    0.8967905001192968    0.9613621179961296    0.3939182951011855    C1781
    0.8967905001192968    0.9613621179961296    0.7272516284345188    C1782
    0.1792602793623717    0.2334549834456039    0.0666507771840961    C1783
    0.1792602793623717    0.2334549834456039    0.3999841105174293    C1784
    0.1792602793623717    0.2334549834456039    0.7333174438507626    C1785
    0.1792602793623717    0.5667883167789372    0.0666507771840961    C1786
    0.1792602793623717    0.5667883167789372    0.3999841105174293    C1787
    0.1792602793623717    0.5667883167789372    0.7333174438507626    C1788
    0.1792602793623717    0.9001216501122705    0.0666507771840961    C1789
    0.1792602793623717    0.9001216501122705    0.3999841105174293    C1790
    0.1792602793623717    0.9001216501122705    0.7333174438507626    C1791
    0.5125936126957050    0.2334549834456039    0.0666507771840961    C1792
    0.5125936126957050    0.2334549834456039    0.3999841105174293    C1793
    0.5125936126957050    0.2334549834456039    0.7333174438507626    C1794
    0.5125936126957050    0.5667883167789372    0.0666507771840961    C1795
    0.5125936126957050    0.5667883167789372    0.3999841105174293    C1796
    0.5125936126957050    0.5667883167789372    0.7333174438507626    C1797
    0.5125936126957050    0.9001216501122705    0.0666507771840961    C1798
    0.5125936126957050    0.9001216501122705    0.3999841105174293    C1799
    0.5125936126957050    0.9001216501122705    0.7333174438507626    C1800
    0.8459269460290384    0.2334549834456039    0.0666507771840961    C1801
    0.8459269460290384    0.2334549834456039    0.3999841105174293    C1802
    0.8459269460290384    0.2334549834456039    0.7333174438507626    C1803
    0.8459269460290384    0.5667883167789372    0.0666507771840961    C1804
    0.8459269460290384    0.5667883167789372    0.3999841105174293    C1805
    0.8459269460290384    0.5667883167789372    0.7333174438507626    C1806
    0.8459269460290384    0.9001216501122705    0.0666507771840961    C1807
    0.8459269460290384    0.9001216501122705    0.3999841105174293    C1808
    0.8459269460290384    0.9001216501122705    0.7333174438507626    C1809
    0.1758702383238260    0.2648081380047878    0.0821999850351671    C1810
    0.1758702383238260    0.2648081380047878    0.4155333183685004    C1811
    0.1758702383238260    0.2648081380047878    0.7488666517018336    C1812
    0.1758702383238260    0.5981414713381210    0.0821999850351671    C1813
    0.1758702383238260    0.5981414713381210    0.4155333183685004    C1814
    0.1758702383238260    0.5981414713381210    0.7488666517018336    C1815
    0.1758702383238260    0.9314748046714544    0.0821999850351671    C1816
    0.1758702383238260    0.9314748046714544    0.4155333183685004    C1817
    0.1758702383238260    0.9314748046714544    0.7488666517018336    C1818
    0.5092035716571592    0.2648081380047878    0.0821999850351671    C1819
    0.5092035716571592    0.2648081380047878    0.4155333183685004    C1820
    0.5092035716571592    0.2648081380047878    0.7488666517018336    C1821
    0.5092035716571592    0.5981414713381210    0.0821999850351671    C1822
    0.5092035716571592    0.5981414713381210    0.4155333183685004    C1823
    0.5092035716571592    0.5981414713381210    0.7488666517018336    C1824
    0.5092035716571592    0.9314748046714544    0.0821999850351671    C1825
    0.5092035716571592    0.9314748046714544    0.4155333183685004    C1826
    0.5092035716571592    0.9314748046714544    0.7488666517018336    C1827
    0.8425369049904925    0.2648081380047878    0.0821999850351671    C1828
    0.8425369049904925    0.2648081380047878    0.4155333183685004    C1829
    0.8425369049904925    0.2648081380047878    0.7488666517018336    C1830
    0.8425369049904925    0.5981414713381210    0.0821999850351671    C1831
    0.8425369049904925    0.5981414713381210    0.4155333183685004    C1832
    0.8425369049904925    0.5981414713381210    0.7488666517018336    C1833
    0.8425369049904925    0.9314748046714544    0.0821999850351671    C1834
    0.8425369049904925    0.9314748046714544    0.4155333183685004    C1835
    0.8425369049904925    0.9314748046714544    0.7488666517018336    C1836
    0.1995760553930873    0.2970473398750986    0.0796193819583250    C1837
    0.1995760553930873    0.2970473398750986    0.4129527152916583    C1838
    0.1995760553930873    0.2970473398750986    0.7462860486249917    C1839
    0.1995760553930873    0.6303806732084318    0.0796193819583250    C1840
    0.1995760553930873    0.6303806732084318    0.4129527152916583    C1841
    0.1995760553930873    0.6303806732084318    0.7462860486249917    C1842
    0.1995760553930873    0.9637140065417651    0.0796193819583250    C1843
    0.1995760553930873    0.9637140065417651    0.4129527152916583    C1844
    0.1995760553930873    0.9637140065417651    0.7462860486249917    C1845
    0.5329093887264207    0.2970473398750986    0.0796193819583250    C1846
    0.5329093887264207    0.2970473398750986    0.4129527152916583    C1847
    0.5329093887264207    0.2970473398750986    0.7462860486249917    C1848
    0.5329093887264207    0.6303806732084318    0.0796193819583250    C1849
    0.5329093887264207    0.6303806732084318    0.4129527152916583    C1850
    0.5329093887264207    0.6303806732084318    0.7462860486249917    C1851
    0.5329093887264207    0.9637140065417651    0.0796193819583250    C1852
    0.5329093887264207    0.9637140065417651    0.4129527152916583    C1853
    0.5329093887264207    0.9637140065417651    0.7462860486249917    C1854
    0.8662427220597539    0.2970473398750986    0.0796193819583250    C1855
    0.8662427220597539    0.2970473398750986    0.4129527152916583    C1856
    0.8662427220597539    0.2970473398750986    0.7462860486249917    C1857
    0.8662427220597539    0.6303806732084318    0.0796193819583250    C1858
    0.8662427220597539    0.6303806732084318    0.4129527152916583    C1859
    0.8662427220597539    0.6303806732084318    0.7462860486249917    C1860
    0.8662427220597539    0.9637140065417651    0.0796193819583250    C1861
    0.8662427220597539    0.9637140065417651    0.4129527152916583    C1862
    0.8662427220597539    0.9637140065417651    0.7462860486249917    C1863
    0.1201420084236500    0.1063729921046281    0.0950394443087688    C1864
    0.1201420084236500    0.1063729921046281    0.4283727776421021    C1865
    0.1201420084236500    0.1063729921046281    0.7617061109754355    C1866
    0.1201420084236500    0.4397063254379615    0.0950394443087688    C1867
    0.1201420084236500    0.4397063254379615    0.4283727776421021    C1868
    0.1201420084236500    0.4397063254379615    0.7617061109754355    C1869
    0.1201420084236500    0.7730396587712949    0.0950394443087688    C1870
    0.1201420084236500    0.7730396587712949    0.4283727776421021    C1871
    0.1201420084236500    0.7730396587712949    0.7617061109754355    C1872
    0.4534753417569832    0.1063729921046281    0.0950394443087688    C1873
    0.4534753417569832    0.1063729921046281    0.4283727776421021    C1874
    0.4534753417569832    0.1063729921046281    0.7617061109754355    C1875
    0.4534753417569832    0.4397063254379615    0.0950394443087688    C1876
    0.4534753417569832    0.4397063254379615    0.4283727776421021    C1877
    0.4534753417569832    0.4397063254379615    0.7617061109754355    C1878
    0.4534753417569832    0.7730396587712949    0.0950394443087688    C1879
    0.4534753417569832    0.7730396587712949    0.4283727776421021    C1880
    0.4534753417569832    0.7730396587712949    0.7617061109754355    C1881
    0.7868086750903165    0.1063729921046281    0.0950394443087688    C1882
    0.7868086750903165    0.1063729921046281    0.4283727776421021    C1883
    0.7868086750903165    0.1063729921046281    0.7617061109754355    C1884
    0.7868086750903165    0.4397063254379615    0.0950394443087688    C1885
    0.7868086750903165    0.4397063254379615    0.4283727776421021    C1886
    0.7868086750903165    0.4397063254379615    0.7617061109754355    C1887
    0.7868086750903165    0.7730396587712949    0.0950394443087688    C1888
    0.7868086750903165    0.7730396587712949    0.4283727776421021    C1889
    0.7868086750903165    0.7730396587712949    0.7617061109754355    C1890
    0.1523191002308998    0.1936107913019754    0.0767906536266614    C1891
    0.1523191002308998    0.1936107913019754    0.4101239869599946    C1892
    0.1523191002308998    0.1936107913019754    0.7434573202933279    C1893
    0.1523191002308998    0.5269441246353088    0.0767906536266614    C1894
    0.1523191002308998    0.5269441246353088    0.4101239869599946    C1895
    0.1523191002308998    0.5269441246353088    0.7434573202933279    C1896
    0.1523191002308998    0.8602774579686421    0.0767906536266614    C1897
    0.1523191002308998    0.8602774579686421    0.4101239869599946    C1898
    0.1523191002308998    0.8602774579686421    0.7434573202933279    C1899
    0.4856524335642330    0.1936107913019754    0.0767906536266614    C1900
    0.4856524335642330    0.1936107913019754    0.4101239869599946    C1901
    0.4856524335642330    0.1936107913019754    0.7434573202933279    C1902
    0.4856524335642330    0.5269441246353088    0.0767906536266614    C1903
    0.4856524335642330    0.5269441246353088    0.4101239869599946    C1904
    0.4856524335642330    0.5269441246353088    0.7434573202933279    C1905
    0.4856524335642330    0.8602774579686421    0.0767906536266614    C1906
    0.4856524335642330    0.8602774579686421    0.4101239869599946    C1907
    0.4856524335642330    0.8602774579686421    0.7434573202933279    C1908
    0.8189857668975664    0.1936107913019754    0.0767906536266614    C1909
    0.8189857668975664    0.1936107913019754    0.4101239869599946    C1910
    0.8189857668975664    0.1936107913019754    0.7434573202933279    C1911
    0.8189857668975664    0.5269441246353088    0.0767906536266614    C1912
    0.8189857668975664    0.5269441246353088    0.4101239869599946    C1913
    0.8189857668975664    0.5269441246353088    0.7434573202933279    C1914
    0.8189857668975664    0.8602774579686421    0.0767906536266614    C1915
    0.8189857668975664    0.8602774579686421    0.4101239869599946    C1916
    0.8189857668975664    0.8602774579686421    0.7434573202933279    C1917
    0.1167874836862162    0.2032600086119061    0.0772084899399074    C1918
    0.1167874836862162    0.2032600086119061    0.4105418232732407    C1919
    0.1167874836862162    0.2032600086119061    0.7438751566065741    C1920
    0.1167874836862162    0.5365933419452394    0.0772084899399074    C1921
    0.1167874836862162    0.5365933419452394    0.4105418232732407    C1922
    0.1167874836862162    0.5365933419452394    0.7438751566065741    C1923
    0.1167874836862162    0.8699266752785727    0.0772084899399074    C1924
    0.1167874836862162    0.8699266752785727    0.4105418232732407    C1925
    0.1167874836862162    0.8699266752785727    0.7438751566065741    C1926
    0.4501208170195494    0.2032600086119061    0.0772084899399074    C1927
    0.4501208170195494    0.2032600086119061    0.4105418232732407    C1928
    0.4501208170195494    0.2032600086119061    0.7438751566065741    C1929
    0.4501208170195494    0.5365933419452394    0.0772084899399074    C1930
    0.4501208170195494    0.5365933419452394    0.4105418232732407    C1931
    0.4501208170195494    0.5365933419452394    0.7438751566065741    C1932
    0.4501208170195494    0.8699266752785727    0.0772084899399074    C1933
    0.4501208170195494    0.8699266752785727    0.4105418232732407    C1934
    0.4501208170195494    0.8699266752785727    0.7438751566065741    C1935
    0.7834541503528828    0.2032600086119061    0.0772084899399074    C1936
    0.7834541503528828    0.2032600086119061    0.4105418232732407    C1937
    0.7834541503528828    0.2032600086119061    0.7438751566065741    C1938
    0.7834541503528828    0.5365933419452394    0.0772084899399074    C1939
    0.7834541503528828    0.5365933419452394    0.4105418232732407    C1940
    0.7834541503528828    0.5365933419452394    0.7438751566065741    C1941
    0.7834541503528828    0.8699266752785727    0.0772084899399074    C1942
    0.7834541503528828    0.8699266752785727    0.4105418232732407    C1943
    0.7834541503528828    0.8699266752785727    0.7438751566065741    C1944
    0.1176697110590854    0.2264443897014198    0.0483424179808143    C1945
    0.1176697110590854    0.2264443897014198    0.3816757513141478    C1946
    0.1176697110590854    0.2264443897014198    0.7150090846474810    C1947
    0.1176697110590854    0.5597777230347531    0.0483424179808143    C1948
    0.1176697110590854    0.5597777230347531    0.3816757513141478    C1949
    0.1176697110590854    0.5597777230347531    0.7150090846474810    C1950
    0.1176697110590854    0.8931110563680864    0.0483424179808143    C1951
    0.1176697110590854    0.8931110563680864    0.3816757513141478    C1952
    0.1176697110590854    0.8931110563680864    0.7150090846474810    C1953
    0.4510030443924188    0.2264443897014198    0.0483424179808143    C1954
    0.4510030443924188    0.2264443897014198    0.3816757513141478    C1955
    0.4510030443924188    0.2264443897014198    0.7150090846474810    C1956
    0.4510030443924188    0.5597777230347531    0.0483424179808143    C1957
    0.4510030443924188    0.5597777230347531    0.3816757513141478    C1958
    0.4510030443924188    0.5597777230347531    0.7150090846474810    C1959
    0.4510030443924188    0.8931110563680864    0.0483424179808143    C1960
    0.4510030443924188    0.8931110563680864    0.3816757513141478    C1961
    0.4510030443924188    0.8931110563680864    0.7150090846474810    C1962
    0.7843363777257522    0.2264443897014198    0.0483424179808143    C1963
    0.7843363777257522    0.2264443897014198    0.3816757513141478    C1964
    0.7843363777257522    0.2264443897014198    0.7150090846474810    C1965
    0.7843363777257522    0.5597777230347531    0.0483424179808143    C1966
    0.7843363777257522    0.5597777230347531    0.3816757513141478    C1967
    0.7843363777257522    0.5597777230347531    0.7150090846474810    C1968
    0.7843363777257522    0.8931110563680864    0.0483424179808143    C1969
    0.7843363777257522    0.8931110563680864    0.3816757513141478    C1970
    0.7843363777257522    0.8931110563680864    0.7150090846474810    C1971
    0.2337977878105748    0.2708769238646092    0.0425241869414141    C1972
    0.2337977878105748    0.2708769238646092    0.3758575202747475    C1973
    0.2337977878105748    0.2708769238646092    0.7091908536080809    C1974
    0.2337977878105748    0.6042102571979425    0.0425241869414141    C1975
    0.2337977878105748    0.6042102571979425    0.3758575202747475    C1976
    0.2337977878105748    0.6042102571979425    0.7091908536080809    C1977
    0.2337977878105748    0.9375435905312758    0.0425241869414141    C1978
    0.2337977878105748    0.9375435905312758    0.3758575202747475    C1979
    0.2337977878105748    0.9375435905312758    0.7091908536080809    C1980
    0.5671311211439082    0.2708769238646092    0.0425241869414141    C1981
    0.5671311211439082    0.2708769238646092    0.3758575202747475    C1982
    0.5671311211439082    0.2708769238646092    0.7091908536080809    C1983
    0.5671311211439082    0.6042102571979425    0.0425241869414141    C1984
    0.5671311211439082    0.6042102571979425    0.3758575202747475    C1985
    0.5671311211439082    0.6042102571979425    0.7091908536080809    C1986
    0.5671311211439082    0.9375435905312758    0.0425241869414141    C1987
    0.5671311211439082    0.9375435905312758    0.3758575202747475    C1988
    0.5671311211439082    0.9375435905312758    0.7091908536080809    C1989
    0.9004644544772414    0.2708769238646092    0.0425241869414141    C1990
    0.9004644544772414    0.2708769238646092    0.3758575202747475    C1991
    0.9004644544772414    0.2708769238646092    0.7091908536080809    C1992
    0.9004644544772414    0.6042102571979425    0.0425241869414141    C1993
    0.9004644544772414    0.6042102571979425    0.3758575202747475    C1994
    0.9004644544772414    0.6042102571979425    0.7091908536080809    C1995
    0.9004644544772414    0.9375435905312758    0.0425241869414141    C1996
    0.9004644544772414    0.9375435905312758    0.3758575202747475    C1997
    0.9004644544772414    0.9375435905312758    0.7091908536080809    C1998
    0.0664315182895467    0.0482050966823837    0.0930942459764731    C1999
    0.0664315182895467    0.0482050966823837    0.4264275793098065    C2000
    0.0664315182895467    0.0482050966823837    0.7597609126431398    C2001
    0.0664315182895467    0.3815384300157171    0.0930942459764731    C2002
    0.0664315182895467    0.3815384300157171    0.4264275793098065    C2003
    0.0664315182895467    0.3815384300157171    0.7597609126431398    C2004
    0.0664315182895467    0.7148717633490504    0.0930942459764731    C2005
    0.0664315182895467    0.7148717633490504    0.4264275793098065    C2006
    0.0664315182895467    0.7148717633490504    0.7597609126431398    C2007
    0.3997648516228800    0.0482050966823837    0.0930942459764731    C2008
    0.3997648516228800    0.0482050966823837    0.4264275793098065    C2009
    0.3997648516228800    0.0482050966823837    0.7597609126431398    C2010
    0.3997648516228800    0.3815384300157171    0.0930942459764731    C2011
    0.3997648516228800    0.3815384300157171    0.4264275793098065    C2012
    0.3997648516228800    0.3815384300157171    0.7597609126431398    C2013
    0.3997648516228800    0.7148717633490504    0.0930942459764731    C2014
    0.3997648516228800    0.7148717633490504    0.4264275793098065    C2015
    0.3997648516228800    0.7148717633490504    0.7597609126431398    C2016
    0.7330981849562134    0.0482050966823837    0.0930942459764731    C2017
    0.7330981849562134    0.0482050966823837    0.4264275793098065    C2018
    0.7330981849562134    0.0482050966823837    0.7597609126431398    C2019
    0.7330981849562134    0.3815384300157171    0.0930942459764731    C2020
    0.7330981849562134    0.3815384300157171    0.4264275793098065    C2021
    0.7330981849562134    0.3815384300157171    0.7597609126431398    C2022
    0.7330981849562134    0.7148717633490504    0.0930942459764731    C2023
    0.7330981849562134    0.7148717633490504    0.4264275793098065    C2024
    0.7330981849562134    0.7148717633490504    0.7597609126431398    C2025
    0.2055479613214389    0.0736916776978001    0.1104123562742578    C2026
    0.2055479613214389    0.0736916776978001    0.4437456896075912    C2027
    0.2055479613214389    0.0736916776978001    0.7770790229409245    C2028
    0.2055479613214389    0.4070250110311333    0.1104123562742578    C2029
    0.2055479613214389    0.4070250110311333    0.4437456896075912    C2030
    0.2055479613214389    0.4070250110311333    0.7770790229409245    C2031
    0.2055479613214389    0.7403583443644666    0.1104123562742578    C2032
    0.2055479613214389    0.7403583443644666    0.4437456896075912    C2033
    0.2055479613214389    0.7403583443644666    0.7770790229409245    C2034
    0.5388812946547723    0.0736916776978001    0.1104123562742578    C2035
    0.5388812946547723    0.0736916776978001    0.4437456896075912    C2036
    0.5388812946547723    0.0736916776978001    0.7770790229409245    C2037
    0.5388812946547723    0.4070250110311333    0.1104123562742578    C2038
    0.5388812946547723    0.4070250110311333    0.4437456896075912    C2039
    0.5388812946547723    0.4070250110311333    0.7770790229409245    C2040
    0.5388812946547723    0.7403583443644666    0.1104123562742578    C2041
    0.5388812946547723    0.7403583443644666    0.4437456896075912    C2042
    0.5388812946547723    0.7403583443644666    0.7770790229409245    C2043
    0.8722146279881056    0.0736916776978001    0.1104123562742578    C2044
    0.8722146279881056    0.0736916776978001    0.4437456896075912    C2045
    0.8722146279881056    0.0736916776978001    0.7770790229409245    C2046
    0.8722146279881056    0.4070250110311333    0.1104123562742578    C2047
    0.8722146279881056    0.4070250110311333    0.4437456896075912    C2048
    0.8722146279881056    0.4070250110311333    0.7770790229409245    C2049
    0.8722146279881056    0.7403583443644666    0.1104123562742578    C2050
    0.8722146279881056    0.7403583443644666    0.4437456896075912    C2051
    0.8722146279881056    0.7403583443644666    0.7770790229409245    C2052
    0.0589012573455542    0.0856360694124594    0.2630689712880331    C2053
    0.0589012573455542    0.0856360694124594    0.5964023046213665    C2054
    0.0589012573455542    0.0856360694124594    0.9297356379546997    C2055
    0.0589012573455542    0.4189694027457928    0.2630689712880331    C2056
    0.0589012573455542    0.4189694027457928    0.5964023046213665    C2057
    0.0589012573455542    0.4189694027457928    0.9297356379546997    C2058
    0.0589012573455542    0.7523027360791261    0.2630689712880331    C2059
    0.0589012573455542    0.7523027360791261    0.5964023046213665    C2060
    0.0589012573455542    0.7523027360791261    0.9297356379546997    C2061
    0.3922345906788874    0.0856360694124594    0.2630689712880331    C2062
    0.3922345906788874    0.0856360694124594    0.5964023046213665    C2063
    0.3922345906788874    0.0856360694124594    0.9297356379546997    C2064
    0.3922345906788874    0.4189694027457928    0.2630689712880331    C2065
    0.3922345906788874    0.4189694027457928    0.5964023046213665    C2066
    0.3922345906788874    0.4189694027457928    0.9297356379546997    C2067
    0.3922345906788874    0.7523027360791261    0.2630689712880331    C2068
    0.3922345906788874    0.7523027360791261    0.5964023046213665    C2069
    0.3922345906788874    0.7523027360791261    0.9297356379546997    C2070
    0.7255679240122208    0.0856360694124594    0.2630689712880331    C2071
    0.7255679240122208    0.0856360694124594    0.5964023046213665    C2072
    0.7255679240122208    0.0856360694124594    0.9297356379546997    C2073
    0.7255679240122208    0.4189694027457928    0.2630689712880331    C2074
    0.7255679240122208    0.4189694027457928    0.5964023046213665    C2075
    0.7255679240122208    0.4189694027457928    0.9297356379546997    C2076
    0.7255679240122208    0.7523027360791261    0.2630689712880331    C2077
    0.7255679240122208    0.7523027360791261    0.5964023046213665    C2078
    0.7255679240122208    0.7523027360791261    0.9297356379546997    C2079
    0.0815793742511983    0.1020634687196358    0.2133034119941354    C2080
    0.0815793742511983    0.1020634687196358    0.5466367453274688    C2081
    0.0815793742511983    0.1020634687196358    0.8799700786608020    C2082
    0.0815793742511983    0.4353968020529693    0.2133034119941354    C2083
    0.0815793742511983    0.4353968020529693    0.5466367453274688    C2084
    0.0815793742511983    0.4353968020529693    0.8799700786608020    C2085
    0.0815793742511983    0.7687301353863025    0.2133034119941354    C2086
    0.0815793742511983    0.7687301353863025    0.5466367453274688    C2087
    0.0815793742511983    0.7687301353863025    0.8799700786608020    C2088
    0.4149127075845316    0.1020634687196358    0.2133034119941354    C2089
    0.4149127075845316    0.1020634687196358    0.5466367453274688    C2090
    0.4149127075845316    0.1020634687196358    0.8799700786608020    C2091
    0.4149127075845316    0.4353968020529693    0.2133034119941354    C2092
    0.4149127075845316    0.4353968020529693    0.5466367453274688    C2093
    0.4149127075845316    0.4353968020529693    0.8799700786608020    C2094
    0.4149127075845316    0.7687301353863025    0.2133034119941354    C2095
    0.4149127075845316    0.7687301353863025    0.5466367453274688    C2096
    0.4149127075845316    0.7687301353863025    0.8799700786608020    C2097
    0.7482460409178650    0.1020634687196358    0.2133034119941354    C2098
    0.7482460409178650    0.1020634687196358    0.5466367453274688    C2099
    0.7482460409178650    0.1020634687196358    0.8799700786608020    C2100
    0.7482460409178650    0.4353968020529693    0.2133034119941354    C2101
    0.7482460409178650    0.4353968020529693    0.5466367453274688    C2102
    0.7482460409178650    0.4353968020529693    0.8799700786608020    C2103
    0.7482460409178650    0.7687301353863025    0.2133034119941354    C2104
    0.7482460409178650    0.7687301353863025    0.5466367453274688    C2105
    0.7482460409178650    0.7687301353863025    0.8799700786608020    C2106
    0.9739013228348208    0.0920849590823887    0.2165056223765047    C2107
    0.9739013228348208    0.0920849590823887    0.5498389557098380    C2108
    0.9739013228348208    0.0920849590823887    0.8831722890431714    C2109
    0.9739013228348208    0.4254182924157219    0.2165056223765047    C2110
    0.9739013228348208    0.4254182924157219    0.5498389557098380    C2111
    0.9739013228348208    0.4254182924157219    0.8831722890431714    C2112
    0.9739013228348208    0.7587516257490553    0.2165056223765047    C2113
    0.9739013228348208    0.7587516257490553    0.5498389557098380    C2114
    0.9739013228348208    0.7587516257490553    0.8831722890431714    C2115
    0.3072346561681540    0.0920849590823887    0.2165056223765047    C2116
    0.3072346561681540    0.0920849590823887    0.5498389557098380    C2117
    0.3072346561681540    0.0920849590823887    0.8831722890431714    C2118
    0.3072346561681540    0.4254182924157219    0.2165056223765047    C2119
    0.3072346561681540    0.4254182924157219    0.5498389557098380    C2120
    0.3072346561681540    0.4254182924157219    0.8831722890431714    C2121
    0.3072346561681540    0.7587516257490553    0.2165056223765047    C2122
    0.3072346561681540    0.7587516257490553    0.5498389557098380    C2123
    0.3072346561681540    0.7587516257490553    0.8831722890431714    C2124
    0.6405679895014873    0.0920849590823887    0.2165056223765047    C2125
    0.6405679895014873    0.0920849590823887    0.5498389557098380    C2126
    0.6405679895014873    0.0920849590823887    0.8831722890431714    C2127
    0.6405679895014873    0.4254182924157219    0.2165056223765047    C2128
    0.6405679895014873    0.4254182924157219    0.5498389557098380    C2129
    0.6405679895014873    0.4254182924157219    0.8831722890431714    C2130
    0.6405679895014873    0.7587516257490553    0.2165056223765047    C2131
    0.6405679895014873    0.7587516257490553    0.5498389557098380    C2132
    0.6405679895014873    0.7587516257490553    0.8831722890431714    C2133
    0.9886799401580930    0.1184120979503634    0.2293654946898085    C2134
    0.9886799401580930    0.1184120979503634    0.5626988280231418    C2135
    0.9886799401580930    0.1184120979503634    0.8960321613564750    C2136
    0.9886799401580930    0.4517454312836968    0.2293654946898085    C2137
    0.9886799401580930    0.4517454312836968    0.5626988280231418    C2138
    0.9886799401580930    0.4517454312836968    0.8960321613564750    C2139
    0.9886799401580930    0.7850787646170301    0.2293654946898085    C2140
    0.9886799401580930    0.7850787646170301    0.5626988280231418    C2141
    0.9886799401580930    0.7850787646170301    0.8960321613564750    C2142
    0.3220132734914263    0.1184120979503634    0.2293654946898085    C2143
    0.3220132734914263    0.1184120979503634    0.5626988280231418    C2144
    0.3220132734914263    0.1184120979503634    0.8960321613564750    C2145
    0.3220132734914263    0.4517454312836968    0.2293654946898085    C2146
    0.3220132734914263    0.4517454312836968    0.5626988280231418    C2147
    0.3220132734914263    0.4517454312836968    0.8960321613564750    C2148
    0.3220132734914263    0.7850787646170301    0.2293654946898085    C2149
    0.3220132734914263    0.7850787646170301    0.5626988280231418    C2150
    0.3220132734914263    0.7850787646170301    0.8960321613564750    C2151
    0.6553466068247595    0.1184120979503634    0.2293654946898085    C2152
    0.6553466068247595    0.1184120979503634    0.5626988280231418    C2153
    0.6553466068247595    0.1184120979503634    0.8960321613564750    C2154
    0.6553466068247595    0.4517454312836968    0.2293654946898085    C2155
    0.6553466068247595    0.4517454312836968    0.5626988280231418    C2156
    0.6553466068247595    0.4517454312836968    0.8960321613564750    C2157
    0.6553466068247595    0.7850787646170301    0.2293654946898085    C2158
    0.6553466068247595    0.7850787646170301    0.5626988280231418    C2159
    0.6553466068247595    0.7850787646170301    0.8960321613564750    C2160
    0.9499983617779415    0.0218982487820852    0.1912736683941028    C2161
    0.9499983617779415    0.0218982487820852    0.5246070017274360    C2162
    0.9499983617779415    0.0218982487820852    0.8579403350607694    C2163
    0.9499983617779415    0.3552315821154186    0.1912736683941028    C2164
    0.9499983617779415    0.3552315821154186    0.5246070017274360    C2165
    0.9499983617779415    0.3552315821154186    0.8579403350607694    C2166
    0.9499983617779415    0.6885649154487520    0.1912736683941028    C2167
    0.9499983617779415    0.6885649154487520    0.5246070017274360    C2168
    0.9499983617779415    0.6885649154487520    0.8579403350607694    C2169
    0.2833316951112748    0.0218982487820852    0.1912736683941028    C2170
    0.2833316951112748    0.0218982487820852    0.5246070017274360    C2171
    0.2833316951112748    0.0218982487820852    0.8579403350607694    C2172
    0.2833316951112748    0.3552315821154186    0.1912736683941028    C2173
    0.2833316951112748    0.3552315821154186    0.5246070017274360    C2174
    0.2833316951112748    0.3552315821154186    0.8579403350607694    C2175
    0.2833316951112748    0.6885649154487520    0.1912736683941028    C2176
    0.2833316951112748    0.6885649154487520    0.5246070017274360    C2177
    0.2833316951112748    0.6885649154487520    0.8579403350607694    C2178
    0.6166650284446080    0.0218982487820852    0.1912736683941028    C2179
    0.6166650284446080    0.0218982487820852    0.5246070017274360    C2180
    0.6166650284446080    0.0218982487820852    0.8579403350607694    C2181
    0.6166650284446080    0.3552315821154186    0.1912736683941028    C2182
    0.6166650284446080    0.3552315821154186    0.5246070017274360    C2183
    0.6166650284446080    0.3552315821154186    0.8579403350607694    C2184
    0.6166650284446080    0.6885649154487520    0.1912736683941028    C2185
    0.6166650284446080    0.6885649154487520    0.5246070017274360    C2186
    0.6166650284446080    0.6885649154487520    0.8579403350607694    C2187
    0.9836947549642203    0.0720141180013272    0.3283025214239153    C2188
    0.9836947549642203    0.0720141180013272    0.6616358547572485    C2189
    0.9836947549642203    0.0720141180013272    0.9949691880905819    C2190
    0.9836947549642203    0.4053474513346604    0.3283025214239153    C2191
    0.9836947549642203    0.4053474513346604    0.6616358547572485    C2192
    0.9836947549642203    0.4053474513346604    0.9949691880905819    C2193
    0.9836947549642203    0.7386807846679938    0.3283025214239153    C2194
    0.9836947549642203    0.7386807846679938    0.6616358547572485    C2195
    0.9836947549642203    0.7386807846679938    0.9949691880905819    C2196
    0.3170280882975537    0.0720141180013272    0.3283025214239153    C2197
    0.3170280882975537    0.0720141180013272    0.6616358547572485    C2198
    0.3170280882975537    0.0720141180013272    0.9949691880905819    C2199
    0.3170280882975537    0.4053474513346604    0.3283025214239153    C2200
    0.3170280882975537    0.4053474513346604    0.6616358547572485    C2201
    0.3170280882975537    0.4053474513346604    0.9949691880905819    C2202
    0.3170280882975537    0.7386807846679938    0.3283025214239153    C2203
    0.3170280882975537    0.7386807846679938    0.6616358547572485    C2204
    0.3170280882975537    0.7386807846679938    0.9949691880905819    C2205
    0.6503614216308871    0.0720141180013272    0.3283025214239153    C2206
    0.6503614216308871    0.0720141180013272    0.6616358547572485    C2207
    0.6503614216308871    0.0720141180013272    0.9949691880905819    C2208
    0.6503614216308871    0.4053474513346604    0.3283025214239153    C2209
    0.6503614216308871    0.4053474513346604    0.6616358547572485    C2210
    0.6503614216308871    0.4053474513346604    0.9949691880905819    C2211
    0.6503614216308871    0.7386807846679938    0.3283025214239153    C2212
    0.6503614216308871    0.7386807846679938    0.6616358547572485    C2213
    0.6503614216308871    0.7386807846679938    0.9949691880905819    C2214
    0.9094714018115098    0.9227028844442573    0.2160588216248599    C2215
    0.9094714018115098    0.9227028844442573    0.5493921549581933    C2216
    0.9094714018115098    0.9227028844442573    0.8827254882915265    C2217
    0.9094714018115098    0.2560362177775906    0.2160588216248599    C2218
    0.9094714018115098    0.2560362177775906    0.5493921549581933    C2219
    0.9094714018115098    0.2560362177775906    0.8827254882915265    C2220
    0.9094714018115098    0.5893695511109239    0.2160588216248599    C2221
    0.9094714018115098    0.5893695511109239    0.5493921549581933    C2222
    0.9094714018115098    0.5893695511109239    0.8827254882915265    C2223
    0.2428047351448431    0.9227028844442573    0.2160588216248599    C2224
    0.2428047351448431    0.9227028844442573    0.5493921549581933    C2225
    0.2428047351448431    0.9227028844442573    0.8827254882915265    C2226
    0.2428047351448431    0.2560362177775906    0.2160588216248599    C2227
    0.2428047351448431    0.2560362177775906    0.5493921549581933    C2228
    0.2428047351448431    0.2560362177775906    0.8827254882915265    C2229
    0.2428047351448431    0.5893695511109239    0.2160588216248599    C2230
    0.2428047351448431    0.5893695511109239    0.5493921549581933    C2231
    0.2428047351448431    0.5893695511109239    0.8827254882915265    C2232
    0.5761380684781764    0.9227028844442573    0.2160588216248599    C2233
    0.5761380684781764    0.9227028844442573    0.5493921549581933    C2234
    0.5761380684781764    0.9227028844442573    0.8827254882915265    C2235
    0.5761380684781764    0.2560362177775906    0.2160588216248599    C2236
    0.5761380684781764    0.2560362177775906    0.5493921549581933    C2237
    0.5761380684781764    0.2560362177775906    0.8827254882915265    C2238
    0.5761380684781764    0.5893695511109239    0.2160588216248599    C2239
    0.5761380684781764    0.5893695511109239    0.5493921549581933    C2240
    0.5761380684781764    0.5893695511109239    0.8827254882915265    C2241
    0.1154591425524267    0.9578677090742513    0.3041815561306671    C2242
    0.1154591425524267    0.9578677090742513    0.6375148894640005    C2243
    0.1154591425524267    0.9578677090742513    0.9708482227973338    C2244
    0.1154591425524267    0.2912010424075846    0.3041815561306671    C2245
    0.1154591425524267    0.2912010424075846    0.6375148894640005    C2246
    0.1154591425524267    0.2912010424075846    0.9708482227973338    C2247
    0.1154591425524267    0.6245343757409180    0.3041815561306671    C2248
    0.1154591425524267    0.6245343757409180    0.6375148894640005    C2249
    0.1154591425524267    0.6245343757409180    0.9708482227973338    C2250
    0.4487924758857601    0.9578677090742513    0.3041815561306671    C2251
    0.4487924758857601    0.9578677090742513    0.6375148894640005    C2252
    0.4487924758857601    0.9578677090742513    0.9708482227973338    C2253
    0.4487924758857601    0.2912010424075846    0.3041815561306671    C2254
    0.4487924758857601    0.2912010424075846    0.6375148894640005    C2255
    0.4487924758857601    0.2912010424075846    0.9708482227973338    C2256
    0.4487924758857601    0.6245343757409180    0.3041815561306671    C2257
    0.4487924758857601    0.6245343757409180    0.6375148894640005    C2258
    0.4487924758857601    0.6245343757409180    0.9708482227973338    C2259
    0.7821258092190934    0.9578677090742513    0.3041815561306671    C2260
    0.7821258092190934    0.9578677090742513    0.6375148894640005    C2261
    0.7821258092190934    0.9578677090742513    0.9708482227973338    C2262
    0.7821258092190934    0.2912010424075846    0.3041815561306671    C2263
    0.7821258092190934    0.2912010424075846    0.6375148894640005    C2264
    0.7821258092190934    0.2912010424075846    0.9708482227973338    C2265
    0.7821258092190934    0.6245343757409180    0.3041815561306671    C2266
    0.7821258092190934    0.6245343757409180    0.6375148894640005    C2267
    0.7821258092190934    0.6245343757409180    0.9708482227973338    C2268
    0.0795681183934749    0.1136233216964677    0.2383899531517837    C2269
    0.0795681183934749    0.1136233216964677    0.5717232864851171    C2270
    0.0795681183934749    0.1136233216964677    0.9050566198184503    C2271
    0.0795681183934749    0.4469566550298011    0.2383899531517837    C2272
    0.0795681183934749    0.4469566550298011    0.5717232864851171    C2273
    0.0795681183934749    0.4469566550298011    0.9050566198184503    C2274
    0.0795681183934749    0.7802899883631345    0.2383899531517837    C2275
    0.0795681183934749    0.7802899883631345    0.5717232864851171    C2276
    0.0795681183934749    0.7802899883631345    0.9050566198184503    C2277
    0.4129014517268081    0.1136233216964677    0.2383899531517837    C2278
    0.4129014517268081    0.1136233216964677    0.5717232864851171    C2279
    0.4129014517268081    0.1136233216964677    0.9050566198184503    C2280
    0.4129014517268081    0.4469566550298011    0.2383899531517837    C2281
    0.4129014517268081    0.4469566550298011    0.5717232864851171    C2282
    0.4129014517268081    0.4469566550298011    0.9050566198184503    C2283
    0.4129014517268081    0.7802899883631345    0.2383899531517837    C2284
    0.4129014517268081    0.7802899883631345    0.5717232864851171    C2285
    0.4129014517268081    0.7802899883631345    0.9050566198184503    C2286
    0.7462347850601415    0.1136233216964677    0.2383899531517837    C2287
    0.7462347850601415    0.1136233216964677    0.5717232864851171    C2288
    0.7462347850601415    0.1136233216964677    0.9050566198184503    C2289
    0.7462347850601415    0.4469566550298011    0.2383899531517837    C2290
    0.7462347850601415    0.4469566550298011    0.5717232864851171    C2291
    0.7462347850601415    0.4469566550298011    0.9050566198184503    C2292
    0.7462347850601415    0.7802899883631345    0.2383899531517837    C2293
    0.7462347850601415    0.7802899883631345    0.5717232864851171    C2294
    0.7462347850601415    0.7802899883631345    0.9050566198184503    C2295
    0.9904066831658414    0.0459590772693184    0.3087485244318534    C2296
    0.9904066831658414    0.0459590772693184    0.6420818577651868    C2297
    0.9904066831658414    0.0459590772693184    0.9754151910985200    C2298
    0.9904066831658414    0.3792924106026517    0.3087485244318534    C2299
    0.9904066831658414    0.3792924106026517    0.6420818577651868    C2300
    0.9904066831658414    0.3792924106026517    0.9754151910985200    C2301
    0.9904066831658414    0.7126257439359851    0.3087485244318534    C2302
    0.9904066831658414    0.7126257439359851    0.6420818577651868    C2303
    0.9904066831658414    0.7126257439359851    0.9754151910985200    C2304
    0.3237400164991747    0.0459590772693184    0.3087485244318534    C2305
    0.3237400164991747    0.0459590772693184    0.6420818577651868    C2306
    0.3237400164991747    0.0459590772693184    0.9754151910985200    C2307
    0.3237400164991747    0.3792924106026517    0.3087485244318534    C2308
    0.3237400164991747    0.3792924106026517    0.6420818577651868    C2309
    0.3237400164991747    0.3792924106026517    0.9754151910985200    C2310
    0.3237400164991747    0.7126257439359851    0.3087485244318534    C2311
    0.3237400164991747    0.7126257439359851    0.6420818577651868    C2312
    0.3237400164991747    0.7126257439359851    0.9754151910985200    C2313
    0.6570733498325081    0.0459590772693184    0.3087485244318534    C2314
    0.6570733498325081    0.0459590772693184    0.6420818577651868    C2315
    0.6570733498325081    0.0459590772693184    0.9754151910985200    C2316
    0.6570733498325081    0.3792924106026517    0.3087485244318534    C2317
    0.6570733498325081    0.3792924106026517    0.6420818577651868    C2318
    0.6570733498325081    0.3792924106026517    0.9754151910985200    C2319
    0.6570733498325081    0.7126257439359851    0.3087485244318534    C2320
    0.6570733498325081    0.7126257439359851    0.6420818577651868    C2321
    0.6570733498325081    0.7126257439359851    0.9754151910985200    C2322
    0.0385749449544670    0.0453293043605074    0.2656581839057501    C2323
    0.0385749449544670    0.0453293043605074    0.5989915172390834    C2324
    0.0385749449544670    0.0453293043605074    0.9323248505724168    C2325
    0.0385749449544670    0.3786626376938407    0.2656581839057501    C2326
    0.0385749449544670    0.3786626376938407    0.5989915172390834    C2327
    0.0385749449544670    0.3786626376938407    0.9323248505724168    C2328
    0.0385749449544670    0.7119959710271739    0.2656581839057501    C2329
    0.0385749449544670    0.7119959710271739    0.5989915172390834    C2330
    0.0385749449544670    0.7119959710271739    0.9323248505724168    C2331
    0.3719082782878003    0.0453293043605074    0.2656581839057501    C2332
    0.3719082782878003    0.0453293043605074    0.5989915172390834    C2333
    0.3719082782878003    0.0453293043605074    0.9323248505724168    C2334
    0.3719082782878003    0.3786626376938407    0.2656581839057501    C2335
    0.3719082782878003    0.3786626376938407    0.5989915172390834    C2336
    0.3719082782878003    0.3786626376938407    0.9323248505724168    C2337
    0.3719082782878003    0.7119959710271739    0.2656581839057501    C2338
    0.3719082782878003    0.7119959710271739    0.5989915172390834    C2339
    0.3719082782878003    0.7119959710271739    0.9323248505724168    C2340
    0.7052416116211336    0.0453293043605074    0.2656581839057501    C2341
    0.7052416116211336    0.0453293043605074    0.5989915172390834    C2342
    0.7052416116211336    0.0453293043605074    0.9323248505724168    C2343
    0.7052416116211336    0.3786626376938407    0.2656581839057501    C2344
    0.7052416116211336    0.3786626376938407    0.5989915172390834    C2345
    0.7052416116211336    0.3786626376938407    0.9323248505724168    C2346
    0.7052416116211336    0.7119959710271739    0.2656581839057501    C2347
    0.7052416116211336    0.7119959710271739    0.5989915172390834    C2348
    0.7052416116211336    0.7119959710271739    0.9323248505724168    C2349
    0.0223669411745493    0.0306909454459248    0.2975170236865181    C2350
    0.0223669411745493    0.0306909454459248    0.6308503570198515    C2351
    0.0223669411745493    0.0306909454459248    0.9641836903531847    C2352
    0.0223669411745493    0.3640242787792580    0.2975170236865181    C2353
    0.0223669411745493    0.3640242787792580    0.6308503570198515    C2354
    0.0223669411745493    0.3640242787792580    0.9641836903531847    C2355
    0.0223669411745493    0.6973576121125913    0.2975170236865181    C2356
    0.0223669411745493    0.6973576121125913    0.6308503570198515    C2357
    0.0223669411745493    0.6973576121125913    0.9641836903531847    C2358
    0.3557002745078827    0.0306909454459248    0.2975170236865181    C2359
    0.3557002745078827    0.0306909454459248    0.6308503570198515    C2360
    0.3557002745078827    0.0306909454459248    0.9641836903531847    C2361
    0.3557002745078827    0.3640242787792580    0.2975170236865181    C2362
    0.3557002745078827    0.3640242787792580    0.6308503570198515    C2363
    0.3557002745078827    0.3640242787792580    0.9641836903531847    C2364
    0.3557002745078827    0.6973576121125913    0.2975170236865181    C2365
    0.3557002745078827    0.6973576121125913    0.6308503570198515    C2366
    0.3557002745078827    0.6973576121125913    0.9641836903531847    C2367
    0.6890336078412159    0.0306909454459248    0.2975170236865181    C2368
    0.6890336078412159    0.0306909454459248    0.6308503570198515    C2369
    0.6890336078412159    0.0306909454459248    0.9641836903531847    C2370
    0.6890336078412159    0.3640242787792580    0.2975170236865181    C2371
    0.6890336078412159    0.3640242787792580    0.6308503570198515    C2372
    0.6890336078412159    0.3640242787792580    0.9641836903531847    C2373
    0.6890336078412159    0.6973576121125913    0.2975170236865181    C2374
    0.6890336078412159    0.6973576121125913    0.6308503570198515    C2375
    0.6890336078412159    0.6973576121125913    0.9641836903531847    C2376
    0.1162606497108827    0.9495987567207405    0.2781318233849962    C2377
    0.1162606497108827    0.9495987567207405    0.6114651567183296    C2378
    0.1162606497108827    0.9495987567207405    0.9447984900516629    C2379
    0.1162606497108827    0.2829320900540737    0.2781318233849962    C2380
    0.1162606497108827    0.2829320900540737    0.6114651567183296    C2381
    0.1162606497108827    0.2829320900540737    0.9447984900516629    C2382
    0.1162606497108827    0.6162654233874071    0.2781318233849962    C2383
    0.1162606497108827    0.6162654233874071    0.6114651567183296    C2384
    0.1162606497108827    0.6162654233874071    0.9447984900516629    C2385
    0.4495939830442159    0.9495987567207405    0.2781318233849962    C2386
    0.4495939830442159    0.9495987567207405    0.6114651567183296    C2387
    0.4495939830442159    0.9495987567207405    0.9447984900516629    C2388
    0.4495939830442159    0.2829320900540737    0.2781318233849962    C2389
    0.4495939830442159    0.2829320900540737    0.6114651567183296    C2390
    0.4495939830442159    0.2829320900540737    0.9447984900516629    C2391
    0.4495939830442159    0.6162654233874071    0.2781318233849962    C2392
    0.4495939830442159    0.6162654233874071    0.6114651567183296    C2393
    0.4495939830442159    0.6162654233874071    0.9447984900516629    C2394
    0.7829273163775493    0.9495987567207405    0.2781318233849962    C2395
    0.7829273163775493    0.9495987567207405    0.6114651567183296    C2396
    0.7829273163775493    0.9495987567207405    0.9447984900516629    C2397
    0.7829273163775493    0.2829320900540737    0.2781318233849962    C2398
    0.7829273163775493    0.2829320900540737    0.6114651567183296    C2399
    0.7829273163775493    0.2829320900540737    0.9447984900516629    C2400
    0.7829273163775493    0.6162654233874071    0.2781318233849962    C2401
    0.7829273163775493    0.6162654233874071    0.6114651567183296    C2402
    0.7829273163775493    0.6162654233874071    0.9447984900516629    C2403
    0.0208558572128535    0.1418658060565954    0.2151613369287131    C2404
    0.0208558572128535    0.1418658060565954    0.5484946702620465    C2405
    0.0208558572128535    0.1418658060565954    0.8818280035953797    C2406
    0.0208558572128535    0.4751991393899287    0.2151613369287131    C2407
    0.0208558572128535    0.4751991393899287    0.5484946702620465    C2408
    0.0208558572128535    0.4751991393899287    0.8818280035953797    C2409
    0.0208558572128535    0.8085324727232620    0.2151613369287131    C2410
    0.0208558572128535    0.8085324727232620    0.5484946702620465    C2411
    0.0208558572128535    0.8085324727232620    0.8818280035953797    C2412
    0.3541891905461869    0.1418658060565954    0.2151613369287131    C2413
    0.3541891905461869    0.1418658060565954    0.5484946702620465    C2414
    0.3541891905461869    0.1418658060565954    0.8818280035953797    C2415
    0.3541891905461869    0.4751991393899287    0.2151613369287131    C2416
    0.3541891905461869    0.4751991393899287    0.5484946702620465    C2417
    0.3541891905461869    0.4751991393899287    0.8818280035953797    C2418
    0.3541891905461869    0.8085324727232620    0.2151613369287131    C2419
    0.3541891905461869    0.8085324727232620    0.5484946702620465    C2420
    0.3541891905461869    0.8085324727232620    0.8818280035953797    C2421
    0.6875225238795202    0.1418658060565954    0.2151613369287131    C2422
    0.6875225238795202    0.1418658060565954    0.5484946702620465    C2423
    0.6875225238795202    0.1418658060565954    0.8818280035953797    C2424
    0.6875225238795202    0.4751991393899287    0.2151613369287131    C2425
    0.6875225238795202    0.4751991393899287    0.5484946702620465    C2426
    0.6875225238795202    0.4751991393899287    0.8818280035953797    C2427
    0.6875225238795202    0.8085324727232620    0.2151613369287131    C2428
    0.6875225238795202    0.8085324727232620    0.5484946702620465    C2429
    0.6875225238795202    0.8085324727232620    0.8818280035953797    C2430
    0.9328015684892601    0.9429719511657391    0.1923309355757592    C2431
    0.9328015684892601    0.9429719511657391    0.5256642689090926    C2432
    0.9328015684892601    0.9429719511657391    0.8589976022424259    C2433
    0.9328015684892601    0.2763052844990724    0.1923309355757592    C2434
    0.9328015684892601    0.2763052844990724    0.5256642689090926    C2435
    0.9328015684892601    0.2763052844990724    0.8589976022424259    C2436
    0.9328015684892601    0.6096386178324058    0.1923309355757592    C2437
    0.9328015684892601    0.6096386178324058    0.5256642689090926    C2438
    0.9328015684892601    0.6096386178324058    0.8589976022424259    C2439
    0.2661349018225935    0.9429719511657391    0.1923309355757592    C2440
    0.2661349018225935    0.9429719511657391    0.5256642689090926    C2441
    0.2661349018225935    0.9429719511657391    0.8589976022424259    C2442
    0.2661349018225935    0.2763052844990724    0.1923309355757592    C2443
    0.2661349018225935    0.2763052844990724    0.5256642689090926    C2444
    0.2661349018225935    0.2763052844990724    0.8589976022424259    C2445
    0.2661349018225935    0.6096386178324058    0.1923309355757592    C2446
    0.2661349018225935    0.6096386178324058    0.5256642689090926    C2447
    0.2661349018225935    0.6096386178324058    0.8589976022424259    C2448
    0.5994682351559267    0.9429719511657391    0.1923309355757592    C2449
    0.5994682351559267    0.9429719511657391    0.5256642689090926    C2450
    0.5994682351559267    0.9429719511657391    0.8589976022424259    C2451
    0.5994682351559267    0.2763052844990724    0.1923309355757592    C2452
    0.5994682351559267    0.2763052844990724    0.5256642689090926    C2453
    0.5994682351559267    0.2763052844990724    0.8589976022424259    C2454
    0.5994682351559267    0.6096386178324058    0.1923309355757592    C2455
    0.5994682351559267    0.6096386178324058    0.5256642689090926    C2456
    0.5994682351559267    0.6096386178324058    0.8589976022424259    C2457
    0.0157020099272827    0.9842064288092047    0.3095769123911274    C2458
    0.0157020099272827    0.9842064288092047    0.6429102457244608    C2459
    0.0157020099272827    0.9842064288092047    0.9762435790577941    C2460
    0.0157020099272827    0.3175397621425380    0.3095769123911274    C2461
    0.0157020099272827    0.3175397621425380    0.6429102457244608    C2462
    0.0157020099272827    0.3175397621425380    0.9762435790577941    C2463
    0.0157020099272827    0.6508730954758712    0.3095769123911274    C2464
    0.0157020099272827    0.6508730954758712    0.6429102457244608    C2465
    0.0157020099272827    0.6508730954758712    0.9762435790577941    C2466
    0.3490353432606159    0.9842064288092047    0.3095769123911274    C2467
    0.3490353432606159    0.9842064288092047    0.6429102457244608    C2468
    0.3490353432606159    0.9842064288092047    0.9762435790577941    C2469
    0.3490353432606159    0.3175397621425380    0.3095769123911274    C2470
    0.3490353432606159    0.3175397621425380    0.6429102457244608    C2471
    0.3490353432606159    0.3175397621425380    0.9762435790577941    C2472
    0.3490353432606159    0.6508730954758712    0.3095769123911274    C2473
    0.3490353432606159    0.6508730954758712    0.6429102457244608    C2474
    0.3490353432606159    0.6508730954758712    0.9762435790577941    C2475
    0.6823686765939493    0.9842064288092047    0.3095769123911274    C2476
    0.6823686765939493    0.9842064288092047    0.6429102457244608    C2477
    0.6823686765939493    0.9842064288092047    0.9762435790577941    C2478
    0.6823686765939493    0.3175397621425380    0.3095769123911274    C2479
    0.6823686765939493    0.3175397621425380    0.6429102457244608    C2480
    0.6823686765939493    0.3175397621425380    0.9762435790577941    C2481
    0.6823686765939493    0.6508730954758712    0.3095769123911274    C2482
    0.6823686765939493    0.6508730954758712    0.6429102457244608    C2483
    0.6823686765939493    0.6508730954758712    0.9762435790577941    C2484
    0.9623324987291970    0.0329187214386031    0.9675835432905266    C2485
    0.9623324987291970    0.0329187214386031    0.3009168766238600    C2486
    0.9623324987291970    0.0329187214386031    0.6342502099571933    C2487
    0.9623324987291970    0.3662520547719365    0.9675835432905266    C2488
    0.9623324987291970    0.3662520547719365    0.3009168766238600    C2489
    0.9623324987291970    0.3662520547719365    0.6342502099571933    C2490
    0.9623324987291970    0.6995853881052698    0.9675835432905266    C2491
    0.9623324987291970    0.6995853881052698    0.3009168766238600    C2492
    0.9623324987291970    0.6995853881052698    0.6342502099571933    C2493
    0.2956658320625304    0.0329187214386031    0.9675835432905266    C2494
    0.2956658320625304    0.0329187214386031    0.3009168766238600    C2495
    0.2956658320625304    0.0329187214386031    0.6342502099571933    C2496
    0.2956658320625304    0.3662520547719365    0.9675835432905266    C2497
    0.2956658320625304    0.3662520547719365    0.3009168766238600    C2498
    0.2956658320625304    0.3662520547719365    0.6342502099571933    C2499
    0.2956658320625304    0.6995853881052698    0.9675835432905266    C2500
    0.2956658320625304    0.6995853881052698    0.3009168766238600    C2501
    0.2956658320625304    0.6995853881052698    0.6342502099571933    C2502
    0.6289991653958638    0.0329187214386031    0.9675835432905266    C2503
    0.6289991653958638    0.0329187214386031    0.3009168766238600    C2504
    0.6289991653958638    0.0329187214386031    0.6342502099571933    C2505
    0.6289991653958638    0.3662520547719365    0.9675835432905266    C2506
    0.6289991653958638    0.3662520547719365    0.3009168766238600    C2507
    0.6289991653958638    0.3662520547719365    0.6342502099571933    C2508
    0.6289991653958638    0.6995853881052698    0.9675835432905266    C2509
    0.6289991653958638    0.6995853881052698    0.3009168766238600    C2510
    0.6289991653958638    0.6995853881052698    0.6342502099571933    C2511
    0.1009992500995289    0.1478555785679825    0.9079448929432692    C2512
    0.1009992500995289    0.1478555785679825    0.2412782262766024    C2513
    0.1009992500995289    0.1478555785679825    0.5746115596099357    C2514
    0.1009992500995289    0.4811889119013157    0.9079448929432692    C2515
    0.1009992500995289    0.4811889119013157    0.2412782262766024    C2516
    0.1009992500995289    0.4811889119013157    0.5746115596099357    C2517
    0.1009992500995289    0.8145222452346490    0.9079448929432692    C2518
    0.1009992500995289    0.8145222452346490    0.2412782262766024    C2519
    0.1009992500995289    0.8145222452346490    0.5746115596099357    C2520
    0.4343325834328622    0.1478555785679825    0.9079448929432692    C2521
    0.4343325834328622    0.1478555785679825    0.2412782262766024    C2522
    0.4343325834328622    0.1478555785679825    0.5746115596099357    C2523
    0.4343325834328622    0.4811889119013157    0.9079448929432692    C2524
    0.4343325834328622    0.4811889119013157    0.2412782262766024    C2525
    0.4343325834328622    0.4811889119013157    0.5746115596099357    C2526
    0.4343325834328622    0.8145222452346490    0.9079448929432692    C2527
    0.4343325834328622    0.8145222452346490    0.2412782262766024    C2528
    0.4343325834328622    0.8145222452346490    0.5746115596099357    C2529
    0.7676659167661956    0.1478555785679825    0.9079448929432692    C2530
    0.7676659167661956    0.1478555785679825    0.2412782262766024    C2531
    0.7676659167661956    0.1478555785679825    0.5746115596099357    C2532
    0.7676659167661956    0.4811889119013157    0.9079448929432692    C2533
    0.7676659167661956    0.4811889119013157    0.2412782262766024    C2534
    0.7676659167661956    0.4811889119013157    0.5746115596099357    C2535
    0.7676659167661956    0.8145222452346490    0.9079448929432692    C2536
    0.7676659167661956    0.8145222452346490    0.2412782262766024    C2537
    0.7676659167661956    0.8145222452346490    0.5746115596099357    C2538
    0.1567452192052298    0.9596322217445845    0.1734980727597035    C2539
    0.1567452192052298    0.9596322217445845    0.5068314060930369    C2540
    0.1567452192052298    0.9596322217445845    0.8401647394263702    C2541
    0.1567452192052298    0.2929655550779179    0.1734980727597035    C2542
    0.1567452192052298    0.2929655550779179    0.5068314060930369    C2543
    0.1567452192052298    0.2929655550779179    0.8401647394263702    C2544
    0.1567452192052298    0.6262988884112513    0.1734980727597035    C2545
    0.1567452192052298    0.6262988884112513    0.5068314060930369    C2546
    0.1567452192052298    0.6262988884112513    0.8401647394263702    C2547
    0.4900785525385631    0.9596322217445845    0.1734980727597035    C2548
    0.4900785525385631    0.9596322217445845    0.5068314060930369    C2549
    0.4900785525385631    0.9596322217445845    0.8401647394263702    C2550
    0.4900785525385631    0.2929655550779179    0.1734980727597035    C2551
    0.4900785525385631    0.2929655550779179    0.5068314060930369    C2552
    0.4900785525385631    0.2929655550779179    0.8401647394263702    C2553
    0.4900785525385631    0.6262988884112513    0.1734980727597035    C2554
    0.4900785525385631    0.6262988884112513    0.5068314060930369    C2555
    0.4900785525385631    0.6262988884112513    0.8401647394263702    C2556
    0.8234118858718964    0.9596322217445845    0.1734980727597035    C2557
    0.8234118858718964    0.9596322217445845    0.5068314060930369    C2558
    0.8234118858718964    0.9596322217445845    0.8401647394263702    C2559
    0.8234118858718964    0.2929655550779179    0.1734980727597035    C2560
    0.8234118858718964    0.2929655550779179    0.5068314060930369    C2561
    0.8234118858718964    0.2929655550779179    0.8401647394263702    C2562
    0.8234118858718964    0.6262988884112513    0.1734980727597035    C2563
    0.8234118858718964    0.6262988884112513    0.5068314060930369    C2564
    0.8234118858718964    0.6262988884112513    0.8401647394263702    C2565
    0.9290583652508193    0.0677756926936075    0.9983645988449481    C2566
    0.9290583652508193    0.0677756926936075    0.3316979321782814    C2567
    0.9290583652508193    0.0677756926936075    0.6650312655116146    C2568
    0.9290583652508193    0.4011090260269408    0.9983645988449481    C2569
    0.9290583652508193    0.4011090260269408    0.3316979321782814    C2570
    0.9290583652508193    0.4011090260269408    0.6650312655116146    C2571
    0.9290583652508193    0.7344423593602741    0.9983645988449481    C2572
    0.9290583652508193    0.7344423593602741    0.3316979321782814    C2573
    0.9290583652508193    0.7344423593602741    0.6650312655116146    C2574
    0.2623916985841527    0.0677756926936075    0.9983645988449481    C2575
    0.2623916985841527    0.0677756926936075    0.3316979321782814    C2576
    0.2623916985841527    0.0677756926936075    0.6650312655116146    C2577
    0.2623916985841527    0.4011090260269408    0.9983645988449481    C2578
    0.2623916985841527    0.4011090260269408    0.3316979321782814    C2579
    0.2623916985841527    0.4011090260269408    0.6650312655116146    C2580
    0.2623916985841527    0.7344423593602741    0.9983645988449481    C2581
    0.2623916985841527    0.7344423593602741    0.3316979321782814    C2582
    0.2623916985841527    0.7344423593602741    0.6650312655116146    C2583
    0.5957250319174860    0.0677756926936075    0.9983645988449481    C2584
    0.5957250319174860    0.0677756926936075    0.3316979321782814    C2585
    0.5957250319174860    0.0677756926936075    0.6650312655116146    C2586
    0.5957250319174860    0.4011090260269408    0.9983645988449481    C2587
    0.5957250319174860    0.4011090260269408    0.3316979321782814    C2588
    0.5957250319174860    0.4011090260269408    0.6650312655116146    C2589
    0.5957250319174860    0.7344423593602741    0.9983645988449481    C2590
    0.5957250319174860    0.7344423593602741    0.3316979321782814    C2591
    0.5957250319174860    0.7344423593602741    0.6650312655116146    C2592
    0.0170677548949685    0.1173257790079146    0.1737188335971876    C2593
    0.0170677548949685    0.1173257790079146    0.5070521669305210    C2594
    0.0170677548949685    0.1173257790079146    0.8403855002638543    C2595
    0.0170677548949685    0.4506591123412480    0.1737188335971876    C2596
    0.0170677548949685    0.4506591123412480    0.5070521669305210    C2597
    0.0170677548949685    0.4506591123412480    0.8403855002638543    C2598
    0.0170677548949685    0.7839924456745814    0.1737188335971876    C2599
    0.0170677548949685    0.7839924456745814    0.5070521669305210    C2600
    0.0170677548949685    0.7839924456745814    0.8403855002638543    C2601
    0.3504010882283017    0.1173257790079146    0.1737188335971876    C2602
    0.3504010882283017    0.1173257790079146    0.5070521669305210    C2603
    0.3504010882283017    0.1173257790079146    0.8403855002638543    C2604
    0.3504010882283017    0.4506591123412480    0.1737188335971876    C2605
    0.3504010882283017    0.4506591123412480    0.5070521669305210    C2606
    0.3504010882283017    0.4506591123412480    0.8403855002638543    C2607
    0.3504010882283017    0.7839924456745814    0.1737188335971876    C2608
    0.3504010882283017    0.7839924456745814    0.5070521669305210    C2609
    0.3504010882283017    0.7839924456745814    0.8403855002638543    C2610
    0.6837344215616351    0.1173257790079146    0.1737188335971876    C2611
    0.6837344215616351    0.1173257790079146    0.5070521669305210    C2612
    0.6837344215616351    0.1173257790079146    0.8403855002638543    C2613
    0.6837344215616351    0.4506591123412480    0.1737188335971876    C2614
    0.6837344215616351    0.4506591123412480    0.5070521669305210    C2615
    0.6837344215616351    0.4506591123412480    0.8403855002638543    C2616
    0.6837344215616351    0.7839924456745814    0.1737188335971876    C2617
    0.6837344215616351    0.7839924456745814    0.5070521669305210    C2618
    0.6837344215616351    0.7839924456745814    0.8403855002638543    C2619
    0.0307775521770893    0.1477090050480994    0.1852922527145048    C2620
    0.0307775521770893    0.1477090050480994    0.5186255860478381    C2621
    0.0307775521770893    0.1477090050480994    0.8519589193811714    C2622
    0.0307775521770893    0.4810423383814327    0.1852922527145048    C2623
    0.0307775521770893    0.4810423383814327    0.5186255860478381    C2624
    0.0307775521770893    0.4810423383814327    0.8519589193811714    C2625
    0.0307775521770893    0.8143756717147661    0.1852922527145048    C2626
    0.0307775521770893    0.8143756717147661    0.5186255860478381    C2627
    0.0307775521770893    0.8143756717147661    0.8519589193811714    C2628
    0.3641108855104226    0.1477090050480994    0.1852922527145048    C2629
    0.3641108855104226    0.1477090050480994    0.5186255860478381    C2630
    0.3641108855104226    0.1477090050480994    0.8519589193811714    C2631
    0.3641108855104226    0.4810423383814327    0.1852922527145048    C2632
    0.3641108855104226    0.4810423383814327    0.5186255860478381    C2633
    0.3641108855104226    0.4810423383814327    0.8519589193811714    C2634
    0.3641108855104226    0.8143756717147661    0.1852922527145048    C2635
    0.3641108855104226    0.8143756717147661    0.5186255860478381    C2636
    0.3641108855104226    0.8143756717147661    0.8519589193811714    C2637
    0.6974442188437560    0.1477090050480994    0.1852922527145048    C2638
    0.6974442188437560    0.1477090050480994    0.5186255860478381    C2639
    0.6974442188437560    0.1477090050480994    0.8519589193811714    C2640
    0.6974442188437560    0.4810423383814327    0.1852922527145048    C2641
    0.6974442188437560    0.4810423383814327    0.5186255860478381    C2642
    0.6974442188437560    0.4810423383814327    0.8519589193811714    C2643
    0.6974442188437560    0.8143756717147661    0.1852922527145048    C2644
    0.6974442188437560    0.8143756717147661    0.5186255860478381    C2645
    0.6974442188437560    0.8143756717147661    0.8519589193811714    C2646
    0.1316997650017724    0.0068053475829543    0.2019025663780329    C2647
    0.1316997650017724    0.0068053475829543    0.5352358997113663    C2648
    0.1316997650017724    0.0068053475829543    0.8685692330446997    C2649
    0.1316997650017724    0.3401386809162876    0.2019025663780329    C2650
    0.1316997650017724    0.3401386809162876    0.5352358997113663    C2651
    0.1316997650017724    0.3401386809162876    0.8685692330446997    C2652
    0.1316997650017724    0.6734720142496209    0.2019025663780329    C2653
    0.1316997650017724    0.6734720142496209    0.5352358997113663    C2654
    0.1316997650017724    0.6734720142496209    0.8685692330446997    C2655
    0.4650330983351058    0.0068053475829543    0.2019025663780329    C2656
    0.4650330983351058    0.0068053475829543    0.5352358997113663    C2657
    0.4650330983351058    0.0068053475829543    0.8685692330446997    C2658
    0.4650330983351058    0.3401386809162876    0.2019025663780329    C2659
    0.4650330983351058    0.3401386809162876    0.5352358997113663    C2660
    0.4650330983351058    0.3401386809162876    0.8685692330446997    C2661
    0.4650330983351058    0.6734720142496209    0.2019025663780329    C2662
    0.4650330983351058    0.6734720142496209    0.5352358997113663    C2663
    0.4650330983351058    0.6734720142496209    0.8685692330446997    C2664
    0.7983664316684391    0.0068053475829543    0.2019025663780329    C2665
    0.7983664316684391    0.0068053475829543    0.5352358997113663    C2666
    0.7983664316684391    0.0068053475829543    0.8685692330446997    C2667
    0.7983664316684391    0.3401386809162876    0.2019025663780329    C2668
    0.7983664316684391    0.3401386809162876    0.5352358997113663    C2669
    0.7983664316684391    0.3401386809162876    0.8685692330446997    C2670
    0.7983664316684391    0.6734720142496209    0.2019025663780329    C2671
    0.7983664316684391    0.6734720142496209    0.5352358997113663    C2672
    0.7983664316684391    0.6734720142496209    0.8685692330446997    C2673
    0.9337303728014663    0.1302025309157129    0.1930718947991394    C2674
    0.9337303728014663    0.1302025309157129    0.5264052281324728    C2675
    0.9337303728014663    0.1302025309157129    0.8597385614658062    C2676
    0.9337303728014663    0.4635358642490464    0.1930718947991394    C2677
    0.9337303728014663    0.4635358642490464    0.5264052281324728    C2678
    0.9337303728014663    0.4635358642490464    0.8597385614658062    C2679
    0.9337303728014663    0.7968691975823796    0.1930718947991394    C2680
    0.9337303728014663    0.7968691975823796    0.5264052281324728    C2681
    0.9337303728014663    0.7968691975823796    0.8597385614658062    C2682
    0.2670637061347996    0.1302025309157129    0.1930718947991394    C2683
    0.2670637061347996    0.1302025309157129    0.5264052281324728    C2684
    0.2670637061347996    0.1302025309157129    0.8597385614658062    C2685
    0.2670637061347996    0.4635358642490464    0.1930718947991394    C2686
    0.2670637061347996    0.4635358642490464    0.5264052281324728    C2687
    0.2670637061347996    0.4635358642490464    0.8597385614658062    C2688
    0.2670637061347996    0.7968691975823796    0.1930718947991394    C2689
    0.2670637061347996    0.7968691975823796    0.5264052281324728    C2690
    0.2670637061347996    0.7968691975823796    0.8597385614658062    C2691
    0.6003970394681328    0.1302025309157129    0.1930718947991394    C2692
    0.6003970394681328    0.1302025309157129    0.5264052281324728    C2693
    0.6003970394681328    0.1302025309157129    0.8597385614658062    C2694
    0.6003970394681328    0.4635358642490464    0.1930718947991394    C2695
    0.6003970394681328    0.4635358642490464    0.5264052281324728    C2696
    0.6003970394681328    0.4635358642490464    0.8597385614658062    C2697
    0.6003970394681328    0.7968691975823796    0.1930718947991394    C2698
    0.6003970394681328    0.7968691975823796    0.5264052281324728    C2699
    0.6003970394681328    0.7968691975823796    0.8597385614658062    C2700
    0.1361594056646345    0.9637354005998937    0.1989313823606865    C2701
    0.1361594056646345    0.9637354005998937    0.5322647156940199    C2702
    0.1361594056646345    0.9637354005998937    0.8655980490273532    C2703
    0.1361594056646345    0.2970687339332270    0.1989313823606865    C2704
    0.1361594056646345    0.2970687339332270    0.5322647156940199    C2705
    0.1361594056646345    0.2970687339332270    0.8655980490273532    C2706
    0.1361594056646345    0.6304020672665603    0.1989313823606865    C2707
    0.1361594056646345    0.6304020672665603    0.5322647156940199    C2708
    0.1361594056646345    0.6304020672665603    0.8655980490273532    C2709
    0.4694927389979680    0.9637354005998937    0.1989313823606865    C2710
    0.4694927389979680    0.9637354005998937    0.5322647156940199    C2711
    0.4694927389979680    0.9637354005998937    0.8655980490273532    C2712
    0.4694927389979680    0.2970687339332270    0.1989313823606865    C2713
    0.4694927389979680    0.2970687339332270    0.5322647156940199    C2714
    0.4694927389979680    0.2970687339332270    0.8655980490273532    C2715
    0.4694927389979680    0.6304020672665603    0.1989313823606865    C2716
    0.4694927389979680    0.6304020672665603    0.5322647156940199    C2717
    0.4694927389979680    0.6304020672665603    0.8655980490273532    C2718
    0.8028260723313012    0.9637354005998937    0.1989313823606865    C2719
    0.8028260723313012    0.9637354005998937    0.5322647156940199    C2720
    0.8028260723313012    0.9637354005998937    0.8655980490273532    C2721
    0.8028260723313012    0.2970687339332270    0.1989313823606865    C2722
    0.8028260723313012    0.2970687339332270    0.5322647156940199    C2723
    0.8028260723313012    0.2970687339332270    0.8655980490273532    C2724
    0.8028260723313012    0.6304020672665603    0.1989313823606865    C2725
    0.8028260723313012    0.6304020672665603    0.5322647156940199    C2726
    0.8028260723313012    0.6304020672665603    0.8655980490273532    C2727
    0.9745297072588228    0.0612430459284223    0.1733181242548202    C2728
    0.9745297072588228    0.0612430459284223    0.5066514575881536    C2729
    0.9745297072588228    0.0612430459284223    0.8399847909214868    C2730
    0.9745297072588228    0.3945763792617556    0.1733181242548202    C2731
    0.9745297072588228    0.3945763792617556    0.5066514575881536    C2732
    0.9745297072588228    0.3945763792617556    0.8399847909214868    C2733
    0.9745297072588228    0.7279097125950889    0.1733181242548202    C2734
    0.9745297072588228    0.7279097125950889    0.5066514575881536    C2735
    0.9745297072588228    0.7279097125950889    0.8399847909214868    C2736
    0.3078630405921561    0.0612430459284223    0.1733181242548202    C2737
    0.3078630405921561    0.0612430459284223    0.5066514575881536    C2738
    0.3078630405921561    0.0612430459284223    0.8399847909214868    C2739
    0.3078630405921561    0.3945763792617556    0.1733181242548202    C2740
    0.3078630405921561    0.3945763792617556    0.5066514575881536    C2741
    0.3078630405921561    0.3945763792617556    0.8399847909214868    C2742
    0.3078630405921561    0.7279097125950889    0.1733181242548202    C2743
    0.3078630405921561    0.7279097125950889    0.5066514575881536    C2744
    0.3078630405921561    0.7279097125950889    0.8399847909214868    C2745
    0.6411963739254894    0.0612430459284223    0.1733181242548202    C2746
    0.6411963739254894    0.0612430459284223    0.5066514575881536    C2747
    0.6411963739254894    0.0612430459284223    0.8399847909214868    C2748
    0.6411963739254894    0.3945763792617556    0.1733181242548202    C2749
    0.6411963739254894    0.3945763792617556    0.5066514575881536    C2750
    0.6411963739254894    0.3945763792617556    0.8399847909214868    C2751
    0.6411963739254894    0.7279097125950889    0.1733181242548202    C2752
    0.6411963739254894    0.7279097125950889    0.5066514575881536    C2753
    0.6411963739254894    0.7279097125950889    0.8399847909214868    C2754
    0.9575013331226363    0.9774077731516919    0.1929715154939919    C2755
    0.9575013331226363    0.9774077731516919    0.5263048488273253    C2756
    0.9575013331226363    0.9774077731516919    0.8596381821606586    C2757
    0.9575013331226363    0.3107411064850252    0.1929715154939919    C2758
    0.9575013331226363    0.3107411064850252    0.5263048488273253    C2759
    0.9575013331226363    0.3107411064850252    0.8596381821606586    C2760
    0.9575013331226363    0.6440744398183584    0.1929715154939919    C2761
    0.9575013331226363    0.6440744398183584    0.5263048488273253    C2762
    0.9575013331226363    0.6440744398183584    0.8596381821606586    C2763
    0.2908346664559696    0.9774077731516919    0.1929715154939919    C2764
    0.2908346664559696    0.9774077731516919    0.5263048488273253    C2765
    0.2908346664559696    0.9774077731516919    0.8596381821606586    C2766
    0.2908346664559696    0.3107411064850252    0.1929715154939919    C2767
    0.2908346664559696    0.3107411064850252    0.5263048488273253    C2768
    0.2908346664559696    0.3107411064850252    0.8596381821606586    C2769
    0.2908346664559696    0.6440744398183584    0.1929715154939919    C2770
    0.2908346664559696    0.6440744398183584    0.5263048488273253    C2771
    0.2908346664559696    0.6440744398183584    0.8596381821606586    C2772
    0.6241679997893028    0.9774077731516919    0.1929715154939919    C2773
    0.6241679997893028    0.9774077731516919    0.5263048488273253    C2774
    0.6241679997893028    0.9774077731516919    0.8596381821606586    C2775
    0.6241679997893028    0.3107411064850252    0.1929715154939919    C2776
    0.6241679997893028    0.3107411064850252    0.5263048488273253    C2777
    0.6241679997893028    0.3107411064850252    0.8596381821606586    C2778
    0.6241679997893028    0.6440744398183584    0.1929715154939919    C2779
    0.6241679997893028    0.6440744398183584    0.5263048488273253    C2780
    0.6241679997893028    0.6440744398183584    0.8596381821606586    C2781
    0.9324157939247919    0.0440498344015710    0.9777282973142007    C2782
    0.9324157939247919    0.0440498344015710    0.3110616306475341    C2783
    0.9324157939247919    0.0440498344015710    0.6443949639808675    C2784
    0.9324157939247919    0.3773831677349042    0.9777282973142007    C2785
    0.9324157939247919    0.3773831677349042    0.3110616306475341    C2786
    0.9324157939247919    0.3773831677349042    0.6443949639808675    C2787
    0.9324157939247919    0.7107165010682376    0.9777282973142007    C2788
    0.9324157939247919    0.7107165010682376    0.3110616306475341    C2789
    0.9324157939247919    0.7107165010682376    0.6443949639808675    C2790
    0.2657491272581253    0.0440498344015710    0.9777282973142007    C2791
    0.2657491272581253    0.0440498344015710    0.3110616306475341    C2792
    0.2657491272581253    0.0440498344015710    0.6443949639808675    C2793
    0.2657491272581253    0.3773831677349042    0.9777282973142007    C2794
    0.2657491272581253    0.3773831677349042    0.3110616306475341    C2795
    0.2657491272581253    0.3773831677349042    0.6443949639808675    C2796
    0.2657491272581253    0.7107165010682376    0.9777282973142007    C2797
    0.2657491272581253    0.7107165010682376    0.3110616306475341    C2798
    0.2657491272581253    0.7107165010682376    0.6443949639808675    C2799
    0.5990824605914586    0.0440498344015710    0.9777282973142007    C2800
    0.5990824605914586    0.0440498344015710    0.3110616306475341    C2801
    0.5990824605914586    0.0440498344015710    0.6443949639808675    C2802
    0.5990824605914586    0.3773831677349042    0.9777282973142007    C2803
    0.5990824605914586    0.3773831677349042    0.3110616306475341    C2804
    0.5990824605914586    0.3773831677349042    0.6443949639808675    C2805
    0.5990824605914586    0.7107165010682376    0.9777282973142007    C2806
    0.5990824605914586    0.7107165010682376    0.3110616306475341    C2807
    0.5990824605914586    0.7107165010682376    0.6443949639808675    C2808
    0.9586963218025950    0.0813133292208342    0.1507253975501927    C2809
    0.9586963218025950    0.0813133292208342    0.4840587308835260    C2810
    0.9586963218025950    0.0813133292208342    0.8173920642168594    C2811
    0.9586963218025950    0.4146466625541675    0.1507253975501927    C2812
    0.9586963218025950    0.4146466625541675    0.4840587308835260    C2813
    0.9586963218025950    0.4146466625541675    0.8173920642168594    C2814
    0.9586963218025950    0.7479799958875009    0.1507253975501927    C2815
    0.9586963218025950    0.7479799958875009    0.4840587308835260    C2816
    0.9586963218025950    0.7479799958875009    0.8173920642168594    C2817
    0.2920296551359284    0.0813133292208342    0.1507253975501927    C2818
    0.2920296551359284    0.0813133292208342    0.4840587308835260    C2819
    0.2920296551359284    0.0813133292208342    0.8173920642168594    C2820
    0.2920296551359284    0.4146466625541675    0.1507253975501927    C2821
    0.2920296551359284    0.4146466625541675    0.4840587308835260    C2822
    0.2920296551359284    0.4146466625541675    0.8173920642168594    C2823
    0.2920296551359284    0.7479799958875009    0.1507253975501927    C2824
    0.2920296551359284    0.7479799958875009    0.4840587308835260    C2825
    0.2920296551359284    0.7479799958875009    0.8173920642168594    C2826
    0.6253629884692616    0.0813133292208342    0.1507253975501927    C2827
    0.6253629884692616    0.0813133292208342    0.4840587308835260    C2828
    0.6253629884692616    0.0813133292208342    0.8173920642168594    C2829
    0.6253629884692616    0.4146466625541675    0.1507253975501927    C2830
    0.6253629884692616    0.4146466625541675    0.4840587308835260    C2831
    0.6253629884692616    0.4146466625541675    0.8173920642168594    C2832
    0.6253629884692616    0.7479799958875009    0.1507253975501927    C2833
    0.6253629884692616    0.7479799958875009    0.4840587308835260    C2834
    0.6253629884692616    0.7479799958875009    0.8173920642168594    C2835
    0.9896757685578983    0.0925737361395871    0.1890223598692721    C2836
    0.9896757685578983    0.0925737361395871    0.5223556932026054    C2837
    0.9896757685578983    0.0925737361395871    0.8556890265359388    C2838
    0.9896757685578983    0.4259070694729203    0.1890223598692721    C2839
    0.9896757685578983    0.4259070694729203    0.5223556932026054    C2840
    0.9896757685578983    0.4259070694729203    0.8556890265359388    C2841
    0.9896757685578983    0.7592404028062536    0.1890223598692721    C2842
    0.9896757685578983    0.7592404028062536    0.5223556932026054    C2843
    0.9896757685578983    0.7592404028062536    0.8556890265359388    C2844
    0.3230091018912317    0.0925737361395871    0.1890223598692721    C2845
    0.3230091018912317    0.0925737361395871    0.5223556932026054    C2846
    0.3230091018912317    0.0925737361395871    0.8556890265359388    C2847
    0.3230091018912317    0.4259070694729203    0.1890223598692721    C2848
    0.3230091018912317    0.4259070694729203    0.5223556932026054    C2849
    0.3230091018912317    0.4259070694729203    0.8556890265359388    C2850
    0.3230091018912317    0.7592404028062536    0.1890223598692721    C2851
    0.3230091018912317    0.7592404028062536    0.5223556932026054    C2852
    0.3230091018912317    0.7592404028062536    0.8556890265359388    C2853
    0.6563424352245650    0.0925737361395871    0.1890223598692721    C2854
    0.6563424352245650    0.0925737361395871    0.5223556932026054    C2855
    0.6563424352245650    0.0925737361395871    0.8556890265359388    C2856
    0.6563424352245650    0.4259070694729203    0.1890223598692721    C2857
    0.6563424352245650    0.4259070694729203    0.5223556932026054    C2858
    0.6563424352245650    0.4259070694729203    0.8556890265359388    C2859
    0.6563424352245650    0.7592404028062536    0.1890223598692721    C2860
    0.6563424352245650    0.7592404028062536    0.5223556932026054    C2861
    0.6563424352245650    0.7592404028062536    0.8556890265359388    C2862
    0.1008282020251596    0.9295517083922871    0.3297104666965457    C2863
    0.1008282020251596    0.9295517083922871    0.6630438000298791    C2864
    0.1008282020251596    0.9295517083922871    0.9963771333632123    C2865
    0.1008282020251596    0.2628850417256204    0.3297104666965457    C2866
    0.1008282020251596    0.2628850417256204    0.6630438000298791    C2867
    0.1008282020251596    0.2628850417256204    0.9963771333632123    C2868
    0.1008282020251596    0.5962183750589537    0.3297104666965457    C2869
    0.1008282020251596    0.5962183750589537    0.6630438000298791    C2870
    0.1008282020251596    0.5962183750589537    0.9963771333632123    C2871
    0.4341615353584930    0.9295517083922871    0.3297104666965457    C2872
    0.4341615353584930    0.9295517083922871    0.6630438000298791    C2873
    0.4341615353584930    0.9295517083922871    0.9963771333632123    C2874
    0.4341615353584930    0.2628850417256204    0.3297104666965457    C2875
    0.4341615353584930    0.2628850417256204    0.6630438000298791    C2876
    0.4341615353584930    0.2628850417256204    0.9963771333632123    C2877
    0.4341615353584930    0.5962183750589537    0.3297104666965457    C2878
    0.4341615353584930    0.5962183750589537    0.6630438000298791    C2879
    0.4341615353584930    0.5962183750589537    0.9963771333632123    C2880
    0.7674948686918264    0.9295517083922871    0.3297104666965457    C2881
    0.7674948686918264    0.9295517083922871    0.6630438000298791    C2882
    0.7674948686918264    0.9295517083922871    0.9963771333632123    C2883
    0.7674948686918264    0.2628850417256204    0.3297104666965457    C2884
    0.7674948686918264    0.2628850417256204    0.6630438000298791    C2885
    0.7674948686918264    0.2628850417256204    0.9963771333632123    C2886
    0.7674948686918264    0.5962183750589537    0.3297104666965457    C2887
    0.7674948686918264    0.5962183750589537    0.6630438000298791    C2888
    0.7674948686918264    0.5962183750589537    0.9963771333632123    C2889
    0.0842898061157225    0.2352067262772479    0.3852710484617110    C2890
    0.0842898061157225    0.2352067262772479    0.7186043817950444    C2891
    0.0842898061157225    0.2352067262772479    0.0519377151283777    C2892
    0.0842898061157225    0.5685400596105812    0.3852710484617110    C2893
    0.0842898061157225    0.5685400596105812    0.7186043817950444    C2894
    0.0842898061157225    0.5685400596105812    0.0519377151283777    C2895
    0.0842898061157225    0.9018733929439146    0.3852710484617110    C2896
    0.0842898061157225    0.9018733929439146    0.7186043817950444    C2897
    0.0842898061157225    0.9018733929439146    0.0519377151283777    C2898
    0.4176231394490557    0.2352067262772479    0.3852710484617110    C2899
    0.4176231394490557    0.2352067262772479    0.7186043817950444    C2900
    0.4176231394490557    0.2352067262772479    0.0519377151283777    C2901
    0.4176231394490557    0.5685400596105812    0.3852710484617110    C2902
    0.4176231394490557    0.5685400596105812    0.7186043817950444    C2903
    0.4176231394490557    0.5685400596105812    0.0519377151283777    C2904
    0.4176231394490557    0.9018733929439146    0.3852710484617110    C2905
    0.4176231394490557    0.9018733929439146    0.7186043817950444    C2906
    0.4176231394490557    0.9018733929439146    0.0519377151283777    C2907
    0.7509564727823891    0.2352067262772479    0.3852710484617110    C2908
    0.7509564727823891    0.2352067262772479    0.7186043817950444    C2909
    0.7509564727823891    0.2352067262772479    0.0519377151283777    C2910
    0.7509564727823891    0.5685400596105812    0.3852710484617110    C2911
    0.7509564727823891    0.5685400596105812    0.7186043817950444    C2912
    0.7509564727823891    0.5685400596105812    0.0519377151283777    C2913
    0.7509564727823891    0.9018733929439146    0.3852710484617110    C2914
    0.7509564727823891    0.9018733929439146    0.7186043817950444    C2915
    0.7509564727823891    0.9018733929439146    0.0519377151283777    C2916
    0.0330737123966267    0.3158011158911650    0.1757466487878426    C2917
    0.0330737123966267    0.3158011158911650    0.5090799821211760    C2918
    0.0330737123966267    0.3158011158911650    0.8424133154545094    C2919
    0.0330737123966267    0.6491344492244984    0.1757466487878426    C2920
    0.0330737123966267    0.6491344492244984    0.5090799821211760    C2921
    0.0330737123966267    0.6491344492244984    0.8424133154545094    C2922
    0.0330737123966267    0.9824677825578317    0.1757466487878426    C2923
    0.0330737123966267    0.9824677825578317    0.5090799821211760    C2924
    0.0330737123966267    0.9824677825578317    0.8424133154545094    C2925
    0.3664070457299600    0.3158011158911650    0.1757466487878426    C2926
    0.3664070457299600    0.3158011158911650    0.5090799821211760    C2927
    0.3664070457299600    0.3158011158911650    0.8424133154545094    C2928
    0.3664070457299600    0.6491344492244984    0.1757466487878426    C2929
    0.3664070457299600    0.6491344492244984    0.5090799821211760    C2930
    0.3664070457299600    0.6491344492244984    0.8424133154545094    C2931
    0.3664070457299600    0.9824677825578317    0.1757466487878426    C2932
    0.3664070457299600    0.9824677825578317    0.5090799821211760    C2933
    0.3664070457299600    0.9824677825578317    0.8424133154545094    C2934
    0.6997403790632932    0.3158011158911650    0.1757466487878426    C2935
    0.6997403790632932    0.3158011158911650    0.5090799821211760    C2936
    0.6997403790632932    0.3158011158911650    0.8424133154545094    C2937
    0.6997403790632932    0.6491344492244984    0.1757466487878426    C2938
    0.6997403790632932    0.6491344492244984    0.5090799821211760    C2939
    0.6997403790632932    0.6491344492244984    0.8424133154545094    C2940
    0.6997403790632932    0.9824677825578317    0.1757466487878426    C2941
    0.6997403790632932    0.9824677825578317    0.5090799821211760    C2942
    0.6997403790632932    0.9824677825578317    0.8424133154545094    C2943
    0.0566424086746101    0.3261249783290995    0.1498072004875854    C2944
    0.0566424086746101    0.3261249783290995    0.4831405338209187    C2945
    0.0566424086746101    0.3261249783290995    0.8164738671542520    C2946
    0.0566424086746101    0.6594583116624329    0.1498072004875854    C2947
    0.0566424086746101    0.6594583116624329    0.4831405338209187    C2948
    0.0566424086746101    0.6594583116624329    0.8164738671542520    C2949
    0.0566424086746101    0.9927916449957661    0.1498072004875854    C2950
    0.0566424086746101    0.9927916449957661    0.4831405338209187    C2951
    0.0566424086746101    0.9927916449957661    0.8164738671542520    C2952
    0.3899757420079435    0.3261249783290995    0.1498072004875854    C2953
    0.3899757420079435    0.3261249783290995    0.4831405338209187    C2954
    0.3899757420079435    0.3261249783290995    0.8164738671542520    C2955
    0.3899757420079435    0.6594583116624329    0.1498072004875854    C2956
    0.3899757420079435    0.6594583116624329    0.4831405338209187    C2957
    0.3899757420079435    0.6594583116624329    0.8164738671542520    C2958
    0.3899757420079435    0.9927916449957661    0.1498072004875854    C2959
    0.3899757420079435    0.9927916449957661    0.4831405338209187    C2960
    0.3899757420079435    0.9927916449957661    0.8164738671542520    C2961
    0.7233090753412768    0.3261249783290995    0.1498072004875854    C2962
    0.7233090753412768    0.3261249783290995    0.4831405338209187    C2963
    0.7233090753412768    0.3261249783290995    0.8164738671542520    C2964
    0.7233090753412768    0.6594583116624329    0.1498072004875854    C2965
    0.7233090753412768    0.6594583116624329    0.4831405338209187    C2966
    0.7233090753412768    0.6594583116624329    0.8164738671542520    C2967
    0.7233090753412768    0.9927916449957661    0.1498072004875854    C2968
    0.7233090753412768    0.9927916449957661    0.4831405338209187    C2969
    0.7233090753412768    0.9927916449957661    0.8164738671542520    C2970
    0.0499570770777850    0.2578165877405922    0.1403272544099505    C2971
    0.0499570770777850    0.2578165877405922    0.4736605877432839    C2972
    0.0499570770777850    0.2578165877405922    0.8069939210766173    C2973
    0.0499570770777850    0.5911499210739257    0.1403272544099505    C2974
    0.0499570770777850    0.5911499210739257    0.4736605877432839    C2975
    0.0499570770777850    0.5911499210739257    0.8069939210766173    C2976
    0.0499570770777850    0.9244832544072590    0.1403272544099505    C2977
    0.0499570770777850    0.9244832544072590    0.4736605877432839    C2978
    0.0499570770777850    0.9244832544072590    0.8069939210766173    C2979
    0.3832904104111183    0.2578165877405922    0.1403272544099505    C2980
    0.3832904104111183    0.2578165877405922    0.4736605877432839    C2981
    0.3832904104111183    0.2578165877405922    0.8069939210766173    C2982
    0.3832904104111183    0.5911499210739257    0.1403272544099505    C2983
    0.3832904104111183    0.5911499210739257    0.4736605877432839    C2984
    0.3832904104111183    0.5911499210739257    0.8069939210766173    C2985
    0.3832904104111183    0.9244832544072590    0.1403272544099505    C2986
    0.3832904104111183    0.9244832544072590    0.4736605877432839    C2987
    0.3832904104111183    0.9244832544072590    0.8069939210766173    C2988
    0.7166237437444516    0.2578165877405922    0.1403272544099505    C2989
    0.7166237437444516    0.2578165877405922    0.4736605877432839    C2990
    0.7166237437444516    0.2578165877405922    0.8069939210766173    C2991
    0.7166237437444516    0.5911499210739257    0.1403272544099505    C2992
    0.7166237437444516    0.5911499210739257    0.4736605877432839    C2993
    0.7166237437444516    0.5911499210739257    0.8069939210766173    C2994
    0.7166237437444516    0.9244832544072590    0.1403272544099505    C2995
    0.7166237437444516    0.9244832544072590    0.4736605877432839    C2996
    0.7166237437444516    0.9244832544072590    0.8069939210766173    C2997
    0.0303832985842665    0.2462093922610625    0.1683399077131472    C2998
    0.0303832985842665    0.2462093922610625    0.5016732410464806    C2999
    0.0303832985842665    0.2462093922610625    0.8350065743798138    C3000
    0.0303832985842665    0.5795427255943959    0.1683399077131472    C3001
    0.0303832985842665    0.5795427255943959    0.5016732410464806    C3002
    0.0303832985842665    0.5795427255943959    0.8350065743798138    C3003
    0.0303832985842665    0.9128760589277293    0.1683399077131472    C3004
    0.0303832985842665    0.9128760589277293    0.5016732410464806    C3005
    0.0303832985842665    0.9128760589277293    0.8350065743798138    C3006
    0.3637166319175997    0.2462093922610625    0.1683399077131472    C3007
    0.3637166319175997    0.2462093922610625    0.5016732410464806    C3008
    0.3637166319175997    0.2462093922610625    0.8350065743798138    C3009
    0.3637166319175997    0.5795427255943959    0.1683399077131472    C3010
    0.3637166319175997    0.5795427255943959    0.5016732410464806    C3011
    0.3637166319175997    0.5795427255943959    0.8350065743798138    C3012
    0.3637166319175997    0.9128760589277293    0.1683399077131472    C3013
    0.3637166319175997    0.9128760589277293    0.5016732410464806    C3014
    0.3637166319175997    0.9128760589277293    0.8350065743798138    C3015
    0.6970499652509331    0.2462093922610625    0.1683399077131472    C3016
    0.6970499652509331    0.2462093922610625    0.5016732410464806    C3017
    0.6970499652509331    0.2462093922610625    0.8350065743798138    C3018
    0.6970499652509331    0.5795427255943959    0.1683399077131472    C3019
    0.6970499652509331    0.5795427255943959    0.5016732410464806    C3020
    0.6970499652509331    0.5795427255943959    0.8350065743798138    C3021
    0.6970499652509331    0.9128760589277293    0.1683399077131472    C3022
    0.6970499652509331    0.9128760589277293    0.5016732410464806    C3023
    0.6970499652509331    0.9128760589277293    0.8350065743798138    C3024
    0.0202961825343768    0.2752778904968456    0.1840068368120571    C3025
    0.0202961825343768    0.2752778904968456    0.5173401701453906    C3026
    0.0202961825343768    0.2752778904968456    0.8506735034787238    C3027
    0.0202961825343768    0.6086112238301790    0.1840068368120571    C3028
    0.0202961825343768    0.6086112238301790    0.5173401701453906    C3029
    0.0202961825343768    0.6086112238301790    0.8506735034787238    C3030
    0.0202961825343768    0.9419445571635122    0.1840068368120571    C3031
    0.0202961825343768    0.9419445571635122    0.5173401701453906    C3032
    0.0202961825343768    0.9419445571635122    0.8506735034787238    C3033
    0.3536295158677102    0.2752778904968456    0.1840068368120571    C3034
    0.3536295158677102    0.2752778904968456    0.5173401701453906    C3035
    0.3536295158677102    0.2752778904968456    0.8506735034787238    C3036
    0.3536295158677102    0.6086112238301790    0.1840068368120571    C3037
    0.3536295158677102    0.6086112238301790    0.5173401701453906    C3038
    0.3536295158677102    0.6086112238301790    0.8506735034787238    C3039
    0.3536295158677102    0.9419445571635122    0.1840068368120571    C3040
    0.3536295158677102    0.9419445571635122    0.5173401701453906    C3041
    0.3536295158677102    0.9419445571635122    0.8506735034787238    C3042
    0.6869628492010436    0.2752778904968456    0.1840068368120571    C3043
    0.6869628492010436    0.2752778904968456    0.5173401701453906    C3044
    0.6869628492010436    0.2752778904968456    0.8506735034787238    C3045
    0.6869628492010436    0.6086112238301790    0.1840068368120571    C3046
    0.6869628492010436    0.6086112238301790    0.5173401701453906    C3047
    0.6869628492010436    0.6086112238301790    0.8506735034787238    C3048
    0.6869628492010436    0.9419445571635122    0.1840068368120571    C3049
    0.6869628492010436    0.9419445571635122    0.5173401701453906    C3050
    0.6869628492010436    0.9419445571635122    0.8506735034787238    C3051
    0.0641795148533516    0.2995375480235949    0.1310171763085388    C3052
    0.0641795148533516    0.2995375480235949    0.4643505096418723    C3053
    0.0641795148533516    0.2995375480235949    0.7976838429752056    C3054
    0.0641795148533516    0.6328708813569283    0.1310171763085388    C3055
    0.0641795148533516    0.6328708813569283    0.4643505096418723    C3056
    0.0641795148533516    0.6328708813569283    0.7976838429752056    C3057
    0.0641795148533516    0.9662042146902615    0.1310171763085388    C3058
    0.0641795148533516    0.9662042146902615    0.4643505096418723    C3059
    0.0641795148533516    0.9662042146902615    0.7976838429752056    C3060
    0.3975128481866850    0.2995375480235949    0.1310171763085388    C3061
    0.3975128481866850    0.2995375480235949    0.4643505096418723    C3062
    0.3975128481866850    0.2995375480235949    0.7976838429752056    C3063
    0.3975128481866850    0.6328708813569283    0.1310171763085388    C3064
    0.3975128481866850    0.6328708813569283    0.4643505096418723    C3065
    0.3975128481866850    0.6328708813569283    0.7976838429752056    C3066
    0.3975128481866850    0.9662042146902615    0.1310171763085388    C3067
    0.3975128481866850    0.9662042146902615    0.4643505096418723    C3068
    0.3975128481866850    0.9662042146902615    0.7976838429752056    C3069
    0.7308461815200182    0.2995375480235949    0.1310171763085388    C3070
    0.7308461815200182    0.2995375480235949    0.4643505096418723    C3071
    0.7308461815200182    0.2995375480235949    0.7976838429752056    C3072
    0.7308461815200182    0.6328708813569283    0.1310171763085388    C3073
    0.7308461815200182    0.6328708813569283    0.4643505096418723    C3074
    0.7308461815200182    0.6328708813569283    0.7976838429752056    C3075
    0.7308461815200182    0.9662042146902615    0.1310171763085388    C3076
    0.7308461815200182    0.9662042146902615    0.4643505096418723    C3077
    0.7308461815200182    0.9662042146902615    0.7976838429752056    C3078
    0.0494457311842739    0.1735501681004251    0.1757123421645800     H001
    0.0494457311842739    0.1735501681004251    0.5090456754979134     H002
    0.0494457311842739    0.1735501681004251    0.8423790088312466     H003
    0.0494457311842739    0.5068835014337585    0.1757123421645800     H004
    0.0494457311842739    0.5068835014337585    0.5090456754979134     H005
    0.0494457311842739    0.5068835014337585    0.8423790088312466     H006
    0.0494457311842739    0.8402168347670917    0.1757123421645800     H007
    0.0494457311842739    0.8402168347670917    0.5090456754979134     H008
    0.0494457311842739    0.8402168347670917    0.8423790088312466     H009
    0.3827790645176072    0.1735501681004251    0.1757123421645800     H010
    0.3827790645176072    0.1735501681004251    0.5090456754979134     H011
    0.3827790645176072    0.1735501681004251    0.8423790088312466     H012
    0.3827790645176072    0.5068835014337585    0.1757123421645800     H013
    0.3827790645176072    0.5068835014337585    0.5090456754979134     H014
    0.3827790645176072    0.5068835014337585    0.8423790088312466     H015
    0.3827790645176072    0.8402168347670917    0.1757123421645800     H016
    0.3827790645176072    0.8402168347670917    0.5090456754979134     H017
    0.3827790645176072    0.8402168347670917    0.8423790088312466     H018
    0.7161123978509405    0.1735501681004251    0.1757123421645800     H019
    0.7161123978509405    0.1735501681004251    0.5090456754979134     H020
    0.7161123978509405    0.1735501681004251    0.8423790088312466     H021
    0.7161123978509405    0.5068835014337585    0.1757123421645800     H022
    0.7161123978509405    0.5068835014337585    0.5090456754979134     H023
    0.7161123978509405    0.5068835014337585    0.8423790088312466     H024
    0.7161123978509405    0.8402168347670917    0.1757123421645800     H025
    0.7161123978509405    0.8402168347670917    0.5090456754979134     H026
    0.7161123978509405    0.8402168347670917    0.8423790088312466     H027
    0.9462821325534003    0.1886163076906183    0.2900517515114082     H028
    0.9462821325534003    0.1886163076906183    0.6233850848447414     H029
    0.9462821325534003    0.1886163076906183    0.9567184181780747     H030
    0.9462821325534003    0.5219496410239517    0.2900517515114082     H031
    0.9462821325534003    0.5219496410239517    0.6233850848447414     H032
    0.9462821325534003    0.5219496410239517    0.9567184181780747     H033
    0.9462821325534003    0.8552829743572850    0.2900517515114082     H034
    0.9462821325534003    0.8552829743572850    0.6233850848447414     H035
    0.9462821325534003    0.8552829743572850    0.9567184181780747     H036
    0.2796154658867337    0.1886163076906183    0.2900517515114082     H037
    0.2796154658867337    0.1886163076906183    0.6233850848447414     H038
    0.2796154658867337    0.1886163076906183    0.9567184181780747     H039
    0.2796154658867337    0.5219496410239517    0.2900517515114082     H040
    0.2796154658867337    0.5219496410239517    0.6233850848447414     H041
    0.2796154658867337    0.5219496410239517    0.9567184181780747     H042
    0.2796154658867337    0.8552829743572850    0.2900517515114082     H043
    0.2796154658867337    0.8552829743572850    0.6233850848447414     H044
    0.2796154658867337    0.8552829743572850    0.9567184181780747     H045
    0.6129487992200671    0.1886163076906183    0.2900517515114082     H046
    0.6129487992200671    0.1886163076906183    0.6233850848447414     H047
    0.6129487992200671    0.1886163076906183    0.9567184181780747     H048
    0.6129487992200671    0.5219496410239517    0.2900517515114082     H049
    0.6129487992200671    0.5219496410239517    0.6233850848447414     H050
    0.6129487992200671    0.5219496410239517    0.9567184181780747     H051
    0.6129487992200671    0.8552829743572850    0.2900517515114082     H052
    0.6129487992200671    0.8552829743572850    0.6233850848447414     H053
    0.6129487992200671    0.8552829743572850    0.9567184181780747     H054
    0.1631566894163513    0.1141581029719034    0.1419277224408755     H055
    0.1631566894163513    0.1141581029719034    0.4752610557742089     H056
    0.1631566894163513    0.1141581029719034    0.8085943891075422     H057
    0.1631566894163513    0.4474914363052368    0.1419277224408755     H058
    0.1631566894163513    0.4474914363052368    0.4752610557742089     H059
    0.1631566894163513    0.4474914363052368    0.8085943891075422     H060
    0.1631566894163513    0.7808247696385702    0.1419277224408755     H061
    0.1631566894163513    0.7808247696385702    0.4752610557742089     H062
    0.1631566894163513    0.7808247696385702    0.8085943891075422     H063
    0.4964900227496847    0.1141581029719034    0.1419277224408755     H064
    0.4964900227496847    0.1141581029719034    0.4752610557742089     H065
    0.4964900227496847    0.1141581029719034    0.8085943891075422     H066
    0.4964900227496847    0.4474914363052368    0.1419277224408755     H067
    0.4964900227496847    0.4474914363052368    0.4752610557742089     H068
    0.4964900227496847    0.4474914363052368    0.8085943891075422     H069
    0.4964900227496847    0.7808247696385702    0.1419277224408755     H070
    0.4964900227496847    0.7808247696385702    0.4752610557742089     H071
    0.4964900227496847    0.7808247696385702    0.8085943891075422     H072
    0.8298233560830179    0.1141581029719034    0.1419277224408755     H073
    0.8298233560830179    0.1141581029719034    0.4752610557742089     H074
    0.8298233560830179    0.1141581029719034    0.8085943891075422     H075
    0.8298233560830179    0.4474914363052368    0.1419277224408755     H076
    0.8298233560830179    0.4474914363052368    0.4752610557742089     H077
    0.8298233560830179    0.4474914363052368    0.8085943891075422     H078
    0.8298233560830179    0.7808247696385702    0.1419277224408755     H079
    0.8298233560830179    0.7808247696385702    0.4752610557742089     H080
    0.8298233560830179    0.7808247696385702    0.8085943891075422     H081
    0.3214129757891580    0.1096370342011741    0.0548133740492623     H082
    0.3214129757891580    0.1096370342011741    0.3881467073825957     H083
    0.3214129757891580    0.1096370342011741    0.7214800407159290     H084
    0.3214129757891580    0.4429703675345075    0.0548133740492623     H085
    0.3214129757891580    0.4429703675345075    0.3881467073825957     H086
    0.3214129757891580    0.4429703675345075    0.7214800407159290     H087
    0.3214129757891580    0.7763037008678407    0.0548133740492623     H088
    0.3214129757891580    0.7763037008678407    0.3881467073825957     H089
    0.3214129757891580    0.7763037008678407    0.7214800407159290     H090
    0.6547463091224913    0.1096370342011741    0.0548133740492623     H091
    0.6547463091224913    0.1096370342011741    0.3881467073825957     H092
    0.6547463091224913    0.1096370342011741    0.7214800407159290     H093
    0.6547463091224913    0.4429703675345075    0.0548133740492623     H094
    0.6547463091224913    0.4429703675345075    0.3881467073825957     H095
    0.6547463091224913    0.4429703675345075    0.7214800407159290     H096
    0.6547463091224913    0.7763037008678407    0.0548133740492623     H097
    0.6547463091224913    0.7763037008678407    0.3881467073825957     H098
    0.6547463091224913    0.7763037008678407    0.7214800407159290     H099
    0.9880796424558247    0.1096370342011741    0.0548133740492623     H100
    0.9880796424558247    0.1096370342011741    0.3881467073825957     H101
    0.9880796424558247    0.1096370342011741    0.7214800407159290     H102
    0.9880796424558247    0.4429703675345075    0.0548133740492623     H103
    0.9880796424558247    0.4429703675345075    0.3881467073825957     H104
    0.9880796424558247    0.4429703675345075    0.7214800407159290     H105
    0.9880796424558247    0.7763037008678407    0.0548133740492623     H106
    0.9880796424558247    0.7763037008678407    0.3881467073825957     H107
    0.9880796424558247    0.7763037008678407    0.7214800407159290     H108
    0.1018276739227479    0.1574859089638048    0.9281879562645052     H109
    0.1018276739227479    0.1574859089638048    0.2615212895978385     H110
    0.1018276739227479    0.1574859089638048    0.5948546229311718     H111
    0.1018276739227479    0.4908192422971380    0.9281879562645052     H112
    0.1018276739227479    0.4908192422971380    0.2615212895978385     H113
    0.1018276739227479    0.4908192422971380    0.5948546229311718     H114
    0.1018276739227479    0.8241525756304714    0.9281879562645052     H115
    0.1018276739227479    0.8241525756304714    0.2615212895978385     H116
    0.1018276739227479    0.8241525756304714    0.5948546229311718     H117
    0.4351610072560813    0.1574859089638048    0.9281879562645052     H118
    0.4351610072560813    0.1574859089638048    0.2615212895978385     H119
    0.4351610072560813    0.1574859089638048    0.5948546229311718     H120
    0.4351610072560813    0.4908192422971380    0.9281879562645052     H121
    0.4351610072560813    0.4908192422971380    0.2615212895978385     H122
    0.4351610072560813    0.4908192422971380    0.5948546229311718     H123
    0.4351610072560813    0.8241525756304714    0.9281879562645052     H124
    0.4351610072560813    0.8241525756304714    0.2615212895978385     H125
    0.4351610072560813    0.8241525756304714    0.5948546229311718     H126
    0.7684943405894147    0.1574859089638048    0.9281879562645052     H127
    0.7684943405894147    0.1574859089638048    0.2615212895978385     H128
    0.7684943405894147    0.1574859089638048    0.5948546229311718     H129
    0.7684943405894147    0.4908192422971380    0.9281879562645052     H130
    0.7684943405894147    0.4908192422971380    0.2615212895978385     H131
    0.7684943405894147    0.4908192422971380    0.5948546229311718     H132
    0.7684943405894147    0.8241525756304714    0.9281879562645052     H133
    0.7684943405894147    0.8241525756304714    0.2615212895978385     H134
    0.7684943405894147    0.8241525756304714    0.5948546229311718     H135
    0.9365551101587450    0.0223914384664390    0.2134882583521760     H136
    0.9365551101587450    0.0223914384664390    0.5468215916855094     H137
    0.9365551101587450    0.0223914384664390    0.8801549250188426     H138
    0.9365551101587450    0.3557247717997724    0.2134882583521760     H139
    0.9365551101587450    0.3557247717997724    0.5468215916855094     H140
    0.9365551101587450    0.3557247717997724    0.8801549250188426     H141
    0.9365551101587450    0.6890581051331057    0.2134882583521760     H142
    0.9365551101587450    0.6890581051331057    0.5468215916855094     H143
    0.9365551101587450    0.6890581051331057    0.8801549250188426     H144
    0.2698884434920784    0.0223914384664390    0.2134882583521760     H145
    0.2698884434920784    0.0223914384664390    0.5468215916855094     H146
    0.2698884434920784    0.0223914384664390    0.8801549250188426     H147
    0.2698884434920784    0.3557247717997724    0.2134882583521760     H148
    0.2698884434920784    0.3557247717997724    0.5468215916855094     H149
    0.2698884434920784    0.3557247717997724    0.8801549250188426     H150
    0.2698884434920784    0.6890581051331057    0.2134882583521760     H151
    0.2698884434920784    0.6890581051331057    0.5468215916855094     H152
    0.2698884434920784    0.6890581051331057    0.8801549250188426     H153
    0.6032217768254118    0.0223914384664390    0.2134882583521760     H154
    0.6032217768254118    0.0223914384664390    0.5468215916855094     H155
    0.6032217768254118    0.0223914384664390    0.8801549250188426     H156
    0.6032217768254118    0.3557247717997724    0.2134882583521760     H157
    0.6032217768254118    0.3557247717997724    0.5468215916855094     H158
    0.6032217768254118    0.3557247717997724    0.8801549250188426     H159
    0.6032217768254118    0.6890581051331057    0.2134882583521760     H160
    0.6032217768254118    0.6890581051331057    0.5468215916855094     H161
    0.6032217768254118    0.6890581051331057    0.8801549250188426     H162
    0.1519576926053985    0.2655296209574084    0.0966890920224719     H163
    0.1519576926053985    0.2655296209574084    0.4300224253558053     H164
    0.1519576926053985    0.2655296209574084    0.7633557586891386     H165
    0.1519576926053985    0.5988629542907418    0.0966890920224719     H166
    0.1519576926053985    0.5988629542907418    0.4300224253558053     H167
    0.1519576926053985    0.5988629542907418    0.7633557586891386     H168
    0.1519576926053985    0.9321962876240750    0.0966890920224719     H169
    0.1519576926053985    0.9321962876240750    0.4300224253558053     H170
    0.1519576926053985    0.9321962876240750    0.7633557586891386     H171
    0.4852910259387317    0.2655296209574084    0.0966890920224719     H172
    0.4852910259387317    0.2655296209574084    0.4300224253558053     H173
    0.4852910259387317    0.2655296209574084    0.7633557586891386     H174
    0.4852910259387317    0.5988629542907418    0.0966890920224719     H175
    0.4852910259387317    0.5988629542907418    0.4300224253558053     H176
    0.4852910259387317    0.5988629542907418    0.7633557586891386     H177
    0.4852910259387317    0.9321962876240750    0.0966890920224719     H178
    0.4852910259387317    0.9321962876240750    0.4300224253558053     H179
    0.4852910259387317    0.9321962876240750    0.7633557586891386     H180
    0.8186243592720650    0.2655296209574084    0.0966890920224719     H181
    0.8186243592720650    0.2655296209574084    0.4300224253558053     H182
    0.8186243592720650    0.2655296209574084    0.7633557586891386     H183
    0.8186243592720650    0.5988629542907418    0.0966890920224719     H184
    0.8186243592720650    0.5988629542907418    0.4300224253558053     H185
    0.8186243592720650    0.5988629542907418    0.7633557586891386     H186
    0.8186243592720650    0.9321962876240750    0.0966890920224719     H187
    0.8186243592720650    0.9321962876240750    0.4300224253558053     H188
    0.8186243592720650    0.9321962876240750    0.7633557586891386     H189
    0.1282025232967839    0.1695014852517346    0.1236323737235837     H190
    0.1282025232967839    0.1695014852517346    0.4569657070569170     H191
    0.1282025232967839    0.1695014852517346    0.7902990403902503     H192
    0.1282025232967839    0.5028348185850680    0.1236323737235837     H193
    0.1282025232967839    0.5028348185850680    0.4569657070569170     H194
    0.1282025232967839    0.5028348185850680    0.7902990403902503     H195
    0.1282025232967839    0.8361681519184012    0.1236323737235837     H196
    0.1282025232967839    0.8361681519184012    0.4569657070569170     H197
    0.1282025232967839    0.8361681519184012    0.7902990403902503     H198
    0.4615358566301173    0.1695014852517346    0.1236323737235837     H199
    0.4615358566301173    0.1695014852517346    0.4569657070569170     H200
    0.4615358566301173    0.1695014852517346    0.7902990403902503     H201
    0.4615358566301173    0.5028348185850680    0.1236323737235837     H202
    0.4615358566301173    0.5028348185850680    0.4569657070569170     H203
    0.4615358566301173    0.5028348185850680    0.7902990403902503     H204
    0.4615358566301173    0.8361681519184012    0.1236323737235837     H205
    0.4615358566301173    0.8361681519184012    0.4569657070569170     H206
    0.4615358566301173    0.8361681519184012    0.7902990403902503     H207
    0.7948691899634507    0.1695014852517346    0.1236323737235837     H208
    0.7948691899634507    0.1695014852517346    0.4569657070569170     H209
    0.7948691899634507    0.1695014852517346    0.7902990403902503     H210
    0.7948691899634507    0.5028348185850680    0.1236323737235837     H211
    0.7948691899634507    0.5028348185850680    0.4569657070569170     H212
    0.7948691899634507    0.5028348185850680    0.7902990403902503     H213
    0.7948691899634507    0.8361681519184012    0.1236323737235837     H214
    0.7948691899634507    0.8361681519184012    0.4569657070569170     H215
    0.7948691899634507    0.8361681519184012    0.7902990403902503     H216
    0.1600707206979294    0.1783333460907850    0.0603240756829305     H217
    0.1600707206979294    0.1783333460907850    0.3936574090162639     H218
    0.1600707206979294    0.1783333460907850    0.7269907423495972     H219
    0.1600707206979294    0.5116666794241183    0.0603240756829305     H220
    0.1600707206979294    0.5116666794241183    0.3936574090162639     H221
    0.1600707206979294    0.5116666794241183    0.7269907423495972     H222
    0.1600707206979294    0.8450000127574515    0.0603240756829305     H223
    0.1600707206979294    0.8450000127574515    0.3936574090162639     H224
    0.1600707206979294    0.8450000127574515    0.7269907423495972     H225
    0.4934040540312628    0.1783333460907850    0.0603240756829305     H226
    0.4934040540312628    0.1783333460907850    0.3936574090162639     H227
    0.4934040540312628    0.1783333460907850    0.7269907423495972     H228
    0.4934040540312628    0.5116666794241183    0.0603240756829305     H229
    0.4934040540312628    0.5116666794241183    0.3936574090162639     H230
    0.4934040540312628    0.5116666794241183    0.7269907423495972     H231
    0.4934040540312628    0.8450000127574515    0.0603240756829305     H232
    0.4934040540312628    0.8450000127574515    0.3936574090162639     H233
    0.4934040540312628    0.8450000127574515    0.7269907423495972     H234
    0.8267373873645960    0.1783333460907850    0.0603240756829305     H235
    0.8267373873645960    0.1783333460907850    0.3936574090162639     H236
    0.8267373873645960    0.1783333460907850    0.7269907423495972     H237
    0.8267373873645960    0.5116666794241183    0.0603240756829305     H238
    0.8267373873645960    0.5116666794241183    0.3936574090162639     H239
    0.8267373873645960    0.5116666794241183    0.7269907423495972     H240
    0.8267373873645960    0.8450000127574515    0.0603240756829305     H241
    0.8267373873645960    0.8450000127574515    0.3936574090162639     H242
    0.8267373873645960    0.8450000127574515    0.7269907423495972     H243
    0.2333648384054221    0.5638783299782578    0.3101521026495367     H244
    0.2333648384054221    0.5638783299782578    0.6434854359828701     H245
    0.2333648384054221    0.5638783299782578    0.9768187693162035     H246
    0.2333648384054221    0.8972116633115911    0.3101521026495367     H247
    0.2333648384054221    0.8972116633115911    0.6434854359828701     H248
    0.2333648384054221    0.8972116633115911    0.9768187693162035     H249
    0.2333648384054221    0.2305449966449244    0.3101521026495367     H250
    0.2333648384054221    0.2305449966449244    0.6434854359828701     H251
    0.2333648384054221    0.2305449966449244    0.9768187693162035     H252
    0.5666981717387555    0.5638783299782578    0.3101521026495367     H253
    0.5666981717387555    0.5638783299782578    0.6434854359828701     H254
    0.5666981717387555    0.5638783299782578    0.9768187693162035     H255
    0.5666981717387555    0.8972116633115911    0.3101521026495367     H256
    0.5666981717387555    0.8972116633115911    0.6434854359828701     H257
    0.5666981717387555    0.8972116633115911    0.9768187693162035     H258
    0.5666981717387555    0.2305449966449244    0.3101521026495367     H259
    0.5666981717387555    0.2305449966449244    0.6434854359828701     H260
    0.5666981717387555    0.2305449966449244    0.9768187693162035     H261
    0.9000315050720887    0.5638783299782578    0.3101521026495367     H262
    0.9000315050720887    0.5638783299782578    0.6434854359828701     H263
    0.9000315050720887    0.5638783299782578    0.9768187693162035     H264
    0.9000315050720887    0.8972116633115911    0.3101521026495367     H265
    0.9000315050720887    0.8972116633115911    0.6434854359828701     H266
    0.9000315050720887    0.8972116633115911    0.9768187693162035     H267
    0.9000315050720887    0.2305449966449244    0.3101521026495367     H268
    0.9000315050720887    0.2305449966449244    0.6434854359828701     H269
    0.9000315050720887    0.2305449966449244    0.9768187693162035     H270
    0.0740619615658628    0.2487031876585051    0.0720126017051038     H271
    0.0740619615658628    0.2487031876585051    0.4053459350384372     H272
    0.0740619615658628    0.2487031876585051    0.7386792683717704     H273
    0.0740619615658628    0.5820365209918384    0.0720126017051038     H274
    0.0740619615658628    0.5820365209918384    0.4053459350384372     H275
    0.0740619615658628    0.5820365209918384    0.7386792683717704     H276
    0.0740619615658628    0.9153698543251718    0.0720126017051038     H277
    0.0740619615658628    0.9153698543251718    0.4053459350384372     H278
    0.0740619615658628    0.9153698543251718    0.7386792683717704     H279
    0.4073952948991960    0.2487031876585051    0.0720126017051038     H280
    0.4073952948991960    0.2487031876585051    0.4053459350384372     H281
    0.4073952948991960    0.2487031876585051    0.7386792683717704     H282
    0.4073952948991960    0.5820365209918384    0.0720126017051038     H283
    0.4073952948991960    0.5820365209918384    0.4053459350384372     H284
    0.4073952948991960    0.5820365209918384    0.7386792683717704     H285
    0.4073952948991960    0.9153698543251718    0.0720126017051038     H286
    0.4073952948991960    0.9153698543251718    0.4053459350384372     H287
    0.4073952948991960    0.9153698543251718    0.7386792683717704     H288
    0.7407286282325294    0.2487031876585051    0.0720126017051038     H289
    0.7407286282325294    0.2487031876585051    0.4053459350384372     H290
    0.7407286282325294    0.2487031876585051    0.7386792683717704     H291
    0.7407286282325294    0.5820365209918384    0.0720126017051038     H292
    0.7407286282325294    0.5820365209918384    0.4053459350384372     H293
    0.7407286282325294    0.5820365209918384    0.7386792683717704     H294
    0.7407286282325294    0.9153698543251718    0.0720126017051038     H295
    0.7407286282325294    0.9153698543251718    0.4053459350384372     H296
    0.7407286282325294    0.9153698543251718    0.7386792683717704     H297
    0.1340612162399442    0.2562667118303714    0.0400830514070261     H298
    0.1340612162399442    0.2562667118303714    0.3734163847403593     H299
    0.1340612162399442    0.2562667118303714    0.7067497180736927     H300
    0.1340612162399442    0.5896000451637048    0.0400830514070261     H301
    0.1340612162399442    0.5896000451637048    0.3734163847403593     H302
    0.1340612162399442    0.5896000451637048    0.7067497180736927     H303
    0.1340612162399442    0.9229333784970380    0.0400830514070261     H304
    0.1340612162399442    0.9229333784970380    0.3734163847403593     H305
    0.1340612162399442    0.9229333784970380    0.7067497180736927     H306
    0.4673945495732774    0.2562667118303714    0.0400830514070261     H307
    0.4673945495732774    0.2562667118303714    0.3734163847403593     H308
    0.4673945495732774    0.2562667118303714    0.7067497180736927     H309
    0.4673945495732774    0.5896000451637048    0.0400830514070261     H310
    0.4673945495732774    0.5896000451637048    0.3734163847403593     H311
    0.4673945495732774    0.5896000451637048    0.7067497180736927     H312
    0.4673945495732774    0.9229333784970380    0.0400830514070261     H313
    0.4673945495732774    0.9229333784970380    0.3734163847403593     H314
    0.4673945495732774    0.9229333784970380    0.7067497180736927     H315
    0.8007278829066108    0.2562667118303714    0.0400830514070261     H316
    0.8007278829066108    0.2562667118303714    0.3734163847403593     H317
    0.8007278829066108    0.2562667118303714    0.7067497180736927     H318
    0.8007278829066108    0.5896000451637048    0.0400830514070261     H319
    0.8007278829066108    0.5896000451637048    0.3734163847403593     H320
    0.8007278829066108    0.5896000451637048    0.7067497180736927     H321
    0.8007278829066108    0.9229333784970380    0.0400830514070261     H322
    0.8007278829066108    0.9229333784970380    0.3734163847403593     H323
    0.8007278829066108    0.9229333784970380    0.7067497180736927     H324
    0.0993706132573603    0.1726404974760005    0.0857194707716220     H325
    0.0993706132573603    0.1726404974760005    0.4190528041049553     H326
    0.0993706132573603    0.1726404974760005    0.7523861374382886     H327
    0.0993706132573603    0.5059738308093338    0.0857194707716220     H328
    0.0993706132573603    0.5059738308093338    0.4190528041049553     H329
    0.0993706132573603    0.5059738308093338    0.7523861374382886     H330
    0.0993706132573603    0.8393071641426672    0.0857194707716220     H331
    0.0993706132573603    0.8393071641426672    0.4190528041049553     H332
    0.0993706132573603    0.8393071641426672    0.7523861374382886     H333
    0.4327039465906937    0.1726404974760005    0.0857194707716220     H334
    0.4327039465906937    0.1726404974760005    0.4190528041049553     H335
    0.4327039465906937    0.1726404974760005    0.7523861374382886     H336
    0.4327039465906937    0.5059738308093338    0.0857194707716220     H337
    0.4327039465906937    0.5059738308093338    0.4190528041049553     H338
    0.4327039465906937    0.5059738308093338    0.7523861374382886     H339
    0.4327039465906937    0.8393071641426672    0.0857194707716220     H340
    0.4327039465906937    0.8393071641426672    0.4190528041049553     H341
    0.4327039465906937    0.8393071641426672    0.7523861374382886     H342
    0.7660372799240269    0.1726404974760005    0.0857194707716220     H343
    0.7660372799240269    0.1726404974760005    0.4190528041049553     H344
    0.7660372799240269    0.1726404974760005    0.7523861374382886     H345
    0.7660372799240269    0.5059738308093338    0.0857194707716220     H346
    0.7660372799240269    0.5059738308093338    0.4190528041049553     H347
    0.7660372799240269    0.5059738308093338    0.7523861374382886     H348
    0.7660372799240269    0.8393071641426672    0.0857194707716220     H349
    0.7660372799240269    0.8393071641426672    0.4190528041049553     H350
    0.7660372799240269    0.8393071641426672    0.7523861374382886     H351
    0.9664247501729433    0.0126258397346033    0.9510423340789527     H352
    0.9664247501729433    0.0126258397346033    0.2843756674122860     H353
    0.9664247501729433    0.0126258397346033    0.6177090007456194     H354
    0.9664247501729433    0.3459591730679366    0.9510423340789527     H355
    0.9664247501729433    0.3459591730679366    0.2843756674122860     H356
    0.9664247501729433    0.3459591730679366    0.6177090007456194     H357
    0.9664247501729433    0.6792925064012698    0.9510423340789527     H358
    0.9664247501729433    0.6792925064012698    0.2843756674122860     H359
    0.9664247501729433    0.6792925064012698    0.6177090007456194     H360
    0.2997580835062766    0.0126258397346033    0.9510423340789527     H361
    0.2997580835062766    0.0126258397346033    0.2843756674122860     H362
    0.2997580835062766    0.0126258397346033    0.6177090007456194     H363
    0.2997580835062766    0.3459591730679366    0.9510423340789527     H364
    0.2997580835062766    0.3459591730679366    0.2843756674122860     H365
    0.2997580835062766    0.3459591730679366    0.6177090007456194     H366
    0.2997580835062766    0.6792925064012698    0.9510423340789527     H367
    0.2997580835062766    0.6792925064012698    0.2843756674122860     H368
    0.2997580835062766    0.6792925064012698    0.6177090007456194     H369
    0.6330914168396100    0.0126258397346033    0.9510423340789527     H370
    0.6330914168396100    0.0126258397346033    0.2843756674122860     H371
    0.6330914168396100    0.0126258397346033    0.6177090007456194     H372
    0.6330914168396100    0.3459591730679366    0.9510423340789527     H373
    0.6330914168396100    0.3459591730679366    0.2843756674122860     H374
    0.6330914168396100    0.3459591730679366    0.6177090007456194     H375
    0.6330914168396100    0.6792925064012698    0.9510423340789527     H376
    0.6330914168396100    0.6792925064012698    0.2843756674122860     H377
    0.6330914168396100    0.6792925064012698    0.6177090007456194     H378
    0.1188237112115054    0.0061087610322804    0.2238874416236132     H379
    0.1188237112115054    0.0061087610322804    0.5572207749569466     H380
    0.1188237112115054    0.0061087610322804    0.8905541082902798     H381
    0.1188237112115054    0.3394420943656138    0.2238874416236132     H382
    0.1188237112115054    0.3394420943656138    0.5572207749569466     H383
    0.1188237112115054    0.3394420943656138    0.8905541082902798     H384
    0.1188237112115054    0.6727754276989470    0.2238874416236132     H385
    0.1188237112115054    0.6727754276989470    0.5572207749569466     H386
    0.1188237112115054    0.6727754276989470    0.8905541082902798     H387
    0.4521570445448386    0.0061087610322804    0.2238874416236132     H388
    0.4521570445448386    0.0061087610322804    0.5572207749569466     H389
    0.4521570445448386    0.0061087610322804    0.8905541082902798     H390
    0.4521570445448386    0.3394420943656138    0.2238874416236132     H391
    0.4521570445448386    0.3394420943656138    0.5572207749569466     H392
    0.4521570445448386    0.3394420943656138    0.8905541082902798     H393
    0.4521570445448386    0.6727754276989470    0.2238874416236132     H394
    0.4521570445448386    0.6727754276989470    0.5572207749569466     H395
    0.4521570445448386    0.6727754276989470    0.8905541082902798     H396
    0.7854903778781720    0.0061087610322804    0.2238874416236132     H397
    0.7854903778781720    0.0061087610322804    0.5572207749569466     H398
    0.7854903778781720    0.0061087610322804    0.8905541082902798     H399
    0.7854903778781720    0.3394420943656138    0.2238874416236132     H400
    0.7854903778781720    0.3394420943656138    0.5572207749569466     H401
    0.7854903778781720    0.3394420943656138    0.8905541082902798     H402
    0.7854903778781720    0.6727754276989470    0.2238874416236132     H403
    0.7854903778781720    0.6727754276989470    0.5572207749569466     H404
    0.7854903778781720    0.6727754276989470    0.8905541082902798     H405
    0.9500718495828822    0.2853518443203453    0.1461684652651785     H406
    0.9500718495828822    0.2853518443203453    0.4795017985985117     H407
    0.9500718495828822    0.2853518443203453    0.8128351319318451     H408
    0.9500718495828822    0.6186851776536787    0.1461684652651785     H409
    0.9500718495828822    0.6186851776536787    0.4795017985985117     H410
    0.9500718495828822    0.6186851776536787    0.8128351319318451     H411
    0.9500718495828822    0.9520185109870120    0.1461684652651785     H412
    0.9500718495828822    0.9520185109870120    0.4795017985985117     H413
    0.9500718495828822    0.9520185109870120    0.8128351319318451     H414
    0.2834051829162154    0.2853518443203453    0.1461684652651785     H415
    0.2834051829162154    0.2853518443203453    0.4795017985985117     H416
    0.2834051829162154    0.2853518443203453    0.8128351319318451     H417
    0.2834051829162154    0.6186851776536787    0.1461684652651785     H418
    0.2834051829162154    0.6186851776536787    0.4795017985985117     H419
    0.2834051829162154    0.6186851776536787    0.8128351319318451     H420
    0.2834051829162154    0.9520185109870120    0.1461684652651785     H421
    0.2834051829162154    0.9520185109870120    0.4795017985985117     H422
    0.2834051829162154    0.9520185109870120    0.8128351319318451     H423
    0.6167385162495487    0.2853518443203453    0.1461684652651785     H424
    0.6167385162495487    0.2853518443203453    0.4795017985985117     H425
    0.6167385162495487    0.2853518443203453    0.8128351319318451     H426
    0.6167385162495487    0.6186851776536787    0.1461684652651785     H427
    0.6167385162495487    0.6186851776536787    0.4795017985985117     H428
    0.6167385162495487    0.6186851776536787    0.8128351319318451     H429
    0.6167385162495487    0.9520185109870120    0.1461684652651785     H430
    0.6167385162495487    0.9520185109870120    0.4795017985985117     H431
    0.6167385162495487    0.9520185109870120    0.8128351319318451     H432
    0.1772609987697775    0.1196517007159448    0.0869307453462833     H433
    0.1772609987697775    0.1196517007159448    0.4202640786796166     H434
    0.1772609987697775    0.1196517007159448    0.7535974120129499     H435
    0.1772609987697775    0.4529850340492780    0.0869307453462833     H436
    0.1772609987697775    0.4529850340492780    0.4202640786796166     H437
    0.1772609987697775    0.4529850340492780    0.7535974120129499     H438
    0.1772609987697775    0.7863183673826113    0.0869307453462833     H439
    0.1772609987697775    0.7863183673826113    0.4202640786796166     H440
    0.1772609987697775    0.7863183673826113    0.7535974120129499     H441
    0.5105943321031109    0.1196517007159448    0.0869307453462833     H442
    0.5105943321031109    0.1196517007159448    0.4202640786796166     H443
    0.5105943321031109    0.1196517007159448    0.7535974120129499     H444
    0.5105943321031109    0.4529850340492780    0.0869307453462833     H445
    0.5105943321031109    0.4529850340492780    0.4202640786796166     H446
    0.5105943321031109    0.4529850340492780    0.7535974120129499     H447
    0.5105943321031109    0.7863183673826113    0.0869307453462833     H448
    0.5105943321031109    0.7863183673826113    0.4202640786796166     H449
    0.5105943321031109    0.7863183673826113    0.7535974120129499     H450
    0.8439276654364443    0.1196517007159448    0.0869307453462833     H451
    0.8439276654364443    0.1196517007159448    0.4202640786796166     H452
    0.8439276654364443    0.1196517007159448    0.7535974120129499     H453
    0.8439276654364443    0.4529850340492780    0.0869307453462833     H454
    0.8439276654364443    0.4529850340492780    0.4202640786796166     H455
    0.8439276654364443    0.4529850340492780    0.7535974120129499     H456
    0.8439276654364443    0.7863183673826113    0.0869307453462833     H457
    0.8439276654364443    0.7863183673826113    0.4202640786796166     H458
    0.8439276654364443    0.7863183673826113    0.7535974120129499     H459
    0.9122546684504358    0.0297668460599260    0.9718877016072831     H460
    0.9122546684504358    0.0297668460599260    0.3052210349406164     H461
    0.9122546684504358    0.0297668460599260    0.6385543682739496     H462
    0.9122546684504358    0.3631001793932592    0.9718877016072831     H463
    0.9122546684504358    0.3631001793932592    0.3052210349406164     H464
    0.9122546684504358    0.3631001793932592    0.6385543682739496     H465
    0.9122546684504358    0.6964335127265926    0.9718877016072831     H466
    0.9122546684504358    0.6964335127265926    0.3052210349406164     H467
    0.9122546684504358    0.6964335127265926    0.6385543682739496     H468
    0.2455880017837692    0.0297668460599260    0.9718877016072831     H469
    0.2455880017837692    0.0297668460599260    0.3052210349406164     H470
    0.2455880017837692    0.0297668460599260    0.6385543682739496     H471
    0.2455880017837692    0.3631001793932592    0.9718877016072831     H472
    0.2455880017837692    0.3631001793932592    0.3052210349406164     H473
    0.2455880017837692    0.3631001793932592    0.6385543682739496     H474
    0.2455880017837692    0.6964335127265926    0.9718877016072831     H475
    0.2455880017837692    0.6964335127265926    0.3052210349406164     H476
    0.2455880017837692    0.6964335127265926    0.6385543682739496     H477
    0.5789213351171025    0.0297668460599260    0.9718877016072831     H478
    0.5789213351171025    0.0297668460599260    0.3052210349406164     H479
    0.5789213351171025    0.0297668460599260    0.6385543682739496     H480
    0.5789213351171025    0.3631001793932592    0.9718877016072831     H481
    0.5789213351171025    0.3631001793932592    0.3052210349406164     H482
    0.5789213351171025    0.3631001793932592    0.6385543682739496     H483
    0.5789213351171025    0.6964335127265926    0.9718877016072831     H484
    0.5789213351171025    0.6964335127265926    0.3052210349406164     H485
    0.5789213351171025    0.6964335127265926    0.6385543682739496     H486
    0.2153757667787750    0.2226251308362854    0.0300181188203562     H487
    0.2153757667787750    0.2226251308362854    0.3633514521536895     H488
    0.2153757667787750    0.2226251308362854    0.6966847854870228     H489
    0.2153757667787750    0.5559584641696187    0.0300181188203562     H490
    0.2153757667787750    0.5559584641696187    0.3633514521536895     H491
    0.2153757667787750    0.5559584641696187    0.6966847854870228     H492
    0.2153757667787750    0.8892917975029521    0.0300181188203562     H493
    0.2153757667787750    0.8892917975029521    0.3633514521536895     H494
    0.2153757667787750    0.8892917975029521    0.6966847854870228     H495
    0.5487091001121084    0.2226251308362854    0.0300181188203562     H496
    0.5487091001121084    0.2226251308362854    0.3633514521536895     H497
    0.5487091001121084    0.2226251308362854    0.6966847854870228     H498
    0.5487091001121084    0.5559584641696187    0.0300181188203562     H499
    0.5487091001121084    0.5559584641696187    0.3633514521536895     H500
    0.5487091001121084    0.5559584641696187    0.6966847854870228     H501
    0.5487091001121084    0.8892917975029521    0.0300181188203562     H502
    0.5487091001121084    0.8892917975029521    0.3633514521536895     H503
    0.5487091001121084    0.8892917975029521    0.6966847854870228     H504
    0.8820424334454418    0.2226251308362854    0.0300181188203562     H505
    0.8820424334454418    0.2226251308362854    0.3633514521536895     H506
    0.8820424334454418    0.2226251308362854    0.6966847854870228     H507
    0.8820424334454418    0.5559584641696187    0.0300181188203562     H508
    0.8820424334454418    0.5559584641696187    0.3633514521536895     H509
    0.8820424334454418    0.5559584641696187    0.6966847854870228     H510
    0.8820424334454418    0.8892917975029521    0.0300181188203562     H511
    0.8820424334454418    0.8892917975029521    0.3633514521536895     H512
    0.8820424334454418    0.8892917975029521    0.6966847854870228     H513
    0.9849865948748295    0.3244965210382261    0.2177422602311703     H514
    0.9849865948748295    0.3244965210382261    0.5510755935645036     H515
    0.9849865948748295    0.3244965210382261    0.8844089268978370     H516
    0.9849865948748295    0.6578298543715595    0.2177422602311703     H517
    0.9849865948748295    0.6578298543715595    0.5510755935645036     H518
    0.9849865948748295    0.6578298543715595    0.8844089268978370     H519
    0.9849865948748295    0.9911631877048928    0.2177422602311703     H520
    0.9849865948748295    0.9911631877048928    0.5510755935645036     H521
    0.9849865948748295    0.9911631877048928    0.8844089268978370     H522
    0.3183199282081628    0.3244965210382261    0.2177422602311703     H523
    0.3183199282081628    0.3244965210382261    0.5510755935645036     H524
    0.3183199282081628    0.3244965210382261    0.8844089268978370     H525
    0.3183199282081628    0.6578298543715595    0.2177422602311703     H526
    0.3183199282081628    0.6578298543715595    0.5510755935645036     H527
    0.3183199282081628    0.6578298543715595    0.8844089268978370     H528
    0.3183199282081628    0.9911631877048928    0.2177422602311703     H529
    0.3183199282081628    0.9911631877048928    0.5510755935645036     H530
    0.3183199282081628    0.9911631877048928    0.8844089268978370     H531
    0.6516532615414961    0.3244965210382261    0.2177422602311703     H532
    0.6516532615414961    0.3244965210382261    0.5510755935645036     H533
    0.6516532615414961    0.3244965210382261    0.8844089268978370     H534
    0.6516532615414961    0.6578298543715595    0.2177422602311703     H535
    0.6516532615414961    0.6578298543715595    0.5510755935645036     H536
    0.6516532615414961    0.6578298543715595    0.8844089268978370     H537
    0.6516532615414961    0.9911631877048928    0.2177422602311703     H538
    0.6516532615414961    0.9911631877048928    0.5510755935645036     H539
    0.6516532615414961    0.9911631877048928    0.8844089268978370     H540
    0.9977885125815691    0.0540861105186057    0.1611117933332755     H541
    0.9977885125815691    0.0540861105186057    0.4944451266666089     H542
    0.9977885125815691    0.0540861105186057    0.8277784599999423     H543
    0.9977885125815691    0.3874194438519390    0.1611117933332755     H544
    0.9977885125815691    0.3874194438519390    0.4944451266666089     H545
    0.9977885125815691    0.3874194438519390    0.8277784599999423     H546
    0.9977885125815691    0.7207527771852724    0.1611117933332755     H547
    0.9977885125815691    0.7207527771852724    0.4944451266666089     H548
    0.9977885125815691    0.7207527771852724    0.8277784599999423     H549
    0.3311218459149023    0.0540861105186057    0.1611117933332755     H550
    0.3311218459149023    0.0540861105186057    0.4944451266666089     H551
    0.3311218459149023    0.0540861105186057    0.8277784599999423     H552
    0.3311218459149023    0.3874194438519390    0.1611117933332755     H553
    0.3311218459149023    0.3874194438519390    0.4944451266666089     H554
    0.3311218459149023    0.3874194438519390    0.8277784599999423     H555
    0.3311218459149023    0.7207527771852724    0.1611117933332755     H556
    0.3311218459149023    0.7207527771852724    0.4944451266666089     H557
    0.3311218459149023    0.7207527771852724    0.8277784599999423     H558
    0.6644551792482356    0.0540861105186057    0.1611117933332755     H559
    0.6644551792482356    0.0540861105186057    0.4944451266666089     H560
    0.6644551792482356    0.0540861105186057    0.8277784599999423     H561
    0.6644551792482356    0.3874194438519390    0.1611117933332755     H562
    0.6644551792482356    0.3874194438519390    0.4944451266666089     H563
    0.6644551792482356    0.3874194438519390    0.8277784599999423     H564
    0.6644551792482356    0.7207527771852724    0.1611117933332755     H565
    0.6644551792482356    0.7207527771852724    0.4944451266666089     H566
    0.6644551792482356    0.7207527771852724    0.8277784599999423     H567
    0.1387061091404882    0.5320402815176655    0.8825850722085884     H568
    0.1387061091404882    0.5320402815176655    0.2159184055419217     H569
    0.1387061091404882    0.5320402815176655    0.5492517388752550     H570
    0.1387061091404882    0.8653736148509988    0.8825850722085884     H571
    0.1387061091404882    0.8653736148509988    0.2159184055419217     H572
    0.1387061091404882    0.8653736148509988    0.5492517388752550     H573
    0.1387061091404882    0.1987069481843321    0.8825850722085884     H574
    0.1387061091404882    0.1987069481843321    0.2159184055419217     H575
    0.1387061091404882    0.1987069481843321    0.5492517388752550     H576
    0.4720394424738216    0.5320402815176655    0.8825850722085884     H577
    0.4720394424738216    0.5320402815176655    0.2159184055419217     H578
    0.4720394424738216    0.5320402815176655    0.5492517388752550     H579
    0.4720394424738216    0.8653736148509988    0.8825850722085884     H580
    0.4720394424738216    0.8653736148509988    0.2159184055419217     H581
    0.4720394424738216    0.8653736148509988    0.5492517388752550     H582
    0.4720394424738216    0.1987069481843321    0.8825850722085884     H583
    0.4720394424738216    0.1987069481843321    0.2159184055419217     H584
    0.4720394424738216    0.1987069481843321    0.5492517388752550     H585
    0.8053727758071549    0.5320402815176655    0.8825850722085884     H586
    0.8053727758071549    0.5320402815176655    0.2159184055419217     H587
    0.8053727758071549    0.5320402815176655    0.5492517388752550     H588
    0.8053727758071549    0.8653736148509988    0.8825850722085884     H589
    0.8053727758071549    0.8653736148509988    0.2159184055419217     H590
    0.8053727758071549    0.8653736148509988    0.5492517388752550     H591
    0.8053727758071549    0.1987069481843321    0.8825850722085884     H592
    0.8053727758071549    0.1987069481843321    0.2159184055419217     H593
    0.8053727758071549    0.1987069481843321    0.5492517388752550     H594
    0.9430971601239588    0.0773165548573345    0.0799954313896739     H595
    0.9430971601239588    0.0773165548573345    0.4133287647230073     H596
    0.9430971601239588    0.0773165548573345    0.7466620980563405     H597
    0.9430971601239588    0.4106498881906678    0.0799954313896739     H598
    0.9430971601239588    0.4106498881906678    0.4133287647230073     H599
    0.9430971601239588    0.4106498881906678    0.7466620980563405     H600
    0.9430971601239588    0.7439832215240011    0.0799954313896739     H601
    0.9430971601239588    0.7439832215240011    0.4133287647230073     H602
    0.9430971601239588    0.7439832215240011    0.7466620980563405     H603
    0.2764304934572922    0.0773165548573345    0.0799954313896739     H604
    0.2764304934572922    0.0773165548573345    0.4133287647230073     H605
    0.2764304934572922    0.0773165548573345    0.7466620980563405     H606
    0.2764304934572922    0.4106498881906678    0.0799954313896739     H607
    0.2764304934572922    0.4106498881906678    0.4133287647230073     H608
    0.2764304934572922    0.4106498881906678    0.7466620980563405     H609
    0.2764304934572922    0.7439832215240011    0.0799954313896739     H610
    0.2764304934572922    0.7439832215240011    0.4133287647230073     H611
    0.2764304934572922    0.7439832215240011    0.7466620980563405     H612
    0.6097638267906256    0.0773165548573345    0.0799954313896739     H613
    0.6097638267906256    0.0773165548573345    0.4133287647230073     H614
    0.6097638267906256    0.0773165548573345    0.7466620980563405     H615
    0.6097638267906256    0.4106498881906678    0.0799954313896739     H616
    0.6097638267906256    0.4106498881906678    0.4133287647230073     H617
    0.6097638267906256    0.4106498881906678    0.7466620980563405     H618
    0.6097638267906256    0.7439832215240011    0.0799954313896739     H619
    0.6097638267906256    0.7439832215240011    0.4133287647230073     H620
    0.6097638267906256    0.7439832215240011    0.7466620980563405     H621
    0.1967918527377382    0.3283381061213347    0.0856976782142860     H622
    0.1967918527377382    0.3283381061213347    0.4190310115476193     H623
    0.1967918527377382    0.3283381061213347    0.7523643448809527     H624
    0.1967918527377382    0.6616714394546681    0.0856976782142860     H625
    0.1967918527377382    0.6616714394546681    0.4190310115476193     H626
    0.1967918527377382    0.6616714394546681    0.7523643448809527     H627
    0.1967918527377382    0.9950047727880015    0.0856976782142860     H628
    0.1967918527377382    0.9950047727880015    0.4190310115476193     H629
    0.1967918527377382    0.9950047727880015    0.7523643448809527     H630
    0.5301251860710716    0.3283381061213347    0.0856976782142860     H631
    0.5301251860710716    0.3283381061213347    0.4190310115476193     H632
    0.5301251860710716    0.3283381061213347    0.7523643448809527     H633
    0.5301251860710716    0.6616714394546681    0.0856976782142860     H634
    0.5301251860710716    0.6616714394546681    0.4190310115476193     H635
    0.5301251860710716    0.6616714394546681    0.7523643448809527     H636
    0.5301251860710716    0.9950047727880015    0.0856976782142860     H637
    0.5301251860710716    0.9950047727880015    0.4190310115476193     H638
    0.5301251860710716    0.9950047727880015    0.7523643448809527     H639
    0.8634585194044049    0.3283381061213347    0.0856976782142860     H640
    0.8634585194044049    0.3283381061213347    0.4190310115476193     H641
    0.8634585194044049    0.3283381061213347    0.7523643448809527     H642
    0.8634585194044049    0.6616714394546681    0.0856976782142860     H643
    0.8634585194044049    0.6616714394546681    0.4190310115476193     H644
    0.8634585194044049    0.6616714394546681    0.7523643448809527     H645
    0.8634585194044049    0.9950047727880015    0.0856976782142860     H646
    0.8634585194044049    0.9950047727880015    0.4190310115476193     H647
    0.8634585194044049    0.9950047727880015    0.7523643448809527     H648
    0.9553885729336642    0.1425588465246157    0.1761024044644441     H649
    0.9553885729336642    0.1425588465246157    0.5094357377977774     H650
    0.9553885729336642    0.1425588465246157    0.8427690711311108     H651
    0.9553885729336642    0.4758921798579490    0.1761024044644441     H652
    0.9553885729336642    0.4758921798579490    0.5094357377977774     H653
    0.9553885729336642    0.4758921798579490    0.8427690711311108     H654
    0.9553885729336642    0.8092255131912823    0.1761024044644441     H655
    0.9553885729336642    0.8092255131912823    0.5094357377977774     H656
    0.9553885729336642    0.8092255131912823    0.8427690711311108     H657
    0.2887219062669975    0.1425588465246157    0.1761024044644441     H658
    0.2887219062669975    0.1425588465246157    0.5094357377977774     H659
    0.2887219062669975    0.1425588465246157    0.8427690711311108     H660
    0.2887219062669975    0.4758921798579490    0.1761024044644441     H661
    0.2887219062669975    0.4758921798579490    0.5094357377977774     H662
    0.2887219062669975    0.4758921798579490    0.8427690711311108     H663
    0.2887219062669975    0.8092255131912823    0.1761024044644441     H664
    0.2887219062669975    0.8092255131912823    0.5094357377977774     H665
    0.2887219062669975    0.8092255131912823    0.8427690711311108     H666
    0.6220552396003307    0.1425588465246157    0.1761024044644441     H667
    0.6220552396003307    0.1425588465246157    0.5094357377977774     H668
    0.6220552396003307    0.1425588465246157    0.8427690711311108     H669
    0.6220552396003307    0.4758921798579490    0.1761024044644441     H670
    0.6220552396003307    0.4758921798579490    0.5094357377977774     H671
    0.6220552396003307    0.4758921798579490    0.8427690711311108     H672
    0.6220552396003307    0.8092255131912823    0.1761024044644441     H673
    0.6220552396003307    0.8092255131912823    0.5094357377977774     H674
    0.6220552396003307    0.8092255131912823    0.8427690711311108     H675
    0.1257316562026659    0.0896110197682571    0.1447510958462297     H676
    0.1257316562026659    0.0896110197682571    0.4780844291795631     H677
    0.1257316562026659    0.0896110197682571    0.8114177625128964     H678
    0.1257316562026659    0.4229443531015904    0.1447510958462297     H679
    0.1257316562026659    0.4229443531015904    0.4780844291795631     H680
    0.1257316562026659    0.4229443531015904    0.8114177625128964     H681
    0.1257316562026659    0.7562776864349238    0.1447510958462297     H682
    0.1257316562026659    0.7562776864349238    0.4780844291795631     H683
    0.1257316562026659    0.7562776864349238    0.8114177625128964     H684
    0.4590649895359993    0.0896110197682571    0.1447510958462297     H685
    0.4590649895359993    0.0896110197682571    0.4780844291795631     H686
    0.4590649895359993    0.0896110197682571    0.8114177625128964     H687
    0.4590649895359993    0.4229443531015904    0.1447510958462297     H688
    0.4590649895359993    0.4229443531015904    0.4780844291795631     H689
    0.4590649895359993    0.4229443531015904    0.8114177625128964     H690
    0.4590649895359993    0.7562776864349238    0.1447510958462297     H691
    0.4590649895359993    0.7562776864349238    0.4780844291795631     H692
    0.4590649895359993    0.7562776864349238    0.8114177625128964     H693
    0.7923983228693326    0.0896110197682571    0.1447510958462297     H694
    0.7923983228693326    0.0896110197682571    0.4780844291795631     H695
    0.7923983228693326    0.0896110197682571    0.8114177625128964     H696
    0.7923983228693326    0.4229443531015904    0.1447510958462297     H697
    0.7923983228693326    0.4229443531015904    0.4780844291795631     H698
    0.7923983228693326    0.4229443531015904    0.8114177625128964     H699
    0.7923983228693326    0.7562776864349238    0.1447510958462297     H700
    0.7923983228693326    0.7562776864349238    0.4780844291795631     H701
    0.7923983228693326    0.7562776864349238    0.8114177625128964     H702
    0.0804705669428474    0.1101810381262228    0.1385089057432327     H703
    0.0804705669428474    0.1101810381262228    0.4718422390765661     H704
    0.0804705669428474    0.1101810381262228    0.8051755724098995     H705
    0.0804705669428474    0.4435143714595562    0.1385089057432327     H706
    0.0804705669428474    0.4435143714595562    0.4718422390765661     H707
    0.0804705669428474    0.4435143714595562    0.8051755724098995     H708
    0.0804705669428474    0.7768477047928894    0.1385089057432327     H709
    0.0804705669428474    0.7768477047928894    0.4718422390765661     H710
    0.0804705669428474    0.7768477047928894    0.8051755724098995     H711
    0.4138039002761807    0.1101810381262228    0.1385089057432327     H712
    0.4138039002761807    0.1101810381262228    0.4718422390765661     H713
    0.4138039002761807    0.1101810381262228    0.8051755724098995     H714
    0.4138039002761807    0.4435143714595562    0.1385089057432327     H715
    0.4138039002761807    0.4435143714595562    0.4718422390765661     H716
    0.4138039002761807    0.4435143714595562    0.8051755724098995     H717
    0.4138039002761807    0.7768477047928894    0.1385089057432327     H718
    0.4138039002761807    0.7768477047928894    0.4718422390765661     H719
    0.4138039002761807    0.7768477047928894    0.8051755724098995     H720
    0.7471372336095141    0.1101810381262228    0.1385089057432327     H721
    0.7471372336095141    0.1101810381262228    0.4718422390765661     H722
    0.7471372336095141    0.1101810381262228    0.8051755724098995     H723
    0.7471372336095141    0.4435143714595562    0.1385089057432327     H724
    0.7471372336095141    0.4435143714595562    0.4718422390765661     H725
    0.7471372336095141    0.4435143714595562    0.8051755724098995     H726
    0.7471372336095141    0.7768477047928894    0.1385089057432327     H727
    0.7471372336095141    0.7768477047928894    0.4718422390765661     H728
    0.7471372336095141    0.7768477047928894    0.8051755724098995     H729
    0.4031674422224634    0.3571230164350176    0.1382323274625892     H730
    0.4031674422224634    0.3571230164350176    0.4715656607959224     H731
    0.4031674422224634    0.3571230164350176    0.8048989941292558     H732
    0.4031674422224634    0.6904563497683510    0.1382323274625892     H733
    0.4031674422224634    0.6904563497683510    0.4715656607959224     H734
    0.4031674422224634    0.6904563497683510    0.8048989941292558     H735
    0.4031674422224634    0.0237896831016843    0.1382323274625892     H736
    0.4031674422224634    0.0237896831016843    0.4715656607959224     H737
    0.4031674422224634    0.0237896831016843    0.8048989941292558     H738
    0.7365007755557967    0.3571230164350176    0.1382323274625892     H739
    0.7365007755557967    0.3571230164350176    0.4715656607959224     H740
    0.7365007755557967    0.3571230164350176    0.8048989941292558     H741
    0.7365007755557967    0.6904563497683510    0.1382323274625892     H742
    0.7365007755557967    0.6904563497683510    0.4715656607959224     H743
    0.7365007755557967    0.6904563497683510    0.8048989941292558     H744
    0.7365007755557967    0.0237896831016843    0.1382323274625892     H745
    0.7365007755557967    0.0237896831016843    0.4715656607959224     H746
    0.7365007755557967    0.0237896831016843    0.8048989941292558     H747
    0.0698341088891300    0.3571230164350176    0.1382323274625892     H748
    0.0698341088891300    0.3571230164350176    0.4715656607959224     H749
    0.0698341088891300    0.3571230164350176    0.8048989941292558     H750
    0.0698341088891300    0.6904563497683510    0.1382323274625892     H751
    0.0698341088891300    0.6904563497683510    0.4715656607959224     H752
    0.0698341088891300    0.6904563497683510    0.8048989941292558     H753
    0.0698341088891300    0.0237896831016843    0.1382323274625892     H754
    0.0698341088891300    0.0237896831016843    0.4715656607959224     H755
    0.0698341088891300    0.0237896831016843    0.8048989941292558     H756
    0.1968678673072628    0.2145147387325446    0.2295703093231815     H757
    0.1968678673072628    0.2145147387325446    0.5629036426565147     H758
    0.1968678673072628    0.2145147387325446    0.8962369759898480     H759
    0.1968678673072628    0.5478480720658778    0.2295703093231815     H760
    0.1968678673072628    0.5478480720658778    0.5629036426565147     H761
    0.1968678673072628    0.5478480720658778    0.8962369759898480     H762
    0.1968678673072628    0.8811814053992111    0.2295703093231815     H763
    0.1968678673072628    0.8811814053992111    0.5629036426565147     H764
    0.1968678673072628    0.8811814053992111    0.8962369759898480     H765
    0.5302012006405961    0.2145147387325446    0.2295703093231815     H766
    0.5302012006405961    0.2145147387325446    0.5629036426565147     H767
    0.5302012006405961    0.2145147387325446    0.8962369759898480     H768
    0.5302012006405961    0.5478480720658778    0.2295703093231815     H769
    0.5302012006405961    0.5478480720658778    0.5629036426565147     H770
    0.5302012006405961    0.5478480720658778    0.8962369759898480     H771
    0.5302012006405961    0.8811814053992111    0.2295703093231815     H772
    0.5302012006405961    0.8811814053992111    0.5629036426565147     H773
    0.5302012006405961    0.8811814053992111    0.8962369759898480     H774
    0.8635345339739294    0.2145147387325446    0.2295703093231815     H775
    0.8635345339739294    0.2145147387325446    0.5629036426565147     H776
    0.8635345339739294    0.2145147387325446    0.8962369759898480     H777
    0.8635345339739294    0.5478480720658778    0.2295703093231815     H778
    0.8635345339739294    0.5478480720658778    0.5629036426565147     H779
    0.8635345339739294    0.5478480720658778    0.8962369759898480     H780
    0.8635345339739294    0.8811814053992111    0.2295703093231815     H781
    0.8635345339739294    0.8811814053992111    0.5629036426565147     H782
    0.8635345339739294    0.8811814053992111    0.8962369759898480     H783
    0.0259104358269625    0.3352938642196468    0.1912462042271248     H784
    0.0259104358269625    0.3352938642196468    0.5245795375604581     H785
    0.0259104358269625    0.3352938642196468    0.8579128708937913     H786
    0.0259104358269625    0.6686271975529801    0.1912462042271248     H787
    0.0259104358269625    0.6686271975529801    0.5245795375604581     H788
    0.0259104358269625    0.6686271975529801    0.8579128708937913     H789
    0.0259104358269625    0.0019605308863134    0.1912462042271248     H790
    0.0259104358269625    0.0019605308863134    0.5245795375604581     H791
    0.0259104358269625    0.0019605308863134    0.8579128708937913     H792
    0.3592437691602959    0.3352938642196468    0.1912462042271248     H793
    0.3592437691602959    0.3352938642196468    0.5245795375604581     H794
    0.3592437691602959    0.3352938642196468    0.8579128708937913     H795
    0.3592437691602959    0.6686271975529801    0.1912462042271248     H796
    0.3592437691602959    0.6686271975529801    0.5245795375604581     H797
    0.3592437691602959    0.6686271975529801    0.8579128708937913     H798
    0.3592437691602959    0.0019605308863134    0.1912462042271248     H799
    0.3592437691602959    0.0019605308863134    0.5245795375604581     H800
    0.3592437691602959    0.0019605308863134    0.8579128708937913     H801
    0.6925771024936292    0.3352938642196468    0.1912462042271248     H802
    0.6925771024936292    0.3352938642196468    0.5245795375604581     H803
    0.6925771024936292    0.3352938642196468    0.8579128708937913     H804
    0.6925771024936292    0.6686271975529801    0.1912462042271248     H805
    0.6925771024936292    0.6686271975529801    0.5245795375604581     H806
    0.6925771024936292    0.6686271975529801    0.8579128708937913     H807
    0.6925771024936292    0.0019605308863134    0.1912462042271248     H808
    0.6925771024936292    0.0019605308863134    0.5245795375604581     H809
    0.6925771024936292    0.0019605308863134    0.8579128708937913     H810
    0.0254052672977223    0.1191232308564508    0.1491327064000320     H811
    0.0254052672977223    0.1191232308564508    0.4824660397333653     H812
    0.0254052672977223    0.1191232308564508    0.8157993730666986     H813
    0.0254052672977223    0.4524565641897841    0.1491327064000320     H814
    0.0254052672977223    0.4524565641897841    0.4824660397333653     H815
    0.0254052672977223    0.4524565641897841    0.8157993730666986     H816
    0.0254052672977223    0.7857898975231175    0.1491327064000320     H817
    0.0254052672977223    0.7857898975231175    0.4824660397333653     H818
    0.0254052672977223    0.7857898975231175    0.8157993730666986     H819
    0.3587386006310557    0.1191232308564508    0.1491327064000320     H820
    0.3587386006310557    0.1191232308564508    0.4824660397333653     H821
    0.3587386006310557    0.1191232308564508    0.8157993730666986     H822
    0.3587386006310557    0.4524565641897841    0.1491327064000320     H823
    0.3587386006310557    0.4524565641897841    0.4824660397333653     H824
    0.3587386006310557    0.4524565641897841    0.8157993730666986     H825
    0.3587386006310557    0.7857898975231175    0.1491327064000320     H826
    0.3587386006310557    0.7857898975231175    0.4824660397333653     H827
    0.3587386006310557    0.7857898975231175    0.8157993730666986     H828
    0.6920719339643889    0.1191232308564508    0.1491327064000320     H829
    0.6920719339643889    0.1191232308564508    0.4824660397333653     H830
    0.6920719339643889    0.1191232308564508    0.8157993730666986     H831
    0.6920719339643889    0.4524565641897841    0.1491327064000320     H832
    0.6920719339643889    0.4524565641897841    0.4824660397333653     H833
    0.6920719339643889    0.4524565641897841    0.8157993730666986     H834
    0.6920719339643889    0.7857898975231175    0.1491327064000320     H835
    0.6920719339643889    0.7857898975231175    0.4824660397333653     H836
    0.6920719339643889    0.7857898975231175    0.8157993730666986     H837
    0.9718270928421651    0.1100068906583735    0.1365781275316106     H838
    0.9718270928421651    0.1100068906583735    0.4699114608649440     H839
    0.9718270928421651    0.1100068906583735    0.8032447941982772     H840
    0.9718270928421651    0.4433402239917069    0.1365781275316106     H841
    0.9718270928421651    0.4433402239917069    0.4699114608649440     H842
    0.9718270928421651    0.4433402239917069    0.8032447941982772     H843
    0.9718270928421651    0.7766735573250403    0.1365781275316106     H844
    0.9718270928421651    0.7766735573250403    0.4699114608649440     H845
    0.9718270928421651    0.7766735573250403    0.8032447941982772     H846
    0.3051604261754983    0.1100068906583735    0.1365781275316106     H847
    0.3051604261754983    0.1100068906583735    0.4699114608649440     H848
    0.3051604261754983    0.1100068906583735    0.8032447941982772     H849
    0.3051604261754983    0.4433402239917069    0.1365781275316106     H850
    0.3051604261754983    0.4433402239917069    0.4699114608649440     H851
    0.3051604261754983    0.4433402239917069    0.8032447941982772     H852
    0.3051604261754983    0.7766735573250403    0.1365781275316106     H853
    0.3051604261754983    0.7766735573250403    0.4699114608649440     H854
    0.3051604261754983    0.7766735573250403    0.8032447941982772     H855
    0.6384937595088317    0.1100068906583735    0.1365781275316106     H856
    0.6384937595088317    0.1100068906583735    0.4699114608649440     H857
    0.6384937595088317    0.1100068906583735    0.8032447941982772     H858
    0.6384937595088317    0.4433402239917069    0.1365781275316106     H859
    0.6384937595088317    0.4433402239917069    0.4699114608649440     H860
    0.6384937595088317    0.4433402239917069    0.8032447941982772     H861
    0.6384937595088317    0.7766735573250403    0.1365781275316106     H862
    0.6384937595088317    0.7766735573250403    0.4699114608649440     H863
    0.6384937595088317    0.7766735573250403    0.8032447941982772     H864
    0.1629558572665266    0.2590471766082978    0.3314530549087443     H865
    0.1629558572665266    0.2590471766082978    0.6647863882420777     H866
    0.1629558572665266    0.2590471766082978    0.9981197215754111     H867
    0.1629558572665266    0.5923805099416311    0.3314530549087443     H868
    0.1629558572665266    0.5923805099416311    0.6647863882420777     H869
    0.1629558572665266    0.5923805099416311    0.9981197215754111     H870
    0.1629558572665266    0.9257138432749643    0.3314530549087443     H871
    0.1629558572665266    0.9257138432749643    0.6647863882420777     H872
    0.1629558572665266    0.9257138432749643    0.9981197215754111     H873
    0.4962891905998599    0.2590471766082978    0.3314530549087443     H874
    0.4962891905998599    0.2590471766082978    0.6647863882420777     H875
    0.4962891905998599    0.2590471766082978    0.9981197215754111     H876
    0.4962891905998599    0.5923805099416311    0.3314530549087443     H877
    0.4962891905998599    0.5923805099416311    0.6647863882420777     H878
    0.4962891905998599    0.5923805099416311    0.9981197215754111     H879
    0.4962891905998599    0.9257138432749643    0.3314530549087443     H880
    0.4962891905998599    0.9257138432749643    0.6647863882420777     H881
    0.4962891905998599    0.9257138432749643    0.9981197215754111     H882
    0.8296225239331932    0.2590471766082978    0.3314530549087443     H883
    0.8296225239331932    0.2590471766082978    0.6647863882420777     H884
    0.8296225239331932    0.2590471766082978    0.9981197215754111     H885
    0.8296225239331932    0.5923805099416311    0.3314530549087443     H886
    0.8296225239331932    0.5923805099416311    0.6647863882420777     H887
    0.8296225239331932    0.5923805099416311    0.9981197215754111     H888
    0.8296225239331932    0.9257138432749643    0.3314530549087443     H889
    0.8296225239331932    0.9257138432749643    0.6647863882420777     H890
    0.8296225239331932    0.9257138432749643    0.9981197215754111     H891
    0.9784574397814678    0.1848652095416512    0.3568965065034854     H892
    0.9784574397814678    0.1848652095416512    0.6902298398368187     H893
    0.9784574397814678    0.1848652095416512    0.0235631731701520     H894
    0.9784574397814678    0.5181985428749845    0.3568965065034854     H895
    0.9784574397814678    0.5181985428749845    0.6902298398368187     H896
    0.9784574397814678    0.5181985428749845    0.0235631731701520     H897
    0.9784574397814678    0.8515318762083178    0.3568965065034854     H898
    0.9784574397814678    0.8515318762083178    0.6902298398368187     H899
    0.9784574397814678    0.8515318762083178    0.0235631731701520     H900
    0.3117907731148012    0.1848652095416512    0.3568965065034854     H901
    0.3117907731148012    0.1848652095416512    0.6902298398368187     H902
    0.3117907731148012    0.1848652095416512    0.0235631731701520     H903
    0.3117907731148012    0.5181985428749845    0.3568965065034854     H904
    0.3117907731148012    0.5181985428749845    0.6902298398368187     H905
    0.3117907731148012    0.5181985428749845    0.0235631731701520     H906
    0.3117907731148012    0.8515318762083178    0.3568965065034854     H907
    0.3117907731148012    0.8515318762083178    0.6902298398368187     H908
    0.3117907731148012    0.8515318762083178    0.0235631731701520     H909
    0.6451241064481346    0.1848652095416512    0.3568965065034854     H910
    0.6451241064481346    0.1848652095416512    0.6902298398368187     H911
    0.6451241064481346    0.1848652095416512    0.0235631731701520     H912
    0.6451241064481346    0.5181985428749845    0.3568965065034854     H913
    0.6451241064481346    0.5181985428749845    0.6902298398368187     H914
    0.6451241064481346    0.5181985428749845    0.0235631731701520     H915
    0.6451241064481346    0.8515318762083178    0.3568965065034854     H916
    0.6451241064481346    0.8515318762083178    0.6902298398368187     H917
    0.6451241064481346    0.8515318762083178    0.0235631731701520     H918
    0.9059821502426539    0.0735206642161187    0.0118470761209162     H919
    0.9059821502426539    0.0735206642161187    0.3451804094542494     H920
    0.9059821502426539    0.0735206642161187    0.6785137427875828     H921
    0.9059821502426539    0.4068539975494520    0.0118470761209162     H922
    0.9059821502426539    0.4068539975494520    0.3451804094542494     H923
    0.9059821502426539    0.4068539975494520    0.6785137427875828     H924
    0.9059821502426539    0.7401873308827853    0.0118470761209162     H925
    0.9059821502426539    0.7401873308827853    0.3451804094542494     H926
    0.9059821502426539    0.7401873308827853    0.6785137427875828     H927
    0.2393154835759872    0.0735206642161187    0.0118470761209162     H928
    0.2393154835759872    0.0735206642161187    0.3451804094542494     H929
    0.2393154835759872    0.0735206642161187    0.6785137427875828     H930
    0.2393154835759872    0.4068539975494520    0.0118470761209162     H931
    0.2393154835759872    0.4068539975494520    0.3451804094542494     H932
    0.2393154835759872    0.4068539975494520    0.6785137427875828     H933
    0.2393154835759872    0.7401873308827853    0.0118470761209162     H934
    0.2393154835759872    0.7401873308827853    0.3451804094542494     H935
    0.2393154835759872    0.7401873308827853    0.6785137427875828     H936
    0.5726488169093206    0.0735206642161187    0.0118470761209162     H937
    0.5726488169093206    0.0735206642161187    0.3451804094542494     H938
    0.5726488169093206    0.0735206642161187    0.6785137427875828     H939
    0.5726488169093206    0.4068539975494520    0.0118470761209162     H940
    0.5726488169093206    0.4068539975494520    0.3451804094542494     H941
    0.5726488169093206    0.4068539975494520    0.6785137427875828     H942
    0.5726488169093206    0.7401873308827853    0.0118470761209162     H943
    0.5726488169093206    0.7401873308827853    0.3451804094542494     H944
    0.5726488169093206    0.7401873308827853    0.6785137427875828     H945
    0.0873333036307209    0.3077150609734280    0.1115247426145616     H946
    0.0873333036307209    0.3077150609734280    0.4448580759478949     H947
    0.0873333036307209    0.3077150609734280    0.7781914092812283     H948
    0.0873333036307209    0.6410483943067615    0.1115247426145616     H949
    0.0873333036307209    0.6410483943067615    0.4448580759478949     H950
    0.0873333036307209    0.6410483943067615    0.7781914092812283     H951
    0.0873333036307209    0.9743817276400948    0.1115247426145616     H952
    0.0873333036307209    0.9743817276400948    0.4448580759478949     H953
    0.0873333036307209    0.9743817276400948    0.7781914092812283     H954
    0.4206666369640542    0.3077150609734280    0.1115247426145616     H955
    0.4206666369640542    0.3077150609734280    0.4448580759478949     H956
    0.4206666369640542    0.3077150609734280    0.7781914092812283     H957
    0.4206666369640542    0.6410483943067615    0.1115247426145616     H958
    0.4206666369640542    0.6410483943067615    0.4448580759478949     H959
    0.4206666369640542    0.6410483943067615    0.7781914092812283     H960
    0.4206666369640542    0.9743817276400948    0.1115247426145616     H961
    0.4206666369640542    0.9743817276400948    0.4448580759478949     H962
    0.4206666369640542    0.9743817276400948    0.7781914092812283     H963
    0.7539999702973875    0.3077150609734280    0.1115247426145616     H964
    0.7539999702973875    0.3077150609734280    0.4448580759478949     H965
    0.7539999702973875    0.3077150609734280    0.7781914092812283     H966
    0.7539999702973875    0.6410483943067615    0.1115247426145616     H967
    0.7539999702973875    0.6410483943067615    0.4448580759478949     H968
    0.7539999702973875    0.6410483943067615    0.7781914092812283     H969
    0.7539999702973875    0.9743817276400948    0.1115247426145616     H970
    0.7539999702973875    0.9743817276400948    0.4448580759478949     H971
    0.7539999702973875    0.9743817276400948    0.7781914092812283     H972
    0.1125281213283975    0.1174590278845560    0.3359982627995066     H973
    0.1125281213283975    0.1174590278845560    0.6693315961328400     H974
    0.1125281213283975    0.1174590278845560    0.0026649294661733     H975
    0.1125281213283975    0.4507923612178892    0.3359982627995066     H976
    0.1125281213283975    0.4507923612178892    0.6693315961328400     H977
    0.1125281213283975    0.4507923612178892    0.0026649294661733     H978
    0.1125281213283975    0.7841256945512225    0.3359982627995066     H979
    0.1125281213283975    0.7841256945512225    0.6693315961328400     H980
    0.1125281213283975    0.7841256945512225    0.0026649294661733     H981
    0.4458614546617308    0.1174590278845560    0.3359982627995066     H982
    0.4458614546617308    0.1174590278845560    0.6693315961328400     H983
    0.4458614546617308    0.1174590278845560    0.0026649294661733     H984
    0.4458614546617308    0.4507923612178892    0.3359982627995066     H985
    0.4458614546617308    0.4507923612178892    0.6693315961328400     H986
    0.4458614546617308    0.4507923612178892    0.0026649294661733     H987
    0.4458614546617308    0.7841256945512225    0.3359982627995066     H988
    0.4458614546617308    0.7841256945512225    0.6693315961328400     H989
    0.4458614546617308    0.7841256945512225    0.0026649294661733     H990
    0.7791947879950641    0.1174590278845560    0.3359982627995066     H991
    0.7791947879950641    0.1174590278845560    0.6693315961328400     H992
    0.7791947879950641    0.1174590278845560    0.0026649294661733     H993
    0.7791947879950641    0.4507923612178892    0.3359982627995066     H994
    0.7791947879950641    0.4507923612178892    0.6693315961328400     H995
    0.7791947879950641    0.4507923612178892    0.0026649294661733     H996
    0.7791947879950641    0.7841256945512225    0.3359982627995066     H997
    0.7791947879950641    0.7841256945512225    0.6693315961328400     H998
    0.7791947879950641    0.7841256945512225    0.0026649294661733     H999
    0.1489751510123805    0.0880850865074509    0.0570612793076147    H1000
    0.1489751510123805    0.0880850865074509    0.3903946126409481    H1001
    0.1489751510123805    0.0880850865074509    0.7237279459742814    H1002
    0.1489751510123805    0.4214184198407844    0.0570612793076147    H1003
    0.1489751510123805    0.4214184198407844    0.3903946126409481    H1004
    0.1489751510123805    0.4214184198407844    0.7237279459742814    H1005
    0.1489751510123805    0.7547517531741177    0.0570612793076147    H1006
    0.1489751510123805    0.7547517531741177    0.3903946126409481    H1007
    0.1489751510123805    0.7547517531741177    0.7237279459742814    H1008
    0.4823084843457138    0.0880850865074509    0.0570612793076147    H1009
    0.4823084843457138    0.0880850865074509    0.3903946126409481    H1010
    0.4823084843457138    0.0880850865074509    0.7237279459742814    H1011
    0.4823084843457138    0.4214184198407844    0.0570612793076147    H1012
    0.4823084843457138    0.4214184198407844    0.3903946126409481    H1013
    0.4823084843457138    0.4214184198407844    0.7237279459742814    H1014
    0.4823084843457138    0.7547517531741177    0.0570612793076147    H1015
    0.4823084843457138    0.7547517531741177    0.3903946126409481    H1016
    0.4823084843457138    0.7547517531741177    0.7237279459742814    H1017
    0.8156418176790472    0.0880850865074509    0.0570612793076147    H1018
    0.8156418176790472    0.0880850865074509    0.3903946126409481    H1019
    0.8156418176790472    0.0880850865074509    0.7237279459742814    H1020
    0.8156418176790472    0.4214184198407844    0.0570612793076147    H1021
    0.8156418176790472    0.4214184198407844    0.3903946126409481    H1022
    0.8156418176790472    0.4214184198407844    0.7237279459742814    H1023
    0.8156418176790472    0.7547517531741177    0.0570612793076147    H1024
    0.8156418176790472    0.7547517531741177    0.3903946126409481    H1025
    0.8156418176790472    0.7547517531741177    0.7237279459742814    H1026
    0.1626553677917397    0.9314510042142969    0.1639198105299755    H1027
    0.1626553677917397    0.9314510042142969    0.4972531438633089    H1028
    0.1626553677917397    0.9314510042142969    0.8305864771966422    H1029
    0.1626553677917397    0.2647843375476302    0.1639198105299755    H1030
    0.1626553677917397    0.2647843375476302    0.4972531438633089    H1031
    0.1626553677917397    0.2647843375476302    0.8305864771966422    H1032
    0.1626553677917397    0.5981176708809635    0.1639198105299755    H1033
    0.1626553677917397    0.5981176708809635    0.4972531438633089    H1034
    0.1626553677917397    0.5981176708809635    0.8305864771966422    H1035
    0.4959887011250731    0.9314510042142969    0.1639198105299755    H1036
    0.4959887011250731    0.9314510042142969    0.4972531438633089    H1037
    0.4959887011250731    0.9314510042142969    0.8305864771966422    H1038
    0.4959887011250731    0.2647843375476302    0.1639198105299755    H1039
    0.4959887011250731    0.2647843375476302    0.4972531438633089    H1040
    0.4959887011250731    0.2647843375476302    0.8305864771966422    H1041
    0.4959887011250731    0.5981176708809635    0.1639198105299755    H1042
    0.4959887011250731    0.5981176708809635    0.4972531438633089    H1043
    0.4959887011250731    0.5981176708809635    0.8305864771966422    H1044
    0.8293220344584065    0.9314510042142969    0.1639198105299755    H1045
    0.8293220344584065    0.9314510042142969    0.4972531438633089    H1046
    0.8293220344584065    0.9314510042142969    0.8305864771966422    H1047
    0.8293220344584065    0.2647843375476302    0.1639198105299755    H1048
    0.8293220344584065    0.2647843375476302    0.4972531438633089    H1049
    0.8293220344584065    0.2647843375476302    0.8305864771966422    H1050
    0.8293220344584065    0.5981176708809635    0.1639198105299755    H1051
    0.8293220344584065    0.5981176708809635    0.4972531438633089    H1052
    0.8293220344584065    0.5981176708809635    0.8305864771966422    H1053
    0.1812717945302399    0.1945326412788798    0.3048527706554092    H1054
    0.1812717945302399    0.1945326412788798    0.6381861039887424    H1055
    0.1812717945302399    0.1945326412788798    0.9715194373220758    H1056
    0.1812717945302399    0.5278659746122132    0.3048527706554092    H1057
    0.1812717945302399    0.5278659746122132    0.6381861039887424    H1058
    0.1812717945302399    0.5278659746122132    0.9715194373220758    H1059
    0.1812717945302399    0.8611993079455464    0.3048527706554092    H1060
    0.1812717945302399    0.8611993079455464    0.6381861039887424    H1061
    0.1812717945302399    0.8611993079455464    0.9715194373220758    H1062
    0.5146051278635732    0.1945326412788798    0.3048527706554092    H1063
    0.5146051278635732    0.1945326412788798    0.6381861039887424    H1064
    0.5146051278635732    0.1945326412788798    0.9715194373220758    H1065
    0.5146051278635732    0.5278659746122132    0.3048527706554092    H1066
    0.5146051278635732    0.5278659746122132    0.6381861039887424    H1067
    0.5146051278635732    0.5278659746122132    0.9715194373220758    H1068
    0.5146051278635732    0.8611993079455464    0.3048527706554092    H1069
    0.5146051278635732    0.8611993079455464    0.6381861039887424    H1070
    0.5146051278635732    0.8611993079455464    0.9715194373220758    H1071
    0.8479384611969065    0.1945326412788798    0.3048527706554092    H1072
    0.8479384611969065    0.1945326412788798    0.6381861039887424    H1073
    0.8479384611969065    0.1945326412788798    0.9715194373220758    H1074
    0.8479384611969065    0.5278659746122132    0.3048527706554092    H1075
    0.8479384611969065    0.5278659746122132    0.6381861039887424    H1076
    0.8479384611969065    0.5278659746122132    0.9715194373220758    H1077
    0.8479384611969065    0.8611993079455464    0.3048527706554092    H1078
    0.8479384611969065    0.8611993079455464    0.6381861039887424    H1079
    0.8479384611969065    0.8611993079455464    0.9715194373220758    H1080
    0.2435180482621899    0.2241046921481888    0.1465870288711602    H1081
    0.2435180482621899    0.2241046921481888    0.4799203622044934    H1082
    0.2435180482621899    0.2241046921481888    0.8132536955378268    H1083
    0.2435180482621899    0.5574380254815221    0.1465870288711602    H1084
    0.2435180482621899    0.5574380254815221    0.4799203622044934    H1085
    0.2435180482621899    0.5574380254815221    0.8132536955378268    H1086
    0.2435180482621899    0.8907713588148554    0.1465870288711602    H1087
    0.2435180482621899    0.8907713588148554    0.4799203622044934    H1088
    0.2435180482621899    0.8907713588148554    0.8132536955378268    H1089
    0.5768513815955232    0.2241046921481888    0.1465870288711602    H1090
    0.5768513815955232    0.2241046921481888    0.4799203622044934    H1091
    0.5768513815955232    0.2241046921481888    0.8132536955378268    H1092
    0.5768513815955232    0.5574380254815221    0.1465870288711602    H1093
    0.5768513815955232    0.5574380254815221    0.4799203622044934    H1094
    0.5768513815955232    0.5574380254815221    0.8132536955378268    H1095
    0.5768513815955232    0.8907713588148554    0.1465870288711602    H1096
    0.5768513815955232    0.8907713588148554    0.4799203622044934    H1097
    0.5768513815955232    0.8907713588148554    0.8132536955378268    H1098
    0.9101847149288566    0.2241046921481888    0.1465870288711602    H1099
    0.9101847149288566    0.2241046921481888    0.4799203622044934    H1100
    0.9101847149288566    0.2241046921481888    0.8132536955378268    H1101
    0.9101847149288566    0.5574380254815221    0.1465870288711602    H1102
    0.9101847149288566    0.5574380254815221    0.4799203622044934    H1103
    0.9101847149288566    0.5574380254815221    0.8132536955378268    H1104
    0.9101847149288566    0.8907713588148554    0.1465870288711602    H1105
    0.9101847149288566    0.8907713588148554    0.4799203622044934    H1106
    0.9101847149288566    0.8907713588148554    0.8132536955378268    H1107
    0.0304589221046283    0.2547298536540932    0.4115313740630402    H1108
    0.0304589221046283    0.2547298536540932    0.7448647073963734    H1109
    0.0304589221046283    0.2547298536540932    0.0781980407297068    H1110
    0.0304589221046283    0.5880631869874264    0.4115313740630402    H1111
    0.0304589221046283    0.5880631869874264    0.7448647073963734    H1112
    0.0304589221046283    0.5880631869874264    0.0781980407297068    H1113
    0.0304589221046283    0.9213965203207597    0.4115313740630402    H1114
    0.0304589221046283    0.9213965203207597    0.7448647073963734    H1115
    0.0304589221046283    0.9213965203207597    0.0781980407297068    H1116
    0.3637922554379616    0.2547298536540932    0.4115313740630402    H1117
    0.3637922554379616    0.2547298536540932    0.7448647073963734    H1118
    0.3637922554379616    0.2547298536540932    0.0781980407297068    H1119
    0.3637922554379616    0.5880631869874264    0.4115313740630402    H1120
    0.3637922554379616    0.5880631869874264    0.7448647073963734    H1121
    0.3637922554379616    0.5880631869874264    0.0781980407297068    H1122
    0.3637922554379616    0.9213965203207597    0.4115313740630402    H1123
    0.3637922554379616    0.9213965203207597    0.7448647073963734    H1124
    0.3637922554379616    0.9213965203207597    0.0781980407297068    H1125
    0.6971255887712949    0.2547298536540932    0.4115313740630402    H1126
    0.6971255887712949    0.2547298536540932    0.7448647073963734    H1127
    0.6971255887712949    0.2547298536540932    0.0781980407297068    H1128
    0.6971255887712949    0.5880631869874264    0.4115313740630402    H1129
    0.6971255887712949    0.5880631869874264    0.7448647073963734    H1130
    0.6971255887712949    0.5880631869874264    0.0781980407297068    H1131
    0.6971255887712949    0.9213965203207597    0.4115313740630402    H1132
    0.6971255887712949    0.9213965203207597    0.7448647073963734    H1133
    0.6971255887712949    0.9213965203207597    0.0781980407297068    H1134
    0.9789620330504891    0.9767874887589856    0.1735953769336898    H1135
    0.9789620330504891    0.9767874887589856    0.5069287102670231    H1136
    0.9789620330504891    0.9767874887589856    0.8402620436003564    H1137
    0.9789620330504891    0.3101208220923188    0.1735953769336898    H1138
    0.9789620330504891    0.3101208220923188    0.5069287102670231    H1139
    0.9789620330504891    0.3101208220923188    0.8402620436003564    H1140
    0.9789620330504891    0.6434541554256521    0.1735953769336898    H1141
    0.9789620330504891    0.6434541554256521    0.5069287102670231    H1142
    0.9789620330504891    0.6434541554256521    0.8402620436003564    H1143
    0.3122953663838225    0.9767874887589856    0.1735953769336898    H1144
    0.3122953663838225    0.9767874887589856    0.5069287102670231    H1145
    0.3122953663838225    0.9767874887589856    0.8402620436003564    H1146
    0.3122953663838225    0.3101208220923188    0.1735953769336898    H1147
    0.3122953663838225    0.3101208220923188    0.5069287102670231    H1148
    0.3122953663838225    0.3101208220923188    0.8402620436003564    H1149
    0.3122953663838225    0.6434541554256521    0.1735953769336898    H1150
    0.3122953663838225    0.6434541554256521    0.5069287102670231    H1151
    0.3122953663838225    0.6434541554256521    0.8402620436003564    H1152
    0.6456286997171559    0.9767874887589856    0.1735953769336898    H1153
    0.6456286997171559    0.9767874887589856    0.5069287102670231    H1154
    0.6456286997171559    0.9767874887589856    0.8402620436003564    H1155
    0.6456286997171559    0.3101208220923188    0.1735953769336898    H1156
    0.6456286997171559    0.3101208220923188    0.5069287102670231    H1157
    0.6456286997171559    0.3101208220923188    0.8402620436003564    H1158
    0.6456286997171559    0.6434541554256521    0.1735953769336898    H1159
    0.6456286997171559    0.6434541554256521    0.5069287102670231    H1160
    0.6456286997171559    0.6434541554256521    0.8402620436003564    H1161
    0.2025982972882109    0.1965372303664096    0.1864855685358491    H1162
    0.2025982972882109    0.1965372303664096    0.5198189018691823    H1163
    0.2025982972882109    0.1965372303664096    0.8531522352025157    H1164
    0.2025982972882109    0.5298705636997429    0.1864855685358491    H1165
    0.2025982972882109    0.5298705636997429    0.5198189018691823    H1166
    0.2025982972882109    0.5298705636997429    0.8531522352025157    H1167
    0.2025982972882109    0.8632038970330762    0.1864855685358491    H1168
    0.2025982972882109    0.8632038970330762    0.5198189018691823    H1169
    0.2025982972882109    0.8632038970330762    0.8531522352025157    H1170
    0.5359316306215443    0.1965372303664096    0.1864855685358491    H1171
    0.5359316306215443    0.1965372303664096    0.5198189018691823    H1172
    0.5359316306215443    0.1965372303664096    0.8531522352025157    H1173
    0.5359316306215443    0.5298705636997429    0.1864855685358491    H1174
    0.5359316306215443    0.5298705636997429    0.5198189018691823    H1175
    0.5359316306215443    0.5298705636997429    0.8531522352025157    H1176
    0.5359316306215443    0.8632038970330762    0.1864855685358491    H1177
    0.5359316306215443    0.8632038970330762    0.5198189018691823    H1178
    0.5359316306215443    0.8632038970330762    0.8531522352025157    H1179
    0.8692649639548775    0.1965372303664096    0.1864855685358491    H1180
    0.8692649639548775    0.1965372303664096    0.5198189018691823    H1181
    0.8692649639548775    0.1965372303664096    0.8531522352025157    H1182
    0.8692649639548775    0.5298705636997429    0.1864855685358491    H1183
    0.8692649639548775    0.5298705636997429    0.5198189018691823    H1184
    0.8692649639548775    0.5298705636997429    0.8531522352025157    H1185
    0.8692649639548775    0.8632038970330762    0.1864855685358491    H1186
    0.8692649639548775    0.8632038970330762    0.5198189018691823    H1187
    0.8692649639548775    0.8632038970330762    0.8531522352025157    H1188
    0.1028354745041922    0.0416557523121885    0.0542543016100743    H1189
    0.1028354745041922    0.0416557523121885    0.3875876349434076    H1190
    0.1028354745041922    0.0416557523121885    0.7209209682767410    H1191
    0.1028354745041922    0.3749890856455218    0.0542543016100743    H1192
    0.1028354745041922    0.3749890856455218    0.3875876349434076    H1193
    0.1028354745041922    0.3749890856455218    0.7209209682767410    H1194
    0.1028354745041922    0.7083224189788552    0.0542543016100743    H1195
    0.1028354745041922    0.7083224189788552    0.3875876349434076    H1196
    0.1028354745041922    0.7083224189788552    0.7209209682767410    H1197
    0.4361688078375257    0.0416557523121885    0.0542543016100743    H1198
    0.4361688078375257    0.0416557523121885    0.3875876349434076    H1199
    0.4361688078375257    0.0416557523121885    0.7209209682767410    H1200
    0.4361688078375257    0.3749890856455218    0.0542543016100743    H1201
    0.4361688078375257    0.3749890856455218    0.3875876349434076    H1202
    0.4361688078375257    0.3749890856455218    0.7209209682767410    H1203
    0.4361688078375257    0.7083224189788552    0.0542543016100743    H1204
    0.4361688078375257    0.7083224189788552    0.3875876349434076    H1205
    0.4361688078375257    0.7083224189788552    0.7209209682767410    H1206
    0.7695021411708589    0.0416557523121885    0.0542543016100743    H1207
    0.7695021411708589    0.0416557523121885    0.3875876349434076    H1208
    0.7695021411708589    0.0416557523121885    0.7209209682767410    H1209
    0.7695021411708589    0.3749890856455218    0.0542543016100743    H1210
    0.7695021411708589    0.3749890856455218    0.3875876349434076    H1211
    0.7695021411708589    0.3749890856455218    0.7209209682767410    H1212
    0.7695021411708589    0.7083224189788552    0.0542543016100743    H1213
    0.7695021411708589    0.7083224189788552    0.3875876349434076    H1214
    0.7695021411708589    0.7083224189788552    0.7209209682767410    H1215
    0.0990931196646538    0.2939411584895160    0.3642516732823774    H1216
    0.0990931196646538    0.2939411584895160    0.6975850066157108    H1217
    0.0990931196646538    0.2939411584895160    0.0309183399490440    H1218
    0.0990931196646538    0.6272744918228494    0.3642516732823774    H1219
    0.0990931196646538    0.6272744918228494    0.6975850066157108    H1220
    0.0990931196646538    0.6272744918228494    0.0309183399490440    H1221
    0.0990931196646538    0.9606078251561827    0.3642516732823774    H1222
    0.0990931196646538    0.9606078251561827    0.6975850066157108    H1223
    0.0990931196646538    0.9606078251561827    0.0309183399490440    H1224
    0.4324264529979871    0.2939411584895160    0.3642516732823774    H1225
    0.4324264529979871    0.2939411584895160    0.6975850066157108    H1226
    0.4324264529979871    0.2939411584895160    0.0309183399490440    H1227
    0.4324264529979871    0.6272744918228494    0.3642516732823774    H1228
    0.4324264529979871    0.6272744918228494    0.6975850066157108    H1229
    0.4324264529979871    0.6272744918228494    0.0309183399490440    H1230
    0.4324264529979871    0.9606078251561827    0.3642516732823774    H1231
    0.4324264529979871    0.9606078251561827    0.6975850066157108    H1232
    0.4324264529979871    0.9606078251561827    0.0309183399490440    H1233
    0.7657597863313204    0.2939411584895160    0.3642516732823774    H1234
    0.7657597863313204    0.2939411584895160    0.6975850066157108    H1235
    0.7657597863313204    0.2939411584895160    0.0309183399490440    H1236
    0.7657597863313204    0.6272744918228494    0.3642516732823774    H1237
    0.7657597863313204    0.6272744918228494    0.6975850066157108    H1238
    0.7657597863313204    0.6272744918228494    0.0309183399490440    H1239
    0.7657597863313204    0.9606078251561827    0.3642516732823774    H1240
    0.7657597863313204    0.9606078251561827    0.6975850066157108    H1241
    0.7657597863313204    0.9606078251561827    0.0309183399490440    H1242
    0.1094705450828365    0.1479828653453253    0.3807476087559749    H1243
    0.1094705450828365    0.1479828653453253    0.7140809420893083    H1244
    0.1094705450828365    0.1479828653453253    0.0474142754226416    H1245
    0.1094705450828365    0.4813161986786587    0.3807476087559749    H1246
    0.1094705450828365    0.4813161986786587    0.7140809420893083    H1247
    0.1094705450828365    0.4813161986786587    0.0474142754226416    H1248
    0.1094705450828365    0.8146495320119920    0.3807476087559749    H1249
    0.1094705450828365    0.8146495320119920    0.7140809420893083    H1250
    0.1094705450828365    0.8146495320119920    0.0474142754226416    H1251
    0.4428038784161697    0.1479828653453253    0.3807476087559749    H1252
    0.4428038784161697    0.1479828653453253    0.7140809420893083    H1253
    0.4428038784161697    0.1479828653453253    0.0474142754226416    H1254
    0.4428038784161697    0.4813161986786587    0.3807476087559749    H1255
    0.4428038784161697    0.4813161986786587    0.7140809420893083    H1256
    0.4428038784161697    0.4813161986786587    0.0474142754226416    H1257
    0.4428038784161697    0.8146495320119920    0.3807476087559749    H1258
    0.4428038784161697    0.8146495320119920    0.7140809420893083    H1259
    0.4428038784161697    0.8146495320119920    0.0474142754226416    H1260
    0.7761372117495031    0.1479828653453253    0.3807476087559749    H1261
    0.7761372117495031    0.1479828653453253    0.7140809420893083    H1262
    0.7761372117495031    0.1479828653453253    0.0474142754226416    H1263
    0.7761372117495031    0.4813161986786587    0.3807476087559749    H1264
    0.7761372117495031    0.4813161986786587    0.7140809420893083    H1265
    0.7761372117495031    0.4813161986786587    0.0474142754226416    H1266
    0.7761372117495031    0.8146495320119920    0.3807476087559749    H1267
    0.7761372117495031    0.8146495320119920    0.7140809420893083    H1268
    0.7761372117495031    0.8146495320119920    0.0474142754226416    H1269
    0.0283356940420457    0.1489662618003459    0.3501013901631135    H1270
    0.0283356940420457    0.1489662618003459    0.6834347234964468    H1271
    0.0283356940420457    0.1489662618003459    0.0167680568297801    H1272
    0.0283356940420457    0.4822995951336793    0.3501013901631135    H1273
    0.0283356940420457    0.4822995951336793    0.6834347234964468    H1274
    0.0283356940420457    0.4822995951336793    0.0167680568297801    H1275
    0.0283356940420457    0.8156329284670126    0.3501013901631135    H1276
    0.0283356940420457    0.8156329284670126    0.6834347234964468    H1277
    0.0283356940420457    0.8156329284670126    0.0167680568297801    H1278
    0.3616690273753791    0.1489662618003459    0.3501013901631135    H1279
    0.3616690273753791    0.1489662618003459    0.6834347234964468    H1280
    0.3616690273753791    0.1489662618003459    0.0167680568297801    H1281
    0.3616690273753791    0.4822995951336793    0.3501013901631135    H1282
    0.3616690273753791    0.4822995951336793    0.6834347234964468    H1283
    0.3616690273753791    0.4822995951336793    0.0167680568297801    H1284
    0.3616690273753791    0.8156329284670126    0.3501013901631135    H1285
    0.3616690273753791    0.8156329284670126    0.6834347234964468    H1286
    0.3616690273753791    0.8156329284670126    0.0167680568297801    H1287
    0.6950023607087124    0.1489662618003459    0.3501013901631135    H1288
    0.6950023607087124    0.1489662618003459    0.6834347234964468    H1289
    0.6950023607087124    0.1489662618003459    0.0167680568297801    H1290
    0.6950023607087124    0.4822995951336793    0.3501013901631135    H1291
    0.6950023607087124    0.4822995951336793    0.6834347234964468    H1292
    0.6950023607087124    0.4822995951336793    0.0167680568297801    H1293
    0.6950023607087124    0.8156329284670126    0.3501013901631135    H1294
    0.6950023607087124    0.8156329284670126    0.6834347234964468    H1295
    0.6950023607087124    0.8156329284670126    0.0167680568297801    H1296
    0.1352971978347564    0.1669332622570353    0.2876867010738757    H1297
    0.1352971978347564    0.1669332622570353    0.6210200344072091    H1298
    0.1352971978347564    0.1669332622570353    0.9543533677405424    H1299
    0.1352971978347564    0.5002665955903687    0.2876867010738757    H1300
    0.1352971978347564    0.5002665955903687    0.6210200344072091    H1301
    0.1352971978347564    0.5002665955903687    0.9543533677405424    H1302
    0.1352971978347564    0.8335999289237020    0.2876867010738757    H1303
    0.1352971978347564    0.8335999289237020    0.6210200344072091    H1304
    0.1352971978347564    0.8335999289237020    0.9543533677405424    H1305
    0.4686305311680896    0.1669332622570353    0.2876867010738757    H1306
    0.4686305311680896    0.1669332622570353    0.6210200344072091    H1307
    0.4686305311680896    0.1669332622570353    0.9543533677405424    H1308
    0.4686305311680896    0.5002665955903687    0.2876867010738757    H1309
    0.4686305311680896    0.5002665955903687    0.6210200344072091    H1310
    0.4686305311680896    0.5002665955903687    0.9543533677405424    H1311
    0.4686305311680896    0.8335999289237020    0.2876867010738757    H1312
    0.4686305311680896    0.8335999289237020    0.6210200344072091    H1313
    0.4686305311680896    0.8335999289237020    0.9543533677405424    H1314
    0.8019638645014230    0.1669332622570353    0.2876867010738757    H1315
    0.8019638645014230    0.1669332622570353    0.6210200344072091    H1316
    0.8019638645014230    0.1669332622570353    0.9543533677405424    H1317
    0.8019638645014230    0.5002665955903687    0.2876867010738757    H1318
    0.8019638645014230    0.5002665955903687    0.6210200344072091    H1319
    0.8019638645014230    0.5002665955903687    0.9543533677405424    H1320
    0.8019638645014230    0.8335999289237020    0.2876867010738757    H1321
    0.8019638645014230    0.8335999289237020    0.6210200344072091    H1322
    0.8019638645014230    0.8335999289237020    0.9543533677405424    H1323
    0.1281970328532356    0.9388286361158296    0.2173950389633230    H1324
    0.1281970328532356    0.9388286361158296    0.5507283722966564    H1325
    0.1281970328532356    0.9388286361158296    0.8840617056299896    H1326
    0.1281970328532356    0.2721619694491628    0.2173950389633230    H1327
    0.1281970328532356    0.2721619694491628    0.5507283722966564    H1328
    0.1281970328532356    0.2721619694491628    0.8840617056299896    H1329
    0.1281970328532356    0.6054953027824962    0.2173950389633230    H1330
    0.1281970328532356    0.6054953027824962    0.5507283722966564    H1331
    0.1281970328532356    0.6054953027824962    0.8840617056299896    H1332
    0.4615303661865688    0.9388286361158296    0.2173950389633230    H1333
    0.4615303661865688    0.9388286361158296    0.5507283722966564    H1334
    0.4615303661865688    0.9388286361158296    0.8840617056299896    H1335
    0.4615303661865688    0.2721619694491628    0.2173950389633230    H1336
    0.4615303661865688    0.2721619694491628    0.5507283722966564    H1337
    0.4615303661865688    0.2721619694491628    0.8840617056299896    H1338
    0.4615303661865688    0.6054953027824962    0.2173950389633230    H1339
    0.4615303661865688    0.6054953027824962    0.5507283722966564    H1340
    0.4615303661865688    0.6054953027824962    0.8840617056299896    H1341
    0.7948636995199021    0.9388286361158296    0.2173950389633230    H1342
    0.7948636995199021    0.9388286361158296    0.5507283722966564    H1343
    0.7948636995199021    0.9388286361158296    0.8840617056299896    H1344
    0.7948636995199021    0.2721619694491628    0.2173950389633230    H1345
    0.7948636995199021    0.2721619694491628    0.5507283722966564    H1346
    0.7948636995199021    0.2721619694491628    0.8840617056299896    H1347
    0.7948636995199021    0.6054953027824962    0.2173950389633230    H1348
    0.7948636995199021    0.6054953027824962    0.5507283722966564    H1349
    0.7948636995199021    0.6054953027824962    0.8840617056299896    H1350
    0.9386067866105590    0.1720573060053914    0.2176129158394629    H1351
    0.9386067866105590    0.1720573060053914    0.5509462491727961    H1352
    0.9386067866105590    0.1720573060053914    0.8842795825061295    H1353
    0.9386067866105590    0.5053906393387247    0.2176129158394629    H1354
    0.9386067866105590    0.5053906393387247    0.5509462491727961    H1355
    0.9386067866105590    0.5053906393387247    0.8842795825061295    H1356
    0.9386067866105590    0.8387239726720581    0.2176129158394629    H1357
    0.9386067866105590    0.8387239726720581    0.5509462491727961    H1358
    0.9386067866105590    0.8387239726720581    0.8842795825061295    H1359
    0.2719401199438922    0.1720573060053914    0.2176129158394629    H1360
    0.2719401199438922    0.1720573060053914    0.5509462491727961    H1361
    0.2719401199438922    0.1720573060053914    0.8842795825061295    H1362
    0.2719401199438922    0.5053906393387247    0.2176129158394629    H1363
    0.2719401199438922    0.5053906393387247    0.5509462491727961    H1364
    0.2719401199438922    0.5053906393387247    0.8842795825061295    H1365
    0.2719401199438922    0.8387239726720581    0.2176129158394629    H1366
    0.2719401199438922    0.8387239726720581    0.5509462491727961    H1367
    0.2719401199438922    0.8387239726720581    0.8842795825061295    H1368
    0.6052734532772255    0.1720573060053914    0.2176129158394629    H1369
    0.6052734532772255    0.1720573060053914    0.5509462491727961    H1370
    0.6052734532772255    0.1720573060053914    0.8842795825061295    H1371
    0.6052734532772255    0.5053906393387247    0.2176129158394629    H1372
    0.6052734532772255    0.5053906393387247    0.5509462491727961    H1373
    0.6052734532772255    0.5053906393387247    0.8842795825061295    H1374
    0.6052734532772255    0.8387239726720581    0.2176129158394629    H1375
    0.6052734532772255    0.8387239726720581    0.5509462491727961    H1376
    0.6052734532772255    0.8387239726720581    0.8842795825061295    H1377
    0.0200764888902437    0.2138777239536610    0.1768420677101652    H1378
    0.0200764888902437    0.2138777239536610    0.5101754010434985    H1379
    0.0200764888902437    0.2138777239536610    0.8435087343768318    H1380
    0.0200764888902437    0.5472110572869944    0.1768420677101652    H1381
    0.0200764888902437    0.5472110572869944    0.5101754010434985    H1382
    0.0200764888902437    0.5472110572869944    0.8435087343768318    H1383
    0.0200764888902437    0.8805443906203276    0.1768420677101652    H1384
    0.0200764888902437    0.8805443906203276    0.5101754010434985    H1385
    0.0200764888902437    0.8805443906203276    0.8435087343768318    H1386
    0.3534098222235771    0.2138777239536610    0.1768420677101652    H1387
    0.3534098222235771    0.2138777239536610    0.5101754010434985    H1388
    0.3534098222235771    0.2138777239536610    0.8435087343768318    H1389
    0.3534098222235771    0.5472110572869944    0.1768420677101652    H1390
    0.3534098222235771    0.5472110572869944    0.5101754010434985    H1391
    0.3534098222235771    0.5472110572869944    0.8435087343768318    H1392
    0.3534098222235771    0.8805443906203276    0.1768420677101652    H1393
    0.3534098222235771    0.8805443906203276    0.5101754010434985    H1394
    0.3534098222235771    0.8805443906203276    0.8435087343768318    H1395
    0.6867431555569105    0.2138777239536610    0.1768420677101652    H1396
    0.6867431555569105    0.2138777239536610    0.5101754010434985    H1397
    0.6867431555569105    0.2138777239536610    0.8435087343768318    H1398
    0.6867431555569105    0.5472110572869944    0.1768420677101652    H1399
    0.6867431555569105    0.5472110572869944    0.5101754010434985    H1400
    0.6867431555569105    0.5472110572869944    0.8435087343768318    H1401
    0.6867431555569105    0.8805443906203276    0.1768420677101652    H1402
    0.6867431555569105    0.8805443906203276    0.5101754010434985    H1403
    0.6867431555569105    0.8805443906203276    0.8435087343768318    H1404
    0.0710293090882782    0.1793913404884933    0.3002282761500097    H1405
    0.0710293090882782    0.1793913404884933    0.6335616094833431    H1406
    0.0710293090882782    0.1793913404884933    0.9668949428166763    H1407
    0.0710293090882782    0.5127246738218266    0.3002282761500097    H1408
    0.0710293090882782    0.5127246738218266    0.6335616094833431    H1409
    0.0710293090882782    0.5127246738218266    0.9668949428166763    H1410
    0.0710293090882782    0.8460580071551600    0.3002282761500097    H1411
    0.0710293090882782    0.8460580071551600    0.6335616094833431    H1412
    0.0710293090882782    0.8460580071551600    0.9668949428166763    H1413
    0.4043626424216116    0.1793913404884933    0.3002282761500097    H1414
    0.4043626424216116    0.1793913404884933    0.6335616094833431    H1415
    0.4043626424216116    0.1793913404884933    0.9668949428166763    H1416
    0.4043626424216116    0.5127246738218266    0.3002282761500097    H1417
    0.4043626424216116    0.5127246738218266    0.6335616094833431    H1418
    0.4043626424216116    0.5127246738218266    0.9668949428166763    H1419
    0.4043626424216116    0.8460580071551600    0.3002282761500097    H1420
    0.4043626424216116    0.8460580071551600    0.6335616094833431    H1421
    0.4043626424216116    0.8460580071551600    0.9668949428166763    H1422
    0.7376959757549449    0.1793913404884933    0.3002282761500097    H1423
    0.7376959757549449    0.1793913404884933    0.6335616094833431    H1424
    0.7376959757549449    0.1793913404884933    0.9668949428166763    H1425
    0.7376959757549449    0.5127246738218266    0.3002282761500097    H1426
    0.7376959757549449    0.5127246738218266    0.6335616094833431    H1427
    0.7376959757549449    0.5127246738218266    0.9668949428166763    H1428
    0.7376959757549449    0.8460580071551600    0.3002282761500097    H1429
    0.7376959757549449    0.8460580071551600    0.6335616094833431    H1430
    0.7376959757549449    0.8460580071551600    0.9668949428166763    H1431
    0.1087186841151014    0.2198701031683539    0.0942812981871144    H1432
    0.1087186841151014    0.2198701031683539    0.4276146315204477    H1433
    0.1087186841151014    0.2198701031683539    0.7609479648537810    H1434
    0.1087186841151014    0.5532034365016871    0.0942812981871144    H1435
    0.1087186841151014    0.5532034365016871    0.4276146315204477    H1436
    0.1087186841151014    0.5532034365016871    0.7609479648537810    H1437
    0.1087186841151014    0.8865367698350204    0.0942812981871144    H1438
    0.1087186841151014    0.8865367698350204    0.4276146315204477    H1439
    0.1087186841151014    0.8865367698350204    0.7609479648537810    H1440
    0.4420520174484348    0.2198701031683539    0.0942812981871144    H1441
    0.4420520174484348    0.2198701031683539    0.4276146315204477    H1442
    0.4420520174484348    0.2198701031683539    0.7609479648537810    H1443
    0.4420520174484348    0.5532034365016871    0.0942812981871144    H1444
    0.4420520174484348    0.5532034365016871    0.4276146315204477    H1445
    0.4420520174484348    0.5532034365016871    0.7609479648537810    H1446
    0.4420520174484348    0.8865367698350204    0.0942812981871144    H1447
    0.4420520174484348    0.8865367698350204    0.4276146315204477    H1448
    0.4420520174484348    0.8865367698350204    0.7609479648537810    H1449
    0.7753853507817681    0.2198701031683539    0.0942812981871144    H1450
    0.7753853507817681    0.2198701031683539    0.4276146315204477    H1451
    0.7753853507817681    0.2198701031683539    0.7609479648537810    H1452
    0.7753853507817681    0.5532034365016871    0.0942812981871144    H1453
    0.7753853507817681    0.5532034365016871    0.4276146315204477    H1454
    0.7753853507817681    0.5532034365016871    0.7609479648537810    H1455
    0.7753853507817681    0.8865367698350204    0.0942812981871144    H1456
    0.7753853507817681    0.8865367698350204    0.4276146315204477    H1457
    0.7753853507817681    0.8865367698350204    0.7609479648537810    H1458
    0.9676267425443146    0.2278423528902047    0.3205282117774138    H1459
    0.9676267425443146    0.2278423528902047    0.6538615451107472    H1460
    0.9676267425443146    0.2278423528902047    0.9871948784440805    H1461
    0.9676267425443146    0.5611756862235380    0.3205282117774138    H1462
    0.9676267425443146    0.5611756862235380    0.6538615451107472    H1463
    0.9676267425443146    0.5611756862235380    0.9871948784440805    H1464
    0.9676267425443146    0.8945090195568712    0.3205282117774138    H1465
    0.9676267425443146    0.8945090195568712    0.6538615451107472    H1466
    0.9676267425443146    0.8945090195568712    0.9871948784440805    H1467
    0.3009600758776479    0.2278423528902047    0.3205282117774138    H1468
    0.3009600758776479    0.2278423528902047    0.6538615451107472    H1469
    0.3009600758776479    0.2278423528902047    0.9871948784440805    H1470
    0.3009600758776479    0.5611756862235380    0.3205282117774138    H1471
    0.3009600758776479    0.5611756862235380    0.6538615451107472    H1472
    0.3009600758776479    0.5611756862235380    0.9871948784440805    H1473
    0.3009600758776479    0.8945090195568712    0.3205282117774138    H1474
    0.3009600758776479    0.8945090195568712    0.6538615451107472    H1475
    0.3009600758776479    0.8945090195568712    0.9871948784440805    H1476
    0.6342934092109813    0.2278423528902047    0.3205282117774138    H1477
    0.6342934092109813    0.2278423528902047    0.6538615451107472    H1478
    0.6342934092109813    0.2278423528902047    0.9871948784440805    H1479
    0.6342934092109813    0.5611756862235380    0.3205282117774138    H1480
    0.6342934092109813    0.5611756862235380    0.6538615451107472    H1481
    0.6342934092109813    0.5611756862235380    0.9871948784440805    H1482
    0.6342934092109813    0.8945090195568712    0.3205282117774138    H1483
    0.6342934092109813    0.8945090195568712    0.6538615451107472    H1484
    0.6342934092109813    0.8945090195568712    0.9871948784440805    H1485
    0.1729473602415710    0.1773470299268065    0.1096330135365371    H1486
    0.1729473602415710    0.1773470299268065    0.4429663468698705    H1487
    0.1729473602415710    0.1773470299268065    0.7762996802032038    H1488
    0.1729473602415710    0.5106803632601399    0.1096330135365371    H1489
    0.1729473602415710    0.5106803632601399    0.4429663468698705    H1490
    0.1729473602415710    0.5106803632601399    0.7762996802032038    H1491
    0.1729473602415710    0.8440136965934733    0.1096330135365371    H1492
    0.1729473602415710    0.8440136965934733    0.4429663468698705    H1493
    0.1729473602415710    0.8440136965934733    0.7762996802032038    H1494
    0.5062806935749044    0.1773470299268065    0.1096330135365371    H1495
    0.5062806935749044    0.1773470299268065    0.4429663468698705    H1496
    0.5062806935749044    0.1773470299268065    0.7762996802032038    H1497
    0.5062806935749044    0.5106803632601399    0.1096330135365371    H1498
    0.5062806935749044    0.5106803632601399    0.4429663468698705    H1499
    0.5062806935749044    0.5106803632601399    0.7762996802032038    H1500
    0.5062806935749044    0.8440136965934733    0.1096330135365371    H1501
    0.5062806935749044    0.8440136965934733    0.4429663468698705    H1502
    0.5062806935749044    0.8440136965934733    0.7762996802032038    H1503
    0.8396140269082377    0.1773470299268065    0.1096330135365371    H1504
    0.8396140269082377    0.1773470299268065    0.4429663468698705    H1505
    0.8396140269082377    0.1773470299268065    0.7762996802032038    H1506
    0.8396140269082377    0.5106803632601399    0.1096330135365371    H1507
    0.8396140269082377    0.5106803632601399    0.4429663468698705    H1508
    0.8396140269082377    0.5106803632601399    0.7762996802032038    H1509
    0.8396140269082377    0.8440136965934733    0.1096330135365371    H1510
    0.8396140269082377    0.8440136965934733    0.4429663468698705    H1511
    0.8396140269082377    0.8440136965934733    0.7762996802032038    H1512
    0.9142131113774834    0.9334060005721487    0.2338911915352098    H1513
    0.9142131113774834    0.9334060005721487    0.5672245248685431    H1514
    0.9142131113774834    0.9334060005721487    0.9005578582018764    H1515
    0.9142131113774834    0.2667393339054820    0.2338911915352098    H1516
    0.9142131113774834    0.2667393339054820    0.5672245248685431    H1517
    0.9142131113774834    0.2667393339054820    0.9005578582018764    H1518
    0.9142131113774834    0.6000726672388152    0.2338911915352098    H1519
    0.9142131113774834    0.6000726672388152    0.5672245248685431    H1520
    0.9142131113774834    0.6000726672388152    0.9005578582018764    H1521
    0.2475464447108168    0.9334060005721487    0.2338911915352098    H1522
    0.2475464447108168    0.9334060005721487    0.5672245248685431    H1523
    0.2475464447108168    0.9334060005721487    0.9005578582018764    H1524
    0.2475464447108168    0.2667393339054820    0.2338911915352098    H1525
    0.2475464447108168    0.2667393339054820    0.5672245248685431    H1526
    0.2475464447108168    0.2667393339054820    0.9005578582018764    H1527
    0.2475464447108168    0.6000726672388152    0.2338911915352098    H1528
    0.2475464447108168    0.6000726672388152    0.5672245248685431    H1529
    0.2475464447108168    0.6000726672388152    0.9005578582018764    H1530
    0.5808797780441500    0.9334060005721487    0.2338911915352098    H1531
    0.5808797780441500    0.9334060005721487    0.5672245248685431    H1532
    0.5808797780441500    0.9334060005721487    0.9005578582018764    H1533
    0.5808797780441500    0.2667393339054820    0.2338911915352098    H1534
    0.5808797780441500    0.2667393339054820    0.5672245248685431    H1535
    0.5808797780441500    0.2667393339054820    0.9005578582018764    H1536
    0.5808797780441500    0.6000726672388152    0.2338911915352098    H1537
    0.5808797780441500    0.6000726672388152    0.5672245248685431    H1538
    0.5808797780441500    0.6000726672388152    0.9005578582018764    H1539
    0.1498862775748870    0.9693544620681538    0.3344714808760791    H1540
    0.1498862775748870    0.9693544620681538    0.6678048142094125    H1541
    0.1498862775748870    0.9693544620681538    0.0011381475427458    H1542
    0.1498862775748870    0.3026877954014870    0.3344714808760791    H1543
    0.1498862775748870    0.3026877954014870    0.6678048142094125    H1544
    0.1498862775748870    0.3026877954014870    0.0011381475427458    H1545
    0.1498862775748870    0.6360211287348204    0.3344714808760791    H1546
    0.1498862775748870    0.6360211287348204    0.6678048142094125    H1547
    0.1498862775748870    0.6360211287348204    0.0011381475427458    H1548
    0.4832196109082204    0.9693544620681538    0.3344714808760791    H1549
    0.4832196109082204    0.9693544620681538    0.6678048142094125    H1550
    0.4832196109082204    0.9693544620681538    0.0011381475427458    H1551
    0.4832196109082204    0.3026877954014870    0.3344714808760791    H1552
    0.4832196109082204    0.3026877954014870    0.6678048142094125    H1553
    0.4832196109082204    0.3026877954014870    0.0011381475427458    H1554
    0.4832196109082204    0.6360211287348204    0.3344714808760791    H1555
    0.4832196109082204    0.6360211287348204    0.6678048142094125    H1556
    0.4832196109082204    0.6360211287348204    0.0011381475427458    H1557
    0.8165529442415537    0.9693544620681538    0.3344714808760791    H1558
    0.8165529442415537    0.9693544620681538    0.6678048142094125    H1559
    0.8165529442415537    0.9693544620681538    0.0011381475427458    H1560
    0.8165529442415537    0.3026877954014870    0.3344714808760791    H1561
    0.8165529442415537    0.3026877954014870    0.6678048142094125    H1562
    0.8165529442415537    0.3026877954014870    0.0011381475427458    H1563
    0.8165529442415537    0.6360211287348204    0.3344714808760791    H1564
    0.8165529442415537    0.6360211287348204    0.6678048142094125    H1565
    0.8165529442415537    0.6360211287348204    0.0011381475427458    H1566
    0.9503640986446800    0.0824927429753837    0.2312882588281944    H1567
    0.9503640986446800    0.0824927429753837    0.5646215921615276    H1568
    0.9503640986446800    0.0824927429753837    0.8979549254948609    H1569
    0.9503640986446800    0.4158260763087170    0.2312882588281944    H1570
    0.9503640986446800    0.4158260763087170    0.5646215921615276    H1571
    0.9503640986446800    0.4158260763087170    0.8979549254948609    H1572
    0.9503640986446800    0.7491594096420504    0.2312882588281944    H1573
    0.9503640986446800    0.7491594096420504    0.5646215921615276    H1574
    0.9503640986446800    0.7491594096420504    0.8979549254948609    H1575
    0.2836974319780133    0.0824927429753837    0.2312882588281944    H1576
    0.2836974319780133    0.0824927429753837    0.5646215921615276    H1577
    0.2836974319780133    0.0824927429753837    0.8979549254948609    H1578
    0.2836974319780133    0.4158260763087170    0.2312882588281944    H1579
    0.2836974319780133    0.4158260763087170    0.5646215921615276    H1580
    0.2836974319780133    0.4158260763087170    0.8979549254948609    H1581
    0.2836974319780133    0.7491594096420504    0.2312882588281944    H1582
    0.2836974319780133    0.7491594096420504    0.5646215921615276    H1583
    0.2836974319780133    0.7491594096420504    0.8979549254948609    H1584
    0.6170307653113467    0.0824927429753837    0.2312882588281944    H1585
    0.6170307653113467    0.0824927429753837    0.5646215921615276    H1586
    0.6170307653113467    0.0824927429753837    0.8979549254948609    H1587
    0.6170307653113467    0.4158260763087170    0.2312882588281944    H1588
    0.6170307653113467    0.4158260763087170    0.5646215921615276    H1589
    0.6170307653113467    0.4158260763087170    0.8979549254948609    H1590
    0.6170307653113467    0.7491594096420504    0.2312882588281944    H1591
    0.6170307653113467    0.7491594096420504    0.5646215921615276    H1592
    0.6170307653113467    0.7491594096420504    0.8979549254948609    H1593
    0.9684217134870872    0.1827877508594494    0.2533242472568634    H1594
    0.9684217134870872    0.1827877508594494    0.5866575805901968    H1595
    0.9684217134870872    0.1827877508594494    0.9199909139235302    H1596
    0.9684217134870872    0.5161210841927828    0.2533242472568634    H1597
    0.9684217134870872    0.5161210841927828    0.5866575805901968    H1598
    0.9684217134870872    0.5161210841927828    0.9199909139235302    H1599
    0.9684217134870872    0.8494544175261161    0.2533242472568634    H1600
    0.9684217134870872    0.8494544175261161    0.5866575805901968    H1601
    0.9684217134870872    0.8494544175261161    0.9199909139235302    H1602
    0.3017550468204204    0.1827877508594494    0.2533242472568634    H1603
    0.3017550468204204    0.1827877508594494    0.5866575805901968    H1604
    0.3017550468204204    0.1827877508594494    0.9199909139235302    H1605
    0.3017550468204204    0.5161210841927828    0.2533242472568634    H1606
    0.3017550468204204    0.5161210841927828    0.5866575805901968    H1607
    0.3017550468204204    0.5161210841927828    0.9199909139235302    H1608
    0.3017550468204204    0.8494544175261161    0.2533242472568634    H1609
    0.3017550468204204    0.8494544175261161    0.5866575805901968    H1610
    0.3017550468204204    0.8494544175261161    0.9199909139235302    H1611
    0.6350883801537539    0.1827877508594494    0.2533242472568634    H1612
    0.6350883801537539    0.1827877508594494    0.5866575805901968    H1613
    0.6350883801537539    0.1827877508594494    0.9199909139235302    H1614
    0.6350883801537539    0.5161210841927828    0.2533242472568634    H1615
    0.6350883801537539    0.5161210841927828    0.5866575805901968    H1616
    0.6350883801537539    0.5161210841927828    0.9199909139235302    H1617
    0.6350883801537539    0.8494544175261161    0.2533242472568634    H1618
    0.6350883801537539    0.8494544175261161    0.5866575805901968    H1619
    0.6350883801537539    0.8494544175261161    0.9199909139235302    H1620
    0.1434073209115383    0.0734981498815580    0.1808320163171575    H1621
    0.1434073209115383    0.0734981498815580    0.5141653496504909    H1622
    0.1434073209115383    0.0734981498815580    0.8474986829838241    H1623
    0.1434073209115383    0.4068314832148914    0.1808320163171575    H1624
    0.1434073209115383    0.4068314832148914    0.5141653496504909    H1625
    0.1434073209115383    0.4068314832148914    0.8474986829838241    H1626
    0.1434073209115383    0.7401648165482246    0.1808320163171575    H1627
    0.1434073209115383    0.7401648165482246    0.5141653496504909    H1628
    0.1434073209115383    0.7401648165482246    0.8474986829838241    H1629
    0.4767406542448716    0.0734981498815580    0.1808320163171575    H1630
    0.4767406542448716    0.0734981498815580    0.5141653496504909    H1631
    0.4767406542448716    0.0734981498815580    0.8474986829838241    H1632
    0.4767406542448716    0.4068314832148914    0.1808320163171575    H1633
    0.4767406542448716    0.4068314832148914    0.5141653496504909    H1634
    0.4767406542448716    0.4068314832148914    0.8474986829838241    H1635
    0.4767406542448716    0.7401648165482246    0.1808320163171575    H1636
    0.4767406542448716    0.7401648165482246    0.5141653496504909    H1637
    0.4767406542448716    0.7401648165482246    0.8474986829838241    H1638
    0.8100739875782049    0.0734981498815580    0.1808320163171575    H1639
    0.8100739875782049    0.0734981498815580    0.5141653496504909    H1640
    0.8100739875782049    0.0734981498815580    0.8474986829838241    H1641
    0.8100739875782049    0.4068314832148914    0.1808320163171575    H1642
    0.8100739875782049    0.4068314832148914    0.5141653496504909    H1643
    0.8100739875782049    0.4068314832148914    0.8474986829838241    H1644
    0.8100739875782049    0.7401648165482246    0.1808320163171575    H1645
    0.8100739875782049    0.7401648165482246    0.5141653496504909    H1646
    0.8100739875782049    0.7401648165482246    0.8474986829838241    H1647
    0.2095926839418801    0.0918686094362271    0.0902382868937884    H1648
    0.2095926839418801    0.0918686094362271    0.4235716202271217    H1649
    0.2095926839418801    0.0918686094362271    0.7569049535604551    H1650
    0.2095926839418801    0.4252019427695605    0.0902382868937884    H1651
    0.2095926839418801    0.4252019427695605    0.4235716202271217    H1652
    0.2095926839418801    0.4252019427695605    0.7569049535604551    H1653
    0.2095926839418801    0.7585352761028937    0.0902382868937884    H1654
    0.2095926839418801    0.7585352761028937    0.4235716202271217    H1655
    0.2095926839418801    0.7585352761028937    0.7569049535604551    H1656
    0.5429260172752135    0.0918686094362271    0.0902382868937884    H1657
    0.5429260172752135    0.0918686094362271    0.4235716202271217    H1658
    0.5429260172752135    0.0918686094362271    0.7569049535604551    H1659
    0.5429260172752135    0.4252019427695605    0.0902382868937884    H1660
    0.5429260172752135    0.4252019427695605    0.4235716202271217    H1661
    0.5429260172752135    0.4252019427695605    0.7569049535604551    H1662
    0.5429260172752135    0.7585352761028937    0.0902382868937884    H1663
    0.5429260172752135    0.7585352761028937    0.4235716202271217    H1664
    0.5429260172752135    0.7585352761028937    0.7569049535604551    H1665
    0.8762593506085468    0.0918686094362271    0.0902382868937884    H1666
    0.8762593506085468    0.0918686094362271    0.4235716202271217    H1667
    0.8762593506085468    0.0918686094362271    0.7569049535604551    H1668
    0.8762593506085468    0.4252019427695605    0.0902382868937884    H1669
    0.8762593506085468    0.4252019427695605    0.4235716202271217    H1670
    0.8762593506085468    0.4252019427695605    0.7569049535604551    H1671
    0.8762593506085468    0.7585352761028937    0.0902382868937884    H1672
    0.8762593506085468    0.7585352761028937    0.4235716202271217    H1673
    0.8762593506085468    0.7585352761028937    0.7569049535604551    H1674
    0.9750765775106429    0.1180844536076461    0.2517050571266480    H1675
    0.9750765775106429    0.1180844536076461    0.5850383904599814    H1676
    0.9750765775106429    0.1180844536076461    0.9183717237933147    H1677
    0.9750765775106429    0.4514177869409794    0.2517050571266480    H1678
    0.9750765775106429    0.4514177869409794    0.5850383904599814    H1679
    0.9750765775106429    0.4514177869409794    0.9183717237933147    H1680
    0.9750765775106429    0.7847511202743127    0.2517050571266480    H1681
    0.9750765775106429    0.7847511202743127    0.5850383904599814    H1682
    0.9750765775106429    0.7847511202743127    0.9183717237933147    H1683
    0.3084099108439762    0.1180844536076461    0.2517050571266480    H1684
    0.3084099108439762    0.1180844536076461    0.5850383904599814    H1685
    0.3084099108439762    0.1180844536076461    0.9183717237933147    H1686
    0.3084099108439762    0.4514177869409794    0.2517050571266480    H1687
    0.3084099108439762    0.4514177869409794    0.5850383904599814    H1688
    0.3084099108439762    0.4514177869409794    0.9183717237933147    H1689
    0.3084099108439762    0.7847511202743127    0.2517050571266480    H1690
    0.3084099108439762    0.7847511202743127    0.5850383904599814    H1691
    0.3084099108439762    0.7847511202743127    0.9183717237933147    H1692
    0.6417432441773094    0.1180844536076461    0.2517050571266480    H1693
    0.6417432441773094    0.1180844536076461    0.5850383904599814    H1694
    0.6417432441773094    0.1180844536076461    0.9183717237933147    H1695
    0.6417432441773094    0.4514177869409794    0.2517050571266480    H1696
    0.6417432441773094    0.4514177869409794    0.5850383904599814    H1697
    0.6417432441773094    0.4514177869409794    0.9183717237933147    H1698
    0.6417432441773094    0.7847511202743127    0.2517050571266480    H1699
    0.6417432441773094    0.7847511202743127    0.5850383904599814    H1700
    0.6417432441773094    0.7847511202743127    0.9183717237933147    H1701
    0.2117760994895542    0.1120889494245079    0.1354618914102315    H1702
    0.2117760994895542    0.1120889494245079    0.4687952247435647    H1703
    0.2117760994895542    0.1120889494245079    0.8021285580768981    H1704
    0.2117760994895542    0.4454222827578413    0.1354618914102315    H1705
    0.2117760994895542    0.4454222827578413    0.4687952247435647    H1706
    0.2117760994895542    0.4454222827578413    0.8021285580768981    H1707
    0.2117760994895542    0.7787556160911746    0.1354618914102315    H1708
    0.2117760994895542    0.7787556160911746    0.4687952247435647    H1709
    0.2117760994895542    0.7787556160911746    0.8021285580768981    H1710
    0.5451094328228876    0.1120889494245079    0.1354618914102315    H1711
    0.5451094328228876    0.1120889494245079    0.4687952247435647    H1712
    0.5451094328228876    0.1120889494245079    0.8021285580768981    H1713
    0.5451094328228876    0.4454222827578413    0.1354618914102315    H1714
    0.5451094328228876    0.4454222827578413    0.4687952247435647    H1715
    0.5451094328228876    0.4454222827578413    0.8021285580768981    H1716
    0.5451094328228876    0.7787556160911746    0.1354618914102315    H1717
    0.5451094328228876    0.7787556160911746    0.4687952247435647    H1718
    0.5451094328228876    0.7787556160911746    0.8021285580768981    H1719
    0.8784427661562209    0.1120889494245079    0.1354618914102315    H1720
    0.8784427661562209    0.1120889494245079    0.4687952247435647    H1721
    0.8784427661562209    0.1120889494245079    0.8021285580768981    H1722
    0.8784427661562209    0.4454222827578413    0.1354618914102315    H1723
    0.8784427661562209    0.4454222827578413    0.4687952247435647    H1724
    0.8784427661562209    0.4454222827578413    0.8021285580768981    H1725
    0.8784427661562209    0.7787556160911746    0.1354618914102315    H1726
    0.8784427661562209    0.7787556160911746    0.4687952247435647    H1727
    0.8784427661562209    0.7787556160911746    0.8021285580768981    H1728
    0.0551864387921842    0.0960201894369075    0.2841858241838791    H1729
    0.0551864387921842    0.0960201894369075    0.6175191575172123    H1730
    0.0551864387921842    0.0960201894369075    0.9508524908505456    H1731
    0.0551864387921842    0.4293535227702407    0.2841858241838791    H1732
    0.0551864387921842    0.4293535227702407    0.6175191575172123    H1733
    0.0551864387921842    0.4293535227702407    0.9508524908505456    H1734
    0.0551864387921842    0.7626868561035741    0.2841858241838791    H1735
    0.0551864387921842    0.7626868561035741    0.6175191575172123    H1736
    0.0551864387921842    0.7626868561035741    0.9508524908505456    H1737
    0.3885197721255176    0.0960201894369075    0.2841858241838791    H1738
    0.3885197721255176    0.0960201894369075    0.6175191575172123    H1739
    0.3885197721255176    0.0960201894369075    0.9508524908505456    H1740
    0.3885197721255176    0.4293535227702407    0.2841858241838791    H1741
    0.3885197721255176    0.4293535227702407    0.6175191575172123    H1742
    0.3885197721255176    0.4293535227702407    0.9508524908505456    H1743
    0.3885197721255176    0.7626868561035741    0.2841858241838791    H1744
    0.3885197721255176    0.7626868561035741    0.6175191575172123    H1745
    0.3885197721255176    0.7626868561035741    0.9508524908505456    H1746
    0.7218531054588510    0.0960201894369075    0.2841858241838791    H1747
    0.7218531054588510    0.0960201894369075    0.6175191575172123    H1748
    0.7218531054588510    0.0960201894369075    0.9508524908505456    H1749
    0.7218531054588510    0.4293535227702407    0.2841858241838791    H1750
    0.7218531054588510    0.4293535227702407    0.6175191575172123    H1751
    0.7218531054588510    0.4293535227702407    0.9508524908505456    H1752
    0.7218531054588510    0.7626868561035741    0.2841858241838791    H1753
    0.7218531054588510    0.7626868561035741    0.6175191575172123    H1754
    0.7218531054588510    0.7626868561035741    0.9508524908505456    H1755
    0.1176145483375151    0.9766601616050106    0.2655359395938470    H1756
    0.1176145483375151    0.9766601616050106    0.5988692729271804    H1757
    0.1176145483375151    0.9766601616050106    0.9322026062605137    H1758
    0.1176145483375151    0.3099934949383439    0.2655359395938470    H1759
    0.1176145483375151    0.3099934949383439    0.5988692729271804    H1760
    0.1176145483375151    0.3099934949383439    0.9322026062605137    H1761
    0.1176145483375151    0.6433268282716773    0.2655359395938470    H1762
    0.1176145483375151    0.6433268282716773    0.5988692729271804    H1763
    0.1176145483375151    0.6433268282716773    0.9322026062605137    H1764
    0.4509478816708484    0.9766601616050106    0.2655359395938470    H1765
    0.4509478816708484    0.9766601616050106    0.5988692729271804    H1766
    0.4509478816708484    0.9766601616050106    0.9322026062605137    H1767
    0.4509478816708484    0.3099934949383439    0.2655359395938470    H1768
    0.4509478816708484    0.3099934949383439    0.5988692729271804    H1769
    0.4509478816708484    0.3099934949383439    0.9322026062605137    H1770
    0.4509478816708484    0.6433268282716773    0.2655359395938470    H1771
    0.4509478816708484    0.6433268282716773    0.5988692729271804    H1772
    0.4509478816708484    0.6433268282716773    0.9322026062605137    H1773
    0.7842812150041818    0.9766601616050106    0.2655359395938470    H1774
    0.7842812150041818    0.9766601616050106    0.5988692729271804    H1775
    0.7842812150041818    0.9766601616050106    0.9322026062605137    H1776
    0.7842812150041818    0.3099934949383439    0.2655359395938470    H1777
    0.7842812150041818    0.3099934949383439    0.5988692729271804    H1778
    0.7842812150041818    0.3099934949383439    0.9322026062605137    H1779
    0.7842812150041818    0.6433268282716773    0.2655359395938470    H1780
    0.7842812150041818    0.6433268282716773    0.5988692729271804    H1781
    0.7842812150041818    0.6433268282716773    0.9322026062605137    H1782
    0.2430010195739070    0.0404217798020959    0.1451716288835819    H1783
    0.2430010195739070    0.0404217798020959    0.4785049622169153    H1784
    0.2430010195739070    0.0404217798020959    0.8118382955502486    H1785
    0.2430010195739070    0.3737551131354292    0.1451716288835819    H1786
    0.2430010195739070    0.3737551131354292    0.4785049622169153    H1787
    0.2430010195739070    0.3737551131354292    0.8118382955502486    H1788
    0.2430010195739070    0.7070884464687626    0.1451716288835819    H1789
    0.2430010195739070    0.7070884464687626    0.4785049622169153    H1790
    0.2430010195739070    0.7070884464687626    0.8118382955502486    H1791
    0.5763343529072403    0.0404217798020959    0.1451716288835819    H1792
    0.5763343529072403    0.0404217798020959    0.4785049622169153    H1793
    0.5763343529072403    0.0404217798020959    0.8118382955502486    H1794
    0.5763343529072403    0.3737551131354292    0.1451716288835819    H1795
    0.5763343529072403    0.3737551131354292    0.4785049622169153    H1796
    0.5763343529072403    0.3737551131354292    0.8118382955502486    H1797
    0.5763343529072403    0.7070884464687626    0.1451716288835819    H1798
    0.5763343529072403    0.7070884464687626    0.4785049622169153    H1799
    0.5763343529072403    0.7070884464687626    0.8118382955502486    H1800
    0.9096676862405737    0.0404217798020959    0.1451716288835819    H1801
    0.9096676862405737    0.0404217798020959    0.4785049622169153    H1802
    0.9096676862405737    0.0404217798020959    0.8118382955502486    H1803
    0.9096676862405737    0.3737551131354292    0.1451716288835819    H1804
    0.9096676862405737    0.3737551131354292    0.4785049622169153    H1805
    0.9096676862405737    0.3737551131354292    0.8118382955502486    H1806
    0.9096676862405737    0.7070884464687626    0.1451716288835819    H1807
    0.9096676862405737    0.7070884464687626    0.4785049622169153    H1808
    0.9096676862405737    0.7070884464687626    0.8118382955502486    H1809
    0.0691740053096896    0.2043713922206386    0.3868804088486686    H1810
    0.0691740053096896    0.2043713922206386    0.7202137421820020    H1811
    0.0691740053096896    0.2043713922206386    0.0535470755153353    H1812
    0.0691740053096896    0.5377047255539719    0.3868804088486686    H1813
    0.0691740053096896    0.5377047255539719    0.7202137421820020    H1814
    0.0691740053096896    0.5377047255539719    0.0535470755153353    H1815
    0.0691740053096896    0.8710380588873052    0.3868804088486686    H1816
    0.0691740053096896    0.8710380588873052    0.7202137421820020    H1817
    0.0691740053096896    0.8710380588873052    0.0535470755153353    H1818
    0.4025073386430229    0.2043713922206386    0.3868804088486686    H1819
    0.4025073386430229    0.2043713922206386    0.7202137421820020    H1820
    0.4025073386430229    0.2043713922206386    0.0535470755153353    H1821
    0.4025073386430229    0.5377047255539719    0.3868804088486686    H1822
    0.4025073386430229    0.5377047255539719    0.7202137421820020    H1823
    0.4025073386430229    0.5377047255539719    0.0535470755153353    H1824
    0.4025073386430229    0.8710380588873052    0.3868804088486686    H1825
    0.4025073386430229    0.8710380588873052    0.7202137421820020    H1826
    0.4025073386430229    0.8710380588873052    0.0535470755153353    H1827
    0.7358406719763562    0.2043713922206386    0.3868804088486686    H1828
    0.7358406719763562    0.2043713922206386    0.7202137421820020    H1829
    0.7358406719763562    0.2043713922206386    0.0535470755153353    H1830
    0.7358406719763562    0.5377047255539719    0.3868804088486686    H1831
    0.7358406719763562    0.5377047255539719    0.7202137421820020    H1832
    0.7358406719763562    0.5377047255539719    0.0535470755153353    H1833
    0.7358406719763562    0.8710380588873052    0.3868804088486686    H1834
    0.7358406719763562    0.8710380588873052    0.7202137421820020    H1835
    0.7358406719763562    0.8710380588873052    0.0535470755153353    H1836
    0.0996009348149801    0.4473436557659367    0.1702041712719681    H1837
    0.0996009348149801    0.4473436557659367    0.5035375046053014    H1838
    0.0996009348149801    0.4473436557659367    0.8368708379386347    H1839
    0.0996009348149801    0.7806769890992701    0.1702041712719681    H1840
    0.0996009348149801    0.7806769890992701    0.5035375046053014    H1841
    0.0996009348149801    0.7806769890992701    0.8368708379386347    H1842
    0.0996009348149801    0.1140103224326034    0.1702041712719681    H1843
    0.0996009348149801    0.1140103224326034    0.5035375046053014    H1844
    0.0996009348149801    0.1140103224326034    0.8368708379386347    H1845
    0.4329342681483135    0.4473436557659367    0.1702041712719681    H1846
    0.4329342681483135    0.4473436557659367    0.5035375046053014    H1847
    0.4329342681483135    0.4473436557659367    0.8368708379386347    H1848
    0.4329342681483135    0.7806769890992701    0.1702041712719681    H1849
    0.4329342681483135    0.7806769890992701    0.5035375046053014    H1850
    0.4329342681483135    0.7806769890992701    0.8368708379386347    H1851
    0.4329342681483135    0.1140103224326034    0.1702041712719681    H1852
    0.4329342681483135    0.1140103224326034    0.5035375046053014    H1853
    0.4329342681483135    0.1140103224326034    0.8368708379386347    H1854
    0.7662676014816467    0.4473436557659367    0.1702041712719681    H1855
    0.7662676014816467    0.4473436557659367    0.5035375046053014    H1856
    0.7662676014816467    0.4473436557659367    0.8368708379386347    H1857
    0.7662676014816467    0.7806769890992701    0.1702041712719681    H1858
    0.7662676014816467    0.7806769890992701    0.5035375046053014    H1859
    0.7662676014816467    0.7806769890992701    0.8368708379386347    H1860
    0.7662676014816467    0.1140103224326034    0.1702041712719681    H1861
    0.7662676014816467    0.1140103224326034    0.5035375046053014    H1862
    0.7662676014816467    0.1140103224326034    0.8368708379386347    H1863
    0.0454832700303054    0.0555060398701503    0.0167519969883880    H1864
    0.0454832700303054    0.0555060398701503    0.3500853303217215    H1865
    0.0454832700303054    0.0555060398701503    0.6834186636550548    H1866
    0.0454832700303054    0.3888393732034836    0.0167519969883880    H1867
    0.0454832700303054    0.3888393732034836    0.3500853303217215    H1868
    0.0454832700303054    0.3888393732034836    0.6834186636550548    H1869
    0.0454832700303054    0.7221727065368170    0.0167519969883880    H1870
    0.0454832700303054    0.7221727065368170    0.3500853303217215    H1871
    0.0454832700303054    0.7221727065368170    0.6834186636550548    H1872
    0.3788166033636386    0.0555060398701503    0.0167519969883880    H1873
    0.3788166033636386    0.0555060398701503    0.3500853303217215    H1874
    0.3788166033636386    0.0555060398701503    0.6834186636550548    H1875
    0.3788166033636386    0.3888393732034836    0.0167519969883880    H1876
    0.3788166033636386    0.3888393732034836    0.3500853303217215    H1877
    0.3788166033636386    0.3888393732034836    0.6834186636550548    H1878
    0.3788166033636386    0.7221727065368170    0.0167519969883880    H1879
    0.3788166033636386    0.7221727065368170    0.3500853303217215    H1880
    0.3788166033636386    0.7221727065368170    0.6834186636550548    H1881
    0.7121499366969720    0.0555060398701503    0.0167519969883880    H1882
    0.7121499366969720    0.0555060398701503    0.3500853303217215    H1883
    0.7121499366969720    0.0555060398701503    0.6834186636550548    H1884
    0.7121499366969720    0.3888393732034836    0.0167519969883880    H1885
    0.7121499366969720    0.3888393732034836    0.3500853303217215    H1886
    0.7121499366969720    0.3888393732034836    0.6834186636550548    H1887
    0.7121499366969720    0.7221727065368170    0.0167519969883880    H1888
    0.7121499366969720    0.7221727065368170    0.3500853303217215    H1889
    0.7121499366969720    0.7221727065368170    0.6834186636550548    H1890
    0.2086252802042509    0.0704713716906448    0.1661622388758757    H1891
    0.2086252802042509    0.0704713716906448    0.4994955722092089    H1892
    0.2086252802042509    0.0704713716906448    0.8328289055425423    H1893
    0.2086252802042509    0.4038047050239781    0.1661622388758757    H1894
    0.2086252802042509    0.4038047050239781    0.4994955722092089    H1895
    0.2086252802042509    0.4038047050239781    0.8328289055425423    H1896
    0.2086252802042509    0.7371380383573114    0.1661622388758757    H1897
    0.2086252802042509    0.7371380383573114    0.4994955722092089    H1898
    0.2086252802042509    0.7371380383573114    0.8328289055425423    H1899
    0.5419586135375842    0.0704713716906448    0.1661622388758757    H1900
    0.5419586135375842    0.0704713716906448    0.4994955722092089    H1901
    0.5419586135375842    0.0704713716906448    0.8328289055425423    H1902
    0.5419586135375842    0.4038047050239781    0.1661622388758757    H1903
    0.5419586135375842    0.4038047050239781    0.4994955722092089    H1904
    0.5419586135375842    0.4038047050239781    0.8328289055425423    H1905
    0.5419586135375842    0.7371380383573114    0.1661622388758757    H1906
    0.5419586135375842    0.7371380383573114    0.4994955722092089    H1907
    0.5419586135375842    0.7371380383573114    0.8328289055425423    H1908
    0.8752919468709175    0.0704713716906448    0.1661622388758757    H1909
    0.8752919468709175    0.0704713716906448    0.4994955722092089    H1910
    0.8752919468709175    0.0704713716906448    0.8328289055425423    H1911
    0.8752919468709175    0.4038047050239781    0.1661622388758757    H1912
    0.8752919468709175    0.4038047050239781    0.4994955722092089    H1913
    0.8752919468709175    0.4038047050239781    0.8328289055425423    H1914
    0.8752919468709175    0.7371380383573114    0.1661622388758757    H1915
    0.8752919468709175    0.7371380383573114    0.4994955722092089    H1916
    0.8752919468709175    0.7371380383573114    0.8328289055425423    H1917
    0.1563887723559886    0.0451623413738695    0.1130103781946077    H1918
    0.1563887723559886    0.0451623413738695    0.4463437115279412    H1919
    0.1563887723559886    0.0451623413738695    0.7796770448612744    H1920
    0.1563887723559886    0.3784956747072029    0.1130103781946077    H1921
    0.1563887723559886    0.3784956747072029    0.4463437115279412    H1922
    0.1563887723559886    0.3784956747072029    0.7796770448612744    H1923
    0.1563887723559886    0.7118290080405363    0.1130103781946077    H1924
    0.1563887723559886    0.7118290080405363    0.4463437115279412    H1925
    0.1563887723559886    0.7118290080405363    0.7796770448612744    H1926
    0.4897221056893220    0.0451623413738695    0.1130103781946077    H1927
    0.4897221056893220    0.0451623413738695    0.4463437115279412    H1928
    0.4897221056893220    0.0451623413738695    0.7796770448612744    H1929
    0.4897221056893220    0.3784956747072029    0.1130103781946077    H1930
    0.4897221056893220    0.3784956747072029    0.4463437115279412    H1931
    0.4897221056893220    0.3784956747072029    0.7796770448612744    H1932
    0.4897221056893220    0.7118290080405363    0.1130103781946077    H1933
    0.4897221056893220    0.7118290080405363    0.4463437115279412    H1934
    0.4897221056893220    0.7118290080405363    0.7796770448612744    H1935
    0.8230554390226552    0.0451623413738695    0.1130103781946077    H1936
    0.8230554390226552    0.0451623413738695    0.4463437115279412    H1937
    0.8230554390226552    0.0451623413738695    0.7796770448612744    H1938
    0.8230554390226552    0.3784956747072029    0.1130103781946077    H1939
    0.8230554390226552    0.3784956747072029    0.4463437115279412    H1940
    0.8230554390226552    0.3784956747072029    0.7796770448612744    H1941
    0.8230554390226552    0.7118290080405363    0.1130103781946077    H1942
    0.8230554390226552    0.7118290080405363    0.4463437115279412    H1943
    0.8230554390226552    0.7118290080405363    0.7796770448612744    H1944
    0.0478427786660179    0.9379417628033377    0.3070902114400731    H1945
    0.0478427786660179    0.9379417628033377    0.6404235447734065    H1946
    0.0478427786660179    0.9379417628033377    0.9737568781067398    H1947
    0.0478427786660179    0.2712750961366710    0.3070902114400731    H1948
    0.0478427786660179    0.2712750961366710    0.6404235447734065    H1949
    0.0478427786660179    0.2712750961366710    0.9737568781067398    H1950
    0.0478427786660179    0.6046084294700044    0.3070902114400731    H1951
    0.0478427786660179    0.6046084294700044    0.6404235447734065    H1952
    0.0478427786660179    0.6046084294700044    0.9737568781067398    H1953
    0.3811761119993513    0.9379417628033377    0.3070902114400731    H1954
    0.3811761119993513    0.9379417628033377    0.6404235447734065    H1955
    0.3811761119993513    0.9379417628033377    0.9737568781067398    H1956
    0.3811761119993513    0.2712750961366710    0.3070902114400731    H1957
    0.3811761119993513    0.2712750961366710    0.6404235447734065    H1958
    0.3811761119993513    0.2712750961366710    0.9737568781067398    H1959
    0.3811761119993513    0.6046084294700044    0.3070902114400731    H1960
    0.3811761119993513    0.6046084294700044    0.6404235447734065    H1961
    0.3811761119993513    0.6046084294700044    0.9737568781067398    H1962
    0.7145094453326846    0.9379417628033377    0.3070902114400731    H1963
    0.7145094453326846    0.9379417628033377    0.6404235447734065    H1964
    0.7145094453326846    0.9379417628033377    0.9737568781067398    H1965
    0.7145094453326846    0.2712750961366710    0.3070902114400731    H1966
    0.7145094453326846    0.2712750961366710    0.6404235447734065    H1967
    0.7145094453326846    0.2712750961366710    0.9737568781067398    H1968
    0.7145094453326846    0.6046084294700044    0.3070902114400731    H1969
    0.7145094453326846    0.6046084294700044    0.6404235447734065    H1970
    0.7145094453326846    0.6046084294700044    0.9737568781067398    H1971
    0.0299395910379772    0.2415383344824246    0.2280224363806814    H1972
    0.0299395910379772    0.2415383344824246    0.5613557697140148    H1973
    0.0299395910379772    0.2415383344824246    0.8946891030473481    H1974
    0.0299395910379772    0.5748716678157579    0.2280224363806814    H1975
    0.0299395910379772    0.5748716678157579    0.5613557697140148    H1976
    0.0299395910379772    0.5748716678157579    0.8946891030473481    H1977
    0.0299395910379772    0.9082050011490912    0.2280224363806814    H1978
    0.0299395910379772    0.9082050011490912    0.5613557697140148    H1979
    0.0299395910379772    0.9082050011490912    0.8946891030473481    H1980
    0.3632729243713105    0.2415383344824246    0.2280224363806814    H1981
    0.3632729243713105    0.2415383344824246    0.5613557697140148    H1982
    0.3632729243713105    0.2415383344824246    0.8946891030473481    H1983
    0.3632729243713105    0.5748716678157579    0.2280224363806814    H1984
    0.3632729243713105    0.5748716678157579    0.5613557697140148    H1985
    0.3632729243713105    0.5748716678157579    0.8946891030473481    H1986
    0.3632729243713105    0.9082050011490912    0.2280224363806814    H1987
    0.3632729243713105    0.9082050011490912    0.5613557697140148    H1988
    0.3632729243713105    0.9082050011490912    0.8946891030473481    H1989
    0.6966062577046438    0.2415383344824246    0.2280224363806814    H1990
    0.6966062577046438    0.2415383344824246    0.5613557697140148    H1991
    0.6966062577046438    0.2415383344824246    0.8946891030473481    H1992
    0.6966062577046438    0.5748716678157579    0.2280224363806814    H1993
    0.6966062577046438    0.5748716678157579    0.5613557697140148    H1994
    0.6966062577046438    0.5748716678157579    0.8946891030473481    H1995
    0.6966062577046438    0.9082050011490912    0.2280224363806814    H1996
    0.6966062577046438    0.9082050011490912    0.5613557697140148    H1997
    0.6966062577046438    0.9082050011490912    0.8946891030473481    H1998
    0.2122279187314287    0.0436464072229272    0.1120131464260845    H1999
    0.2122279187314287    0.0436464072229272    0.4453464797594178    H2000
    0.2122279187314287    0.0436464072229272    0.7786798130927511    H2001
    0.2122279187314287    0.3769797405562605    0.1120131464260845    H2002
    0.2122279187314287    0.3769797405562605    0.4453464797594178    H2003
    0.2122279187314287    0.3769797405562605    0.7786798130927511    H2004
    0.2122279187314287    0.7103130738895939    0.1120131464260845    H2005
    0.2122279187314287    0.7103130738895939    0.4453464797594178    H2006
    0.2122279187314287    0.7103130738895939    0.7786798130927511    H2007
    0.5455612520647620    0.0436464072229272    0.1120131464260845    H2008
    0.5455612520647620    0.0436464072229272    0.4453464797594178    H2009
    0.5455612520647620    0.0436464072229272    0.7786798130927511    H2010
    0.5455612520647620    0.3769797405562605    0.1120131464260845    H2011
    0.5455612520647620    0.3769797405562605    0.4453464797594178    H2012
    0.5455612520647620    0.3769797405562605    0.7786798130927511    H2013
    0.5455612520647620    0.7103130738895939    0.1120131464260845    H2014
    0.5455612520647620    0.7103130738895939    0.4453464797594178    H2015
    0.5455612520647620    0.7103130738895939    0.7786798130927511    H2016
    0.8788945853980953    0.0436464072229272    0.1120131464260845    H2017
    0.8788945853980953    0.0436464072229272    0.4453464797594178    H2018
    0.8788945853980953    0.0436464072229272    0.7786798130927511    H2019
    0.8788945853980953    0.3769797405562605    0.1120131464260845    H2020
    0.8788945853980953    0.3769797405562605    0.4453464797594178    H2021
    0.8788945853980953    0.3769797405562605    0.7786798130927511    H2022
    0.8788945853980953    0.7103130738895939    0.1120131464260845    H2023
    0.8788945853980953    0.7103130738895939    0.4453464797594178    H2024
    0.8788945853980953    0.7103130738895939    0.7786798130927511    H2025
    0.2584422333293659    0.1643934849223179    0.1360736381483377    H2026
    0.2584422333293659    0.1643934849223179    0.4694069714816711    H2027
    0.2584422333293659    0.1643934849223179    0.8027403048150044    H2028
    0.2584422333293659    0.4977268182556513    0.1360736381483377    H2029
    0.2584422333293659    0.4977268182556513    0.4694069714816711    H2030
    0.2584422333293659    0.4977268182556513    0.8027403048150044    H2031
    0.2584422333293659    0.8310601515889846    0.1360736381483377    H2032
    0.2584422333293659    0.8310601515889846    0.4694069714816711    H2033
    0.2584422333293659    0.8310601515889846    0.8027403048150044    H2034
    0.5917755666626991    0.1643934849223179    0.1360736381483377    H2035
    0.5917755666626991    0.1643934849223179    0.4694069714816711    H2036
    0.5917755666626991    0.1643934849223179    0.8027403048150044    H2037
    0.5917755666626991    0.4977268182556513    0.1360736381483377    H2038
    0.5917755666626991    0.4977268182556513    0.4694069714816711    H2039
    0.5917755666626991    0.4977268182556513    0.8027403048150044    H2040
    0.5917755666626991    0.8310601515889846    0.1360736381483377    H2041
    0.5917755666626991    0.8310601515889846    0.4694069714816711    H2042
    0.5917755666626991    0.8310601515889846    0.8027403048150044    H2043
    0.9251088999960324    0.1643934849223179    0.1360736381483377    H2044
    0.9251088999960324    0.1643934849223179    0.4694069714816711    H2045
    0.9251088999960324    0.1643934849223179    0.8027403048150044    H2046
    0.9251088999960324    0.4977268182556513    0.1360736381483377    H2047
    0.9251088999960324    0.4977268182556513    0.4694069714816711    H2048
    0.9251088999960324    0.4977268182556513    0.8027403048150044    H2049
    0.9251088999960324    0.8310601515889846    0.1360736381483377    H2050
    0.9251088999960324    0.8310601515889846    0.4694069714816711    H2051
    0.9251088999960324    0.8310601515889846    0.8027403048150044    H2052
    0.9521697475221007    0.1044254671075716    0.0201190730394281    H2053
    0.9521697475221007    0.1044254671075716    0.3534524063727613    H2054
    0.9521697475221007    0.1044254671075716    0.6867857397060947    H2055
    0.9521697475221007    0.4377588004409050    0.0201190730394281    H2056
    0.9521697475221007    0.4377588004409050    0.3534524063727613    H2057
    0.9521697475221007    0.4377588004409050    0.6867857397060947    H2058
    0.9521697475221007    0.7710921337742382    0.0201190730394281    H2059
    0.9521697475221007    0.7710921337742382    0.3534524063727613    H2060
    0.9521697475221007    0.7710921337742382    0.6867857397060947    H2061
    0.2855030808554341    0.1044254671075716    0.0201190730394281    H2062
    0.2855030808554341    0.1044254671075716    0.3534524063727613    H2063
    0.2855030808554341    0.1044254671075716    0.6867857397060947    H2064
    0.2855030808554341    0.4377588004409050    0.0201190730394281    H2065
    0.2855030808554341    0.4377588004409050    0.3534524063727613    H2066
    0.2855030808554341    0.4377588004409050    0.6867857397060947    H2067
    0.2855030808554341    0.7710921337742382    0.0201190730394281    H2068
    0.2855030808554341    0.7710921337742382    0.3534524063727613    H2069
    0.2855030808554341    0.7710921337742382    0.6867857397060947    H2070
    0.6188364141887674    0.1044254671075716    0.0201190730394281    H2071
    0.6188364141887674    0.1044254671075716    0.3534524063727613    H2072
    0.6188364141887674    0.1044254671075716    0.6867857397060947    H2073
    0.6188364141887674    0.4377588004409050    0.0201190730394281    H2074
    0.6188364141887674    0.4377588004409050    0.3534524063727613    H2075
    0.6188364141887674    0.4377588004409050    0.6867857397060947    H2076
    0.6188364141887674    0.7710921337742382    0.0201190730394281    H2077
    0.6188364141887674    0.7710921337742382    0.3534524063727613    H2078
    0.6188364141887674    0.7710921337742382    0.6867857397060947    H2079
    0.9787625574426113    0.2620164814425813    0.2791980208144069    H2080
    0.9787625574426113    0.2620164814425813    0.6125313541477402    H2081
    0.9787625574426113    0.2620164814425813    0.9458646874810734    H2082
    0.9787625574426113    0.5953498147759146    0.2791980208144069    H2083
    0.9787625574426113    0.5953498147759146    0.6125313541477402    H2084
    0.9787625574426113    0.5953498147759146    0.9458646874810734    H2085
    0.9787625574426113    0.9286831481092480    0.2791980208144069    H2086
    0.9787625574426113    0.9286831481092480    0.6125313541477402    H2087
    0.9787625574426113    0.9286831481092480    0.9458646874810734    H2088
    0.3120958907759446    0.2620164814425813    0.2791980208144069    H2089
    0.3120958907759446    0.2620164814425813    0.6125313541477402    H2090
    0.3120958907759446    0.2620164814425813    0.9458646874810734    H2091
    0.3120958907759446    0.5953498147759146    0.2791980208144069    H2092
    0.3120958907759446    0.5953498147759146    0.6125313541477402    H2093
    0.3120958907759446    0.5953498147759146    0.9458646874810734    H2094
    0.3120958907759446    0.9286831481092480    0.2791980208144069    H2095
    0.3120958907759446    0.9286831481092480    0.6125313541477402    H2096
    0.3120958907759446    0.9286831481092480    0.9458646874810734    H2097
    0.6454292241092779    0.2620164814425813    0.2791980208144069    H2098
    0.6454292241092779    0.2620164814425813    0.6125313541477402    H2099
    0.6454292241092779    0.2620164814425813    0.9458646874810734    H2100
    0.6454292241092779    0.5953498147759146    0.2791980208144069    H2101
    0.6454292241092779    0.5953498147759146    0.6125313541477402    H2102
    0.6454292241092779    0.5953498147759146    0.9458646874810734    H2103
    0.6454292241092779    0.9286831481092480    0.2791980208144069    H2104
    0.6454292241092779    0.9286831481092480    0.6125313541477402    H2105
    0.6454292241092779    0.9286831481092480    0.9458646874810734    H2106
    0.0565898447553328    0.2098620253178585    0.2596754853944149    H2107
    0.0565898447553328    0.2098620253178585    0.5930088187277482    H2108
    0.0565898447553328    0.2098620253178585    0.9263421520610815    H2109
    0.0565898447553328    0.5431953586511917    0.2596754853944149    H2110
    0.0565898447553328    0.5431953586511917    0.5930088187277482    H2111
    0.0565898447553328    0.5431953586511917    0.9263421520610815    H2112
    0.0565898447553328    0.8765286919845251    0.2596754853944149    H2113
    0.0565898447553328    0.8765286919845251    0.5930088187277482    H2114
    0.0565898447553328    0.8765286919845251    0.9263421520610815    H2115
    0.3899231780886661    0.2098620253178585    0.2596754853944149    H2116
    0.3899231780886661    0.2098620253178585    0.5930088187277482    H2117
    0.3899231780886661    0.2098620253178585    0.9263421520610815    H2118
    0.3899231780886661    0.5431953586511917    0.2596754853944149    H2119
    0.3899231780886661    0.5431953586511917    0.5930088187277482    H2120
    0.3899231780886661    0.5431953586511917    0.9263421520610815    H2121
    0.3899231780886661    0.8765286919845251    0.2596754853944149    H2122
    0.3899231780886661    0.8765286919845251    0.5930088187277482    H2123
    0.3899231780886661    0.8765286919845251    0.9263421520610815    H2124
    0.7232565114219994    0.2098620253178585    0.2596754853944149    H2125
    0.7232565114219994    0.2098620253178585    0.5930088187277482    H2126
    0.7232565114219994    0.2098620253178585    0.9263421520610815    H2127
    0.7232565114219994    0.5431953586511917    0.2596754853944149    H2128
    0.7232565114219994    0.5431953586511917    0.5930088187277482    H2129
    0.7232565114219994    0.5431953586511917    0.9263421520610815    H2130
    0.7232565114219994    0.8765286919845251    0.2596754853944149    H2131
    0.7232565114219994    0.8765286919845251    0.5930088187277482    H2132
    0.7232565114219994    0.8765286919845251    0.9263421520610815    H2133
    0.2527693759569498    0.9820609338272117    0.0584533658832129    H2134
    0.2527693759569498    0.9820609338272117    0.3917866992165462    H2135
    0.2527693759569498    0.9820609338272117    0.7251200325498794    H2136
    0.2527693759569498    0.3153942671605450    0.0584533658832129    H2137
    0.2527693759569498    0.3153942671605450    0.3917866992165462    H2138
    0.2527693759569498    0.3153942671605450    0.7251200325498794    H2139
    0.2527693759569498    0.6487276004938783    0.0584533658832129    H2140
    0.2527693759569498    0.6487276004938783    0.3917866992165462    H2141
    0.2527693759569498    0.6487276004938783    0.7251200325498794    H2142
    0.5861027092902831    0.9820609338272117    0.0584533658832129    H2143
    0.5861027092902831    0.9820609338272117    0.3917866992165462    H2144
    0.5861027092902831    0.9820609338272117    0.7251200325498794    H2145
    0.5861027092902831    0.3153942671605450    0.0584533658832129    H2146
    0.5861027092902831    0.3153942671605450    0.3917866992165462    H2147
    0.5861027092902831    0.3153942671605450    0.7251200325498794    H2148
    0.5861027092902831    0.6487276004938783    0.0584533658832129    H2149
    0.5861027092902831    0.6487276004938783    0.3917866992165462    H2150
    0.5861027092902831    0.6487276004938783    0.7251200325498794    H2151
    0.9194360426236164    0.9820609338272117    0.0584533658832129    H2152
    0.9194360426236164    0.9820609338272117    0.3917866992165462    H2153
    0.9194360426236164    0.9820609338272117    0.7251200325498794    H2154
    0.9194360426236164    0.3153942671605450    0.0584533658832129    H2155
    0.9194360426236164    0.3153942671605450    0.3917866992165462    H2156
    0.9194360426236164    0.3153942671605450    0.7251200325498794    H2157
    0.9194360426236164    0.6487276004938783    0.0584533658832129    H2158
    0.9194360426236164    0.6487276004938783    0.3917866992165462    H2159
    0.9194360426236164    0.6487276004938783    0.7251200325498794    H2160
    0.8898129149710836    0.1506969488304148    0.2549564284356274    H2161
    0.8898129149710836    0.1506969488304148    0.5882897617689608    H2162
    0.8898129149710836    0.1506969488304148    0.9216230951022941    H2163
    0.8898129149710836    0.4840302821637481    0.2549564284356274    H2164
    0.8898129149710836    0.4840302821637481    0.5882897617689608    H2165
    0.8898129149710836    0.4840302821637481    0.9216230951022941    H2166
    0.8898129149710836    0.8173636154970815    0.2549564284356274    H2167
    0.8898129149710836    0.8173636154970815    0.5882897617689608    H2168
    0.8898129149710836    0.8173636154970815    0.9216230951022941    H2169
    0.2231462483044169    0.1506969488304148    0.2549564284356274    H2170
    0.2231462483044169    0.1506969488304148    0.5882897617689608    H2171
    0.2231462483044169    0.1506969488304148    0.9216230951022941    H2172
    0.2231462483044169    0.4840302821637481    0.2549564284356274    H2173
    0.2231462483044169    0.4840302821637481    0.5882897617689608    H2174
    0.2231462483044169    0.4840302821637481    0.9216230951022941    H2175
    0.2231462483044169    0.8173636154970815    0.2549564284356274    H2176
    0.2231462483044169    0.8173636154970815    0.5882897617689608    H2177
    0.2231462483044169    0.8173636154970815    0.9216230951022941    H2178
    0.5564795816377504    0.1506969488304148    0.2549564284356274    H2179
    0.5564795816377504    0.1506969488304148    0.5882897617689608    H2180
    0.5564795816377504    0.1506969488304148    0.9216230951022941    H2181
    0.5564795816377504    0.4840302821637481    0.2549564284356274    H2182
    0.5564795816377504    0.4840302821637481    0.5882897617689608    H2183
    0.5564795816377504    0.4840302821637481    0.9216230951022941    H2184
    0.5564795816377504    0.8173636154970815    0.2549564284356274    H2185
    0.5564795816377504    0.8173636154970815    0.5882897617689608    H2186
    0.5564795816377504    0.8173636154970815    0.9216230951022941    H2187
    0.9600163489337976    0.0576995307175239    0.1386784205182092    H2188
    0.9600163489337976    0.0576995307175239    0.4720117538515426    H2189
    0.9600163489337976    0.0576995307175239    0.8053450871848760    H2190
    0.9600163489337976    0.3910328640508571    0.1386784205182092    H2191
    0.9600163489337976    0.3910328640508571    0.4720117538515426    H2192
    0.9600163489337976    0.3910328640508571    0.8053450871848760    H2193
    0.9600163489337976    0.7243661973841905    0.1386784205182092    H2194
    0.9600163489337976    0.7243661973841905    0.4720117538515426    H2195
    0.9600163489337976    0.7243661973841905    0.8053450871848760    H2196
    0.2933496822671309    0.0576995307175239    0.1386784205182092    H2197
    0.2933496822671309    0.0576995307175239    0.4720117538515426    H2198
    0.2933496822671309    0.0576995307175239    0.8053450871848760    H2199
    0.2933496822671309    0.3910328640508571    0.1386784205182092    H2200
    0.2933496822671309    0.3910328640508571    0.4720117538515426    H2201
    0.2933496822671309    0.3910328640508571    0.8053450871848760    H2202
    0.2933496822671309    0.7243661973841905    0.1386784205182092    H2203
    0.2933496822671309    0.7243661973841905    0.4720117538515426    H2204
    0.2933496822671309    0.7243661973841905    0.8053450871848760    H2205
    0.6266830156004642    0.0576995307175239    0.1386784205182092    H2206
    0.6266830156004642    0.0576995307175239    0.4720117538515426    H2207
    0.6266830156004642    0.0576995307175239    0.8053450871848760    H2208
    0.6266830156004642    0.3910328640508571    0.1386784205182092    H2209
    0.6266830156004642    0.3910328640508571    0.4720117538515426    H2210
    0.6266830156004642    0.3910328640508571    0.8053450871848760    H2211
    0.6266830156004642    0.7243661973841905    0.1386784205182092    H2212
    0.6266830156004642    0.7243661973841905    0.4720117538515426    H2213
    0.6266830156004642    0.7243661973841905    0.8053450871848760    H2214
    0.9500354003541966    0.2942068371873174    0.2409328810097768    H2215
    0.9500354003541966    0.2942068371873174    0.5742662143431101    H2216
    0.9500354003541966    0.2942068371873174    0.9075995476764435    H2217
    0.9500354003541966    0.6275401705206508    0.2409328810097768    H2218
    0.9500354003541966    0.6275401705206508    0.5742662143431101    H2219
    0.9500354003541966    0.6275401705206508    0.9075995476764435    H2220
    0.9500354003541966    0.9608735038539841    0.2409328810097768    H2221
    0.9500354003541966    0.9608735038539841    0.5742662143431101    H2222
    0.9500354003541966    0.9608735038539841    0.9075995476764435    H2223
    0.2833687336875299    0.2942068371873174    0.2409328810097768    H2224
    0.2833687336875299    0.2942068371873174    0.5742662143431101    H2225
    0.2833687336875299    0.2942068371873174    0.9075995476764435    H2226
    0.2833687336875299    0.6275401705206508    0.2409328810097768    H2227
    0.2833687336875299    0.6275401705206508    0.5742662143431101    H2228
    0.2833687336875299    0.6275401705206508    0.9075995476764435    H2229
    0.2833687336875299    0.9608735038539841    0.2409328810097768    H2230
    0.2833687336875299    0.9608735038539841    0.5742662143431101    H2231
    0.2833687336875299    0.9608735038539841    0.9075995476764435    H2232
    0.6167020670208632    0.2942068371873174    0.2409328810097768    H2233
    0.6167020670208632    0.2942068371873174    0.5742662143431101    H2234
    0.6167020670208632    0.2942068371873174    0.9075995476764435    H2235
    0.6167020670208632    0.6275401705206508    0.2409328810097768    H2236
    0.6167020670208632    0.6275401705206508    0.5742662143431101    H2237
    0.6167020670208632    0.6275401705206508    0.9075995476764435    H2238
    0.6167020670208632    0.9608735038539841    0.2409328810097768    H2239
    0.6167020670208632    0.9608735038539841    0.5742662143431101    H2240
    0.6167020670208632    0.9608735038539841    0.9075995476764435    H2241
    0.0447683066346867    0.0251014157146050    0.4282537077398211    H2242
    0.0447683066346867    0.0251014157146050    0.7615870410731544    H2243
    0.0447683066346867    0.0251014157146050    0.0949203744064877    H2244
    0.0447683066346867    0.3584347490479383    0.4282537077398211    H2245
    0.0447683066346867    0.3584347490479383    0.7615870410731544    H2246
    0.0447683066346867    0.3584347490479383    0.0949203744064877    H2247
    0.0447683066346867    0.6917680823812715    0.4282537077398211    H2248
    0.0447683066346867    0.6917680823812715    0.7615870410731544    H2249
    0.0447683066346867    0.6917680823812715    0.0949203744064877    H2250
    0.3781016399680199    0.0251014157146050    0.4282537077398211    H2251
    0.3781016399680199    0.0251014157146050    0.7615870410731544    H2252
    0.3781016399680199    0.0251014157146050    0.0949203744064877    H2253
    0.3781016399680199    0.3584347490479383    0.4282537077398211    H2254
    0.3781016399680199    0.3584347490479383    0.7615870410731544    H2255
    0.3781016399680199    0.3584347490479383    0.0949203744064877    H2256
    0.3781016399680199    0.6917680823812715    0.4282537077398211    H2257
    0.3781016399680199    0.6917680823812715    0.7615870410731544    H2258
    0.3781016399680199    0.6917680823812715    0.0949203744064877    H2259
    0.7114349733013533    0.0251014157146050    0.4282537077398211    H2260
    0.7114349733013533    0.0251014157146050    0.7615870410731544    H2261
    0.7114349733013533    0.0251014157146050    0.0949203744064877    H2262
    0.7114349733013533    0.3584347490479383    0.4282537077398211    H2263
    0.7114349733013533    0.3584347490479383    0.7615870410731544    H2264
    0.7114349733013533    0.3584347490479383    0.0949203744064877    H2265
    0.7114349733013533    0.6917680823812715    0.4282537077398211    H2266
    0.7114349733013533    0.6917680823812715    0.7615870410731544    H2267
    0.7114349733013533    0.6917680823812715    0.0949203744064877    H2268
    0.0666967365699904    0.0738429625506991    0.2139712717653064    H2269
    0.0666967365699904    0.0738429625506991    0.5473046050986397    H2270
    0.0666967365699904    0.0738429625506991    0.8806379384319730    H2271
    0.0666967365699904    0.4071762958840326    0.2139712717653064    H2272
    0.0666967365699904    0.4071762958840326    0.5473046050986397    H2273
    0.0666967365699904    0.4071762958840326    0.8806379384319730    H2274
    0.0666967365699904    0.7405096292173659    0.2139712717653064    H2275
    0.0666967365699904    0.7405096292173659    0.5473046050986397    H2276
    0.0666967365699904    0.7405096292173659    0.8806379384319730    H2277
    0.4000300699033238    0.0738429625506991    0.2139712717653064    H2278
    0.4000300699033238    0.0738429625506991    0.5473046050986397    H2279
    0.4000300699033238    0.0738429625506991    0.8806379384319730    H2280
    0.4000300699033238    0.4071762958840326    0.2139712717653064    H2281
    0.4000300699033238    0.4071762958840326    0.5473046050986397    H2282
    0.4000300699033238    0.4071762958840326    0.8806379384319730    H2283
    0.4000300699033238    0.7405096292173659    0.2139712717653064    H2284
    0.4000300699033238    0.7405096292173659    0.5473046050986397    H2285
    0.4000300699033238    0.7405096292173659    0.8806379384319730    H2286
    0.7333634032366572    0.0738429625506991    0.2139712717653064    H2287
    0.7333634032366572    0.0738429625506991    0.5473046050986397    H2288
    0.7333634032366572    0.0738429625506991    0.8806379384319730    H2289
    0.7333634032366572    0.4071762958840326    0.2139712717653064    H2290
    0.7333634032366572    0.4071762958840326    0.5473046050986397    H2291
    0.7333634032366572    0.4071762958840326    0.8806379384319730    H2292
    0.7333634032366572    0.7405096292173659    0.2139712717653064    H2293
    0.7333634032366572    0.7405096292173659    0.5473046050986397    H2294
    0.7333634032366572    0.7405096292173659    0.8806379384319730    H2295
    0.1845433793231320    0.9872610020466939    0.1328303689725270    H2296
    0.1845433793231320    0.9872610020466939    0.4661637023058604    H2297
    0.1845433793231320    0.9872610020466939    0.7994970356391937    H2298
    0.1845433793231320    0.3205943353800271    0.1328303689725270    H2299
    0.1845433793231320    0.3205943353800271    0.4661637023058604    H2300
    0.1845433793231320    0.3205943353800271    0.7994970356391937    H2301
    0.1845433793231320    0.6539276687133605    0.1328303689725270    H2302
    0.1845433793231320    0.6539276687133605    0.4661637023058604    H2303
    0.1845433793231320    0.6539276687133605    0.7994970356391937    H2304
    0.5178767126564654    0.9872610020466939    0.1328303689725270    H2305
    0.5178767126564654    0.9872610020466939    0.4661637023058604    H2306
    0.5178767126564654    0.9872610020466939    0.7994970356391937    H2307
    0.5178767126564654    0.3205943353800271    0.1328303689725270    H2308
    0.5178767126564654    0.3205943353800271    0.4661637023058604    H2309
    0.5178767126564654    0.3205943353800271    0.7994970356391937    H2310
    0.5178767126564654    0.6539276687133605    0.1328303689725270    H2311
    0.5178767126564654    0.6539276687133605    0.4661637023058604    H2312
    0.5178767126564654    0.6539276687133605    0.7994970356391937    H2313
    0.8512100459897988    0.9872610020466939    0.1328303689725270    H2314
    0.8512100459897988    0.9872610020466939    0.4661637023058604    H2315
    0.8512100459897988    0.9872610020466939    0.7994970356391937    H2316
    0.8512100459897988    0.3205943353800271    0.1328303689725270    H2317
    0.8512100459897988    0.3205943353800271    0.4661637023058604    H2318
    0.8512100459897988    0.3205943353800271    0.7994970356391937    H2319
    0.8512100459897988    0.6539276687133605    0.1328303689725270    H2320
    0.8512100459897988    0.6539276687133605    0.4661637023058604    H2321
    0.8512100459897988    0.6539276687133605    0.7994970356391937    H2322
    0.4003992472539798    0.9849388219048647    0.2876394996276581    H2323
    0.4003992472539798    0.9849388219048647    0.6209728329609914    H2324
    0.4003992472539798    0.9849388219048647    0.9543061662943247    H2325
    0.4003992472539798    0.3182721552381981    0.2876394996276581    H2326
    0.4003992472539798    0.3182721552381981    0.6209728329609914    H2327
    0.4003992472539798    0.3182721552381981    0.9543061662943247    H2328
    0.4003992472539798    0.6516054885715314    0.2876394996276581    H2329
    0.4003992472539798    0.6516054885715314    0.6209728329609914    H2330
    0.4003992472539798    0.6516054885715314    0.9543061662943247    H2331
    0.7337325805873132    0.9849388219048647    0.2876394996276581    H2332
    0.7337325805873132    0.9849388219048647    0.6209728329609914    H2333
    0.7337325805873132    0.9849388219048647    0.9543061662943247    H2334
    0.7337325805873132    0.3182721552381981    0.2876394996276581    H2335
    0.7337325805873132    0.3182721552381981    0.6209728329609914    H2336
    0.7337325805873132    0.3182721552381981    0.9543061662943247    H2337
    0.7337325805873132    0.6516054885715314    0.2876394996276581    H2338
    0.7337325805873132    0.6516054885715314    0.6209728329609914    H2339
    0.7337325805873132    0.6516054885715314    0.9543061662943247    H2340
    0.0670659139206464    0.9849388219048647    0.2876394996276581    H2341
    0.0670659139206464    0.9849388219048647    0.6209728329609914    H2342
    0.0670659139206464    0.9849388219048647    0.9543061662943247    H2343
    0.0670659139206464    0.3182721552381981    0.2876394996276581    H2344
    0.0670659139206464    0.3182721552381981    0.6209728329609914    H2345
    0.0670659139206464    0.3182721552381981    0.9543061662943247    H2346
    0.0670659139206464    0.6516054885715314    0.2876394996276581    H2347
    0.0670659139206464    0.6516054885715314    0.6209728329609914    H2348
    0.0670659139206464    0.6516054885715314    0.9543061662943247    H2349
    0.0046441587519238    0.0923736199278453    0.3276426086139073    H2350
    0.0046441587519238    0.0923736199278453    0.6609759419472406    H2351
    0.0046441587519238    0.0923736199278453    0.9943092752805739    H2352
    0.0046441587519238    0.4257069532611786    0.3276426086139073    H2353
    0.0046441587519238    0.4257069532611786    0.6609759419472406    H2354
    0.0046441587519238    0.4257069532611786    0.9943092752805739    H2355
    0.0046441587519238    0.7590402865945119    0.3276426086139073    H2356
    0.0046441587519238    0.7590402865945119    0.6609759419472406    H2357
    0.0046441587519238    0.7590402865945119    0.9943092752805739    H2358
    0.3379774920852571    0.0923736199278453    0.3276426086139073    H2359
    0.3379774920852571    0.0923736199278453    0.6609759419472406    H2360
    0.3379774920852571    0.0923736199278453    0.9943092752805739    H2361
    0.3379774920852571    0.4257069532611786    0.3276426086139073    H2362
    0.3379774920852571    0.4257069532611786    0.6609759419472406    H2363
    0.3379774920852571    0.4257069532611786    0.9943092752805739    H2364
    0.3379774920852571    0.7590402865945119    0.3276426086139073    H2365
    0.3379774920852571    0.7590402865945119    0.6609759419472406    H2366
    0.3379774920852571    0.7590402865945119    0.9943092752805739    H2367
    0.6713108254185904    0.0923736199278453    0.3276426086139073    H2368
    0.6713108254185904    0.0923736199278453    0.6609759419472406    H2369
    0.6713108254185904    0.0923736199278453    0.9943092752805739    H2370
    0.6713108254185904    0.4257069532611786    0.3276426086139073    H2371
    0.6713108254185904    0.4257069532611786    0.6609759419472406    H2372
    0.6713108254185904    0.4257069532611786    0.9943092752805739    H2373
    0.6713108254185904    0.7590402865945119    0.3276426086139073    H2374
    0.6713108254185904    0.7590402865945119    0.6609759419472406    H2375
    0.6713108254185904    0.7590402865945119    0.9943092752805739    H2376
    0.2575393225688720    0.9424161563272868    0.0259242241304858    H2377
    0.2575393225688720    0.9424161563272868    0.3592575574638192    H2378
    0.2575393225688720    0.9424161563272868    0.6925908907971525    H2379
    0.2575393225688720    0.2757494896606202    0.0259242241304858    H2380
    0.2575393225688720    0.2757494896606202    0.3592575574638192    H2381
    0.2575393225688720    0.2757494896606202    0.6925908907971525    H2382
    0.2575393225688720    0.6090828229939536    0.0259242241304858    H2383
    0.2575393225688720    0.6090828229939536    0.3592575574638192    H2384
    0.2575393225688720    0.6090828229939536    0.6925908907971525    H2385
    0.5908726559022054    0.9424161563272868    0.0259242241304858    H2386
    0.5908726559022054    0.9424161563272868    0.3592575574638192    H2387
    0.5908726559022054    0.9424161563272868    0.6925908907971525    H2388
    0.5908726559022054    0.2757494896606202    0.0259242241304858    H2389
    0.5908726559022054    0.2757494896606202    0.3592575574638192    H2390
    0.5908726559022054    0.2757494896606202    0.6925908907971525    H2391
    0.5908726559022054    0.6090828229939536    0.0259242241304858    H2392
    0.5908726559022054    0.6090828229939536    0.3592575574638192    H2393
    0.5908726559022054    0.6090828229939536    0.6925908907971525    H2394
    0.9242059892355388    0.9424161563272868    0.0259242241304858    H2395
    0.9242059892355388    0.9424161563272868    0.3592575574638192    H2396
    0.9242059892355388    0.9424161563272868    0.6925908907971525    H2397
    0.9242059892355388    0.2757494896606202    0.0259242241304858    H2398
    0.9242059892355388    0.2757494896606202    0.3592575574638192    H2399
    0.9242059892355388    0.2757494896606202    0.6925908907971525    H2400
    0.9242059892355388    0.6090828229939536    0.0259242241304858    H2401
    0.9242059892355388    0.6090828229939536    0.3592575574638192    H2402
    0.9242059892355388    0.6090828229939536    0.6925908907971525    H2403
    0.0377035882422512    0.0640254165691867    0.4664674070153443    H2404
    0.0377035882422512    0.0640254165691867    0.7998007403486777    H2405
    0.0377035882422512    0.0640254165691867    0.1331340736820109    H2406
    0.0377035882422512    0.3973587499025202    0.4664674070153443    H2407
    0.0377035882422512    0.3973587499025202    0.7998007403486777    H2408
    0.0377035882422512    0.3973587499025202    0.1331340736820109    H2409
    0.0377035882422512    0.7306920832358534    0.4664674070153443    H2410
    0.0377035882422512    0.7306920832358534    0.7998007403486777    H2411
    0.0377035882422512    0.7306920832358534    0.1331340736820109    H2412
    0.3710369215755844    0.0640254165691867    0.4664674070153443    H2413
    0.3710369215755844    0.0640254165691867    0.7998007403486777    H2414
    0.3710369215755844    0.0640254165691867    0.1331340736820109    H2415
    0.3710369215755844    0.3973587499025202    0.4664674070153443    H2416
    0.3710369215755844    0.3973587499025202    0.7998007403486777    H2417
    0.3710369215755844    0.3973587499025202    0.1331340736820109    H2418
    0.3710369215755844    0.7306920832358534    0.4664674070153443    H2419
    0.3710369215755844    0.7306920832358534    0.7998007403486777    H2420
    0.3710369215755844    0.7306920832358534    0.1331340736820109    H2421
    0.7043702549089178    0.0640254165691867    0.4664674070153443    H2422
    0.7043702549089178    0.0640254165691867    0.7998007403486777    H2423
    0.7043702549089178    0.0640254165691867    0.1331340736820109    H2424
    0.7043702549089178    0.3973587499025202    0.4664674070153443    H2425
    0.7043702549089178    0.3973587499025202    0.7998007403486777    H2426
    0.7043702549089178    0.3973587499025202    0.1331340736820109    H2427
    0.7043702549089178    0.7306920832358534    0.4664674070153443    H2428
    0.7043702549089178    0.7306920832358534    0.7998007403486777    H2429
    0.7043702549089178    0.7306920832358534    0.1331340736820109    H2430
    0.1882705088892453    0.0818109599402870    0.2540552008878819    H2431
    0.1882705088892453    0.0818109599402870    0.5873885342212152    H2432
    0.1882705088892453    0.0818109599402870    0.9207218675545484    H2433
    0.1882705088892453    0.4151442932736202    0.2540552008878819    H2434
    0.1882705088892453    0.4151442932736202    0.5873885342212152    H2435
    0.1882705088892453    0.4151442932736202    0.9207218675545484    H2436
    0.1882705088892453    0.7484776266069535    0.2540552008878819    H2437
    0.1882705088892453    0.7484776266069535    0.5873885342212152    H2438
    0.1882705088892453    0.7484776266069535    0.9207218675545484    H2439
    0.5216038422225786    0.0818109599402870    0.2540552008878819    H2440
    0.5216038422225786    0.0818109599402870    0.5873885342212152    H2441
    0.5216038422225786    0.0818109599402870    0.9207218675545484    H2442
    0.5216038422225786    0.4151442932736202    0.2540552008878819    H2443
    0.5216038422225786    0.4151442932736202    0.5873885342212152    H2444
    0.5216038422225786    0.4151442932736202    0.9207218675545484    H2445
    0.5216038422225786    0.7484776266069535    0.2540552008878819    H2446
    0.5216038422225786    0.7484776266069535    0.5873885342212152    H2447
    0.5216038422225786    0.7484776266069535    0.9207218675545484    H2448
    0.8549371755559120    0.0818109599402870    0.2540552008878819    H2449
    0.8549371755559120    0.0818109599402870    0.5873885342212152    H2450
    0.8549371755559120    0.0818109599402870    0.9207218675545484    H2451
    0.8549371755559120    0.4151442932736202    0.2540552008878819    H2452
    0.8549371755559120    0.4151442932736202    0.5873885342212152    H2453
    0.8549371755559120    0.4151442932736202    0.9207218675545484    H2454
    0.8549371755559120    0.7484776266069535    0.2540552008878819    H2455
    0.8549371755559120    0.7484776266069535    0.5873885342212152    H2456
    0.8549371755559120    0.7484776266069535    0.9207218675545484    H2457
    0.9916665674353411    0.9668917332706268    0.4259920347449543    H2458
    0.9916665674353411    0.9668917332706268    0.7593253680782877    H2459
    0.9916665674353411    0.9668917332706268    0.0926587014116209    H2460
    0.9916665674353411    0.3002250666039602    0.4259920347449543    H2461
    0.9916665674353411    0.3002250666039602    0.7593253680782877    H2462
    0.9916665674353411    0.3002250666039602    0.0926587014116209    H2463
    0.9916665674353411    0.6335583999372936    0.4259920347449543    H2464
    0.9916665674353411    0.6335583999372936    0.7593253680782877    H2465
    0.9916665674353411    0.6335583999372936    0.0926587014116209    H2466
    0.3249999007686744    0.9668917332706268    0.4259920347449543    H2467
    0.3249999007686744    0.9668917332706268    0.7593253680782877    H2468
    0.3249999007686744    0.9668917332706268    0.0926587014116209    H2469
    0.3249999007686744    0.3002250666039602    0.4259920347449543    H2470
    0.3249999007686744    0.3002250666039602    0.7593253680782877    H2471
    0.3249999007686744    0.3002250666039602    0.0926587014116209    H2472
    0.3249999007686744    0.6335583999372936    0.4259920347449543    H2473
    0.3249999007686744    0.6335583999372936    0.7593253680782877    H2474
    0.3249999007686744    0.6335583999372936    0.0926587014116209    H2475
    0.6583332341020077    0.9668917332706268    0.4259920347449543    H2476
    0.6583332341020077    0.9668917332706268    0.7593253680782877    H2477
    0.6583332341020077    0.9668917332706268    0.0926587014116209    H2478
    0.6583332341020077    0.3002250666039602    0.4259920347449543    H2479
    0.6583332341020077    0.3002250666039602    0.7593253680782877    H2480
    0.6583332341020077    0.3002250666039602    0.0926587014116209    H2481
    0.6583332341020077    0.6335583999372936    0.4259920347449543    H2482
    0.6583332341020077    0.6335583999372936    0.7593253680782877    H2483
    0.6583332341020077    0.6335583999372936    0.0926587014116209    H2484
    0.9920239100739479    0.9674710778680287    0.3106992180025139    H2485
    0.9920239100739479    0.9674710778680287    0.6440325513358472    H2486
    0.9920239100739479    0.9674710778680287    0.9773658846691806    H2487
    0.9920239100739479    0.3008044112013619    0.3106992180025139    H2488
    0.9920239100739479    0.3008044112013619    0.6440325513358472    H2489
    0.9920239100739479    0.3008044112013619    0.9773658846691806    H2490
    0.9920239100739479    0.6341377445346952    0.3106992180025139    H2491
    0.9920239100739479    0.6341377445346952    0.6440325513358472    H2492
    0.9920239100739479    0.6341377445346952    0.9773658846691806    H2493
    0.3253572434072811    0.9674710778680287    0.3106992180025139    H2494
    0.3253572434072811    0.9674710778680287    0.6440325513358472    H2495
    0.3253572434072811    0.9674710778680287    0.9773658846691806    H2496
    0.3253572434072811    0.3008044112013619    0.3106992180025139    H2497
    0.3253572434072811    0.3008044112013619    0.6440325513358472    H2498
    0.3253572434072811    0.3008044112013619    0.9773658846691806    H2499
    0.3253572434072811    0.6341377445346952    0.3106992180025139    H2500
    0.3253572434072811    0.6341377445346952    0.6440325513358472    H2501
    0.3253572434072811    0.6341377445346952    0.9773658846691806    H2502
    0.6586905767406145    0.9674710778680287    0.3106992180025139    H2503
    0.6586905767406145    0.9674710778680287    0.6440325513358472    H2504
    0.6586905767406145    0.9674710778680287    0.9773658846691806    H2505
    0.6586905767406145    0.3008044112013619    0.3106992180025139    H2506
    0.6586905767406145    0.3008044112013619    0.6440325513358472    H2507
    0.6586905767406145    0.3008044112013619    0.9773658846691806    H2508
    0.6586905767406145    0.6341377445346952    0.3106992180025139    H2509
    0.6586905767406145    0.6341377445346952    0.6440325513358472    H2510
    0.6586905767406145    0.6341377445346952    0.9773658846691806    H2511
    0.9271588059852858    0.0198222518239839    0.1855563369789234    H2512
    0.9271588059852858    0.0198222518239839    0.5188896703122567    H2513
    0.9271588059852858    0.0198222518239839    0.8522230036455900    H2514
    0.9271588059852858    0.3531555851573173    0.1855563369789234    H2515
    0.9271588059852858    0.3531555851573173    0.5188896703122567    H2516
    0.9271588059852858    0.3531555851573173    0.8522230036455900    H2517
    0.9271588059852858    0.6864889184906505    0.1855563369789234    H2518
    0.9271588059852858    0.6864889184906505    0.5188896703122567    H2519
    0.9271588059852858    0.6864889184906505    0.8522230036455900    H2520
    0.2604921393186190    0.0198222518239839    0.1855563369789234    H2521
    0.2604921393186190    0.0198222518239839    0.5188896703122567    H2522
    0.2604921393186190    0.0198222518239839    0.8522230036455900    H2523
    0.2604921393186190    0.3531555851573173    0.1855563369789234    H2524
    0.2604921393186190    0.3531555851573173    0.5188896703122567    H2525
    0.2604921393186190    0.3531555851573173    0.8522230036455900    H2526
    0.2604921393186190    0.6864889184906505    0.1855563369789234    H2527
    0.2604921393186190    0.6864889184906505    0.5188896703122567    H2528
    0.2604921393186190    0.6864889184906505    0.8522230036455900    H2529
    0.5938254726519525    0.0198222518239839    0.1855563369789234    H2530
    0.5938254726519525    0.0198222518239839    0.5188896703122567    H2531
    0.5938254726519525    0.0198222518239839    0.8522230036455900    H2532
    0.5938254726519525    0.3531555851573173    0.1855563369789234    H2533
    0.5938254726519525    0.3531555851573173    0.5188896703122567    H2534
    0.5938254726519525    0.3531555851573173    0.8522230036455900    H2535
    0.5938254726519525    0.6864889184906505    0.1855563369789234    H2536
    0.5938254726519525    0.6864889184906505    0.5188896703122567    H2537
    0.5938254726519525    0.6864889184906505    0.8522230036455900    H2538
    0.3399508661035333    0.9837955077773208    0.3330953553238709    H2539
    0.3399508661035333    0.9837955077773208    0.6664286886572043    H2540
    0.3399508661035333    0.9837955077773208    0.9997620219905375    H2541
    0.3399508661035333    0.3171288411106542    0.3330953553238709    H2542
    0.3399508661035333    0.3171288411106542    0.6664286886572043    H2543
    0.3399508661035333    0.3171288411106542    0.9997620219905375    H2544
    0.3399508661035333    0.6504621744439876    0.3330953553238709    H2545
    0.3399508661035333    0.6504621744439876    0.6664286886572043    H2546
    0.3399508661035333    0.6504621744439876    0.9997620219905375    H2547
    0.6732841994368666    0.9837955077773208    0.3330953553238709    H2548
    0.6732841994368666    0.9837955077773208    0.6664286886572043    H2549
    0.6732841994368666    0.9837955077773208    0.9997620219905375    H2550
    0.6732841994368666    0.3171288411106542    0.3330953553238709    H2551
    0.6732841994368666    0.3171288411106542    0.6664286886572043    H2552
    0.6732841994368666    0.3171288411106542    0.9997620219905375    H2553
    0.6732841994368666    0.6504621744439876    0.3330953553238709    H2554
    0.6732841994368666    0.6504621744439876    0.6664286886572043    H2555
    0.6732841994368666    0.6504621744439876    0.9997620219905375    H2556
    0.0066175327701999    0.9837955077773208    0.3330953553238709    H2557
    0.0066175327701999    0.9837955077773208    0.6664286886572043    H2558
    0.0066175327701999    0.9837955077773208    0.9997620219905375    H2559
    0.0066175327701999    0.3171288411106542    0.3330953553238709    H2560
    0.0066175327701999    0.3171288411106542    0.6664286886572043    H2561
    0.0066175327701999    0.3171288411106542    0.9997620219905375    H2562
    0.0066175327701999    0.6504621744439876    0.3330953553238709    H2563
    0.0066175327701999    0.6504621744439876    0.6664286886572043    H2564
    0.0066175327701999    0.6504621744439876    0.9997620219905375    H2565
    0.1737683537483630    0.0438853703190276    0.3396141984847871    H2566
    0.1737683537483630    0.0438853703190276    0.6729475318181204    H2567
    0.1737683537483630    0.0438853703190276    0.0062808651514537    H2568
    0.1737683537483630    0.3772187036523609    0.3396141984847871    H2569
    0.1737683537483630    0.3772187036523609    0.6729475318181204    H2570
    0.1737683537483630    0.3772187036523609    0.0062808651514537    H2571
    0.1737683537483630    0.7105520369856942    0.3396141984847871    H2572
    0.1737683537483630    0.7105520369856942    0.6729475318181204    H2573
    0.1737683537483630    0.7105520369856942    0.0062808651514537    H2574
    0.5071016870816963    0.0438853703190276    0.3396141984847871    H2575
    0.5071016870816963    0.0438853703190276    0.6729475318181204    H2576
    0.5071016870816963    0.0438853703190276    0.0062808651514537    H2577
    0.5071016870816963    0.3772187036523609    0.3396141984847871    H2578
    0.5071016870816963    0.3772187036523609    0.6729475318181204    H2579
    0.5071016870816963    0.3772187036523609    0.0062808651514537    H2580
    0.5071016870816963    0.7105520369856942    0.3396141984847871    H2581
    0.5071016870816963    0.7105520369856942    0.6729475318181204    H2582
    0.5071016870816963    0.7105520369856942    0.0062808651514537    H2583
    0.8404350204150297    0.0438853703190276    0.3396141984847871    H2584
    0.8404350204150297    0.0438853703190276    0.6729475318181204    H2585
    0.8404350204150297    0.0438853703190276    0.0062808651514537    H2586
    0.8404350204150297    0.3772187036523609    0.3396141984847871    H2587
    0.8404350204150297    0.3772187036523609    0.6729475318181204    H2588
    0.8404350204150297    0.3772187036523609    0.0062808651514537    H2589
    0.8404350204150297    0.7105520369856942    0.3396141984847871    H2590
    0.8404350204150297    0.7105520369856942    0.6729475318181204    H2591
    0.8404350204150297    0.7105520369856942    0.0062808651514537    H2592
    0.0316696759096440    0.1677297772339317    0.2226342398722523    H2593
    0.0316696759096440    0.1677297772339317    0.5559675732055855    H2594
    0.0316696759096440    0.1677297772339317    0.8893009065389189    H2595
    0.0316696759096440    0.5010631105672649    0.2226342398722523    H2596
    0.0316696759096440    0.5010631105672649    0.5559675732055855    H2597
    0.0316696759096440    0.5010631105672649    0.8893009065389189    H2598
    0.0316696759096440    0.8343964439005982    0.2226342398722523    H2599
    0.0316696759096440    0.8343964439005982    0.5559675732055855    H2600
    0.0316696759096440    0.8343964439005982    0.8893009065389189    H2601
    0.3650030092429772    0.1677297772339317    0.2226342398722523    H2602
    0.3650030092429772    0.1677297772339317    0.5559675732055855    H2603
    0.3650030092429772    0.1677297772339317    0.8893009065389189    H2604
    0.3650030092429772    0.5010631105672649    0.2226342398722523    H2605
    0.3650030092429772    0.5010631105672649    0.5559675732055855    H2606
    0.3650030092429772    0.5010631105672649    0.8893009065389189    H2607
    0.3650030092429772    0.8343964439005982    0.2226342398722523    H2608
    0.3650030092429772    0.8343964439005982    0.5559675732055855    H2609
    0.3650030092429772    0.8343964439005982    0.8893009065389189    H2610
    0.6983363425763105    0.1677297772339317    0.2226342398722523    H2611
    0.6983363425763105    0.1677297772339317    0.5559675732055855    H2612
    0.6983363425763105    0.1677297772339317    0.8893009065389189    H2613
    0.6983363425763105    0.5010631105672649    0.2226342398722523    H2614
    0.6983363425763105    0.5010631105672649    0.5559675732055855    H2615
    0.6983363425763105    0.5010631105672649    0.8893009065389189    H2616
    0.6983363425763105    0.8343964439005982    0.2226342398722523    H2617
    0.6983363425763105    0.8343964439005982    0.5559675732055855    H2618
    0.6983363425763105    0.8343964439005982    0.8893009065389189    H2619
    0.3727540451850739    0.9546369519574129    0.2770449814475231    H2620
    0.3727540451850739    0.9546369519574129    0.6103783147808564    H2621
    0.3727540451850739    0.9546369519574129    0.9437116481141897    H2622
    0.3727540451850739    0.2879702852907462    0.2770449814475231    H2623
    0.3727540451850739    0.2879702852907462    0.6103783147808564    H2624
    0.3727540451850739    0.2879702852907462    0.9437116481141897    H2625
    0.3727540451850739    0.6213036186240796    0.2770449814475231    H2626
    0.3727540451850739    0.6213036186240796    0.6103783147808564    H2627
    0.3727540451850739    0.6213036186240796    0.9437116481141897    H2628
    0.7060873785184073    0.9546369519574129    0.2770449814475231    H2629
    0.7060873785184073    0.9546369519574129    0.6103783147808564    H2630
    0.7060873785184073    0.9546369519574129    0.9437116481141897    H2631
    0.7060873785184073    0.2879702852907462    0.2770449814475231    H2632
    0.7060873785184073    0.2879702852907462    0.6103783147808564    H2633
    0.7060873785184073    0.2879702852907462    0.9437116481141897    H2634
    0.7060873785184073    0.6213036186240796    0.2770449814475231    H2635
    0.7060873785184073    0.6213036186240796    0.6103783147808564    H2636
    0.7060873785184073    0.6213036186240796    0.9437116481141897    H2637
    0.0394207118517406    0.9546369519574129    0.2770449814475231    H2638
    0.0394207118517406    0.9546369519574129    0.6103783147808564    H2639
    0.0394207118517406    0.9546369519574129    0.9437116481141897    H2640
    0.0394207118517406    0.2879702852907462    0.2770449814475231    H2641
    0.0394207118517406    0.2879702852907462    0.6103783147808564    H2642
    0.0394207118517406    0.2879702852907462    0.9437116481141897    H2643
    0.0394207118517406    0.6213036186240796    0.2770449814475231    H2644
    0.0394207118517406    0.6213036186240796    0.6103783147808564    H2645
    0.0394207118517406    0.6213036186240796    0.9437116481141897    H2646
    0.1620812171668596    0.2345598214430413    0.2865424178022233    H2647
    0.1620812171668596    0.2345598214430413    0.6198757511355567    H2648
    0.1620812171668596    0.2345598214430413    0.9532090844688901    H2649
    0.1620812171668596    0.5678931547763746    0.2865424178022233    H2650
    0.1620812171668596    0.5678931547763746    0.6198757511355567    H2651
    0.1620812171668596    0.5678931547763746    0.9532090844688901    H2652
    0.1620812171668596    0.9012264881097080    0.2865424178022233    H2653
    0.1620812171668596    0.9012264881097080    0.6198757511355567    H2654
    0.1620812171668596    0.9012264881097080    0.9532090844688901    H2655
    0.4954145505001930    0.2345598214430413    0.2865424178022233    H2656
    0.4954145505001930    0.2345598214430413    0.6198757511355567    H2657
    0.4954145505001930    0.2345598214430413    0.9532090844688901    H2658
    0.4954145505001930    0.5678931547763746    0.2865424178022233    H2659
    0.4954145505001930    0.5678931547763746    0.6198757511355567    H2660
    0.4954145505001930    0.5678931547763746    0.9532090844688901    H2661
    0.4954145505001930    0.9012264881097080    0.2865424178022233    H2662
    0.4954145505001930    0.9012264881097080    0.6198757511355567    H2663
    0.4954145505001930    0.9012264881097080    0.9532090844688901    H2664
    0.8287478838335263    0.2345598214430413    0.2865424178022233    H2665
    0.8287478838335263    0.2345598214430413    0.6198757511355567    H2666
    0.8287478838335263    0.2345598214430413    0.9532090844688901    H2667
    0.8287478838335263    0.5678931547763746    0.2865424178022233    H2668
    0.8287478838335263    0.5678931547763746    0.6198757511355567    H2669
    0.8287478838335263    0.5678931547763746    0.9532090844688901    H2670
    0.8287478838335263    0.9012264881097080    0.2865424178022233    H2671
    0.8287478838335263    0.9012264881097080    0.6198757511355567    H2672
    0.8287478838335263    0.9012264881097080    0.9532090844688901    H2673
    0.1275482881445988    0.1018099179122125    0.2868784843067111    H2674
    0.1275482881445988    0.1018099179122125    0.6202118176400444    H2675
    0.1275482881445988    0.1018099179122125    0.9535451509733777    H2676
    0.1275482881445988    0.4351432512455458    0.2868784843067111    H2677
    0.1275482881445988    0.4351432512455458    0.6202118176400444    H2678
    0.1275482881445988    0.4351432512455458    0.9535451509733777    H2679
    0.1275482881445988    0.7684765845788791    0.2868784843067111    H2680
    0.1275482881445988    0.7684765845788791    0.6202118176400444    H2681
    0.1275482881445988    0.7684765845788791    0.9535451509733777    H2682
    0.4608816214779321    0.1018099179122125    0.2868784843067111    H2683
    0.4608816214779321    0.1018099179122125    0.6202118176400444    H2684
    0.4608816214779321    0.1018099179122125    0.9535451509733777    H2685
    0.4608816214779321    0.4351432512455458    0.2868784843067111    H2686
    0.4608816214779321    0.4351432512455458    0.6202118176400444    H2687
    0.4608816214779321    0.4351432512455458    0.9535451509733777    H2688
    0.4608816214779321    0.7684765845788791    0.2868784843067111    H2689
    0.4608816214779321    0.7684765845788791    0.6202118176400444    H2690
    0.4608816214779321    0.7684765845788791    0.9535451509733777    H2691
    0.7942149548112655    0.1018099179122125    0.2868784843067111    H2692
    0.7942149548112655    0.1018099179122125    0.6202118176400444    H2693
    0.7942149548112655    0.1018099179122125    0.9535451509733777    H2694
    0.7942149548112655    0.4351432512455458    0.2868784843067111    H2695
    0.7942149548112655    0.4351432512455458    0.6202118176400444    H2696
    0.7942149548112655    0.4351432512455458    0.9535451509733777    H2697
    0.7942149548112655    0.7684765845788791    0.2868784843067111    H2698
    0.7942149548112655    0.7684765845788791    0.6202118176400444    H2699
    0.7942149548112655    0.7684765845788791    0.9535451509733777    H2700
    0.1563008745010279    0.1043622738560400    0.3184322740217403    H2701
    0.1563008745010279    0.1043622738560400    0.6517656073550737    H2702
    0.1563008745010279    0.1043622738560400    0.9850989406884070    H2703
    0.1563008745010279    0.4376956071893733    0.3184322740217403    H2704
    0.1563008745010279    0.4376956071893733    0.6517656073550737    H2705
    0.1563008745010279    0.4376956071893733    0.9850989406884070    H2706
    0.1563008745010279    0.7710289405227067    0.3184322740217403    H2707
    0.1563008745010279    0.7710289405227067    0.6517656073550737    H2708
    0.1563008745010279    0.7710289405227067    0.9850989406884070    H2709
    0.4896342078343614    0.1043622738560400    0.3184322740217403    H2710
    0.4896342078343614    0.1043622738560400    0.6517656073550737    H2711
    0.4896342078343614    0.1043622738560400    0.9850989406884070    H2712
    0.4896342078343614    0.4376956071893733    0.3184322740217403    H2713
    0.4896342078343614    0.4376956071893733    0.6517656073550737    H2714
    0.4896342078343614    0.4376956071893733    0.9850989406884070    H2715
    0.4896342078343614    0.7710289405227067    0.3184322740217403    H2716
    0.4896342078343614    0.7710289405227067    0.6517656073550737    H2717
    0.4896342078343614    0.7710289405227067    0.9850989406884070    H2718
    0.8229675411676947    0.1043622738560400    0.3184322740217403    H2719
    0.8229675411676947    0.1043622738560400    0.6517656073550737    H2720
    0.8229675411676947    0.1043622738560400    0.9850989406884070    H2721
    0.8229675411676947    0.4376956071893733    0.3184322740217403    H2722
    0.8229675411676947    0.4376956071893733    0.6517656073550737    H2723
    0.8229675411676947    0.4376956071893733    0.9850989406884070    H2724
    0.8229675411676947    0.7710289405227067    0.3184322740217403    H2725
    0.8229675411676947    0.7710289405227067    0.6517656073550737    H2726
    0.8229675411676947    0.7710289405227067    0.9850989406884070    H2727
    0.9407495413986013    0.2196477680795822    0.2613267964080278    H2728
    0.9407495413986013    0.2196477680795822    0.5946601297413612    H2729
    0.9407495413986013    0.2196477680795822    0.9279934630746944    H2730
    0.9407495413986013    0.5529811014129156    0.2613267964080278    H2731
    0.9407495413986013    0.5529811014129156    0.5946601297413612    H2732
    0.9407495413986013    0.5529811014129156    0.9279934630746944    H2733
    0.9407495413986013    0.8863144347462488    0.2613267964080278    H2734
    0.9407495413986013    0.8863144347462488    0.5946601297413612    H2735
    0.9407495413986013    0.8863144347462488    0.9279934630746944    H2736
    0.2740828747319346    0.2196477680795822    0.2613267964080278    H2737
    0.2740828747319346    0.2196477680795822    0.5946601297413612    H2738
    0.2740828747319346    0.2196477680795822    0.9279934630746944    H2739
    0.2740828747319346    0.5529811014129156    0.2613267964080278    H2740
    0.2740828747319346    0.5529811014129156    0.5946601297413612    H2741
    0.2740828747319346    0.5529811014129156    0.9279934630746944    H2742
    0.2740828747319346    0.8863144347462488    0.2613267964080278    H2743
    0.2740828747319346    0.8863144347462488    0.5946601297413612    H2744
    0.2740828747319346    0.8863144347462488    0.9279934630746944    H2745
    0.6074162080652679    0.2196477680795822    0.2613267964080278    H2746
    0.6074162080652679    0.2196477680795822    0.5946601297413612    H2747
    0.6074162080652679    0.2196477680795822    0.9279934630746944    H2748
    0.6074162080652679    0.5529811014129156    0.2613267964080278    H2749
    0.6074162080652679    0.5529811014129156    0.5946601297413612    H2750
    0.6074162080652679    0.5529811014129156    0.9279934630746944    H2751
    0.6074162080652679    0.8863144347462488    0.2613267964080278    H2752
    0.6074162080652679    0.8863144347462488    0.5946601297413612    H2753
    0.6074162080652679    0.8863144347462488    0.9279934630746944    H2754
    0.0178751678777154    0.0471583161781982    0.2572252313733795    H2755
    0.0178751678777154    0.0471583161781982    0.5905585647067128    H2756
    0.0178751678777154    0.0471583161781982    0.9238918980400460    H2757
    0.0178751678777154    0.3804916495115316    0.2572252313733795    H2758
    0.0178751678777154    0.3804916495115316    0.5905585647067128    H2759
    0.0178751678777154    0.3804916495115316    0.9238918980400460    H2760
    0.0178751678777154    0.7138249828448648    0.2572252313733795    H2761
    0.0178751678777154    0.7138249828448648    0.5905585647067128    H2762
    0.0178751678777154    0.7138249828448648    0.9238918980400460    H2763
    0.3512085012110487    0.0471583161781982    0.2572252313733795    H2764
    0.3512085012110487    0.0471583161781982    0.5905585647067128    H2765
    0.3512085012110487    0.0471583161781982    0.9238918980400460    H2766
    0.3512085012110487    0.3804916495115316    0.2572252313733795    H2767
    0.3512085012110487    0.3804916495115316    0.5905585647067128    H2768
    0.3512085012110487    0.3804916495115316    0.9238918980400460    H2769
    0.3512085012110487    0.7138249828448648    0.2572252313733795    H2770
    0.3512085012110487    0.7138249828448648    0.5905585647067128    H2771
    0.3512085012110487    0.7138249828448648    0.9238918980400460    H2772
    0.6845418345443821    0.0471583161781982    0.2572252313733795    H2773
    0.6845418345443821    0.0471583161781982    0.5905585647067128    H2774
    0.6845418345443821    0.0471583161781982    0.9238918980400460    H2775
    0.6845418345443821    0.3804916495115316    0.2572252313733795    H2776
    0.6845418345443821    0.3804916495115316    0.5905585647067128    H2777
    0.6845418345443821    0.3804916495115316    0.9238918980400460    H2778
    0.6845418345443821    0.7138249828448648    0.2572252313733795    H2779
    0.6845418345443821    0.7138249828448648    0.5905585647067128    H2780
    0.6845418345443821    0.7138249828448648    0.9238918980400460    H2781
    0.0605046625978355    0.2365678231014845    0.1239528485431144    H2782
    0.0605046625978355    0.2365678231014845    0.4572861818764478    H2783
    0.0605046625978355    0.2365678231014845    0.7906195152097810    H2784
    0.0605046625978355    0.5699011564348178    0.1239528485431144    H2785
    0.0605046625978355    0.5699011564348178    0.4572861818764478    H2786
    0.0605046625978355    0.5699011564348178    0.7906195152097810    H2787
    0.0605046625978355    0.9032344897681510    0.1239528485431144    H2788
    0.0605046625978355    0.9032344897681510    0.4572861818764478    H2789
    0.0605046625978355    0.9032344897681510    0.7906195152097810    H2790
    0.3938379959311689    0.2365678231014845    0.1239528485431144    H2791
    0.3938379959311689    0.2365678231014845    0.4572861818764478    H2792
    0.3938379959311689    0.2365678231014845    0.7906195152097810    H2793
    0.3938379959311689    0.5699011564348178    0.1239528485431144    H2794
    0.3938379959311689    0.5699011564348178    0.4572861818764478    H2795
    0.3938379959311689    0.5699011564348178    0.7906195152097810    H2796
    0.3938379959311689    0.9032344897681510    0.1239528485431144    H2797
    0.3938379959311689    0.9032344897681510    0.4572861818764478    H2798
    0.3938379959311689    0.9032344897681510    0.7906195152097810    H2799
    0.7271713292645021    0.2365678231014845    0.1239528485431144    H2800
    0.7271713292645021    0.2365678231014845    0.4572861818764478    H2801
    0.7271713292645021    0.2365678231014845    0.7906195152097810    H2802
    0.7271713292645021    0.5699011564348178    0.1239528485431144    H2803
    0.7271713292645021    0.5699011564348178    0.4572861818764478    H2804
    0.7271713292645021    0.5699011564348178    0.7906195152097810    H2805
    0.7271713292645021    0.9032344897681510    0.1239528485431144    H2806
    0.7271713292645021    0.9032344897681510    0.4572861818764478    H2807
    0.7271713292645021    0.9032344897681510    0.7906195152097810    H2808
    0.0536750596213056    0.0228263545669638    0.2546740352690307    H2809
    0.0536750596213056    0.0228263545669638    0.5880073686023640    H2810
    0.0536750596213056    0.0228263545669638    0.9213407019356973    H2811
    0.0536750596213056    0.3561596879002971    0.2546740352690307    H2812
    0.0536750596213056    0.3561596879002971    0.5880073686023640    H2813
    0.0536750596213056    0.3561596879002971    0.9213407019356973    H2814
    0.0536750596213056    0.6894930212336303    0.2546740352690307    H2815
    0.0536750596213056    0.6894930212336303    0.5880073686023640    H2816
    0.0536750596213056    0.6894930212336303    0.9213407019356973    H2817
    0.3870083929546388    0.0228263545669638    0.2546740352690307    H2818
    0.3870083929546388    0.0228263545669638    0.5880073686023640    H2819
    0.3870083929546388    0.0228263545669638    0.9213407019356973    H2820
    0.3870083929546388    0.3561596879002971    0.2546740352690307    H2821
    0.3870083929546388    0.3561596879002971    0.5880073686023640    H2822
    0.3870083929546388    0.3561596879002971    0.9213407019356973    H2823
    0.3870083929546388    0.6894930212336303    0.2546740352690307    H2824
    0.3870083929546388    0.6894930212336303    0.5880073686023640    H2825
    0.3870083929546388    0.6894930212336303    0.9213407019356973    H2826
    0.7203417262879721    0.0228263545669638    0.2546740352690307    H2827
    0.7203417262879721    0.0228263545669638    0.5880073686023640    H2828
    0.7203417262879721    0.0228263545669638    0.9213407019356973    H2829
    0.7203417262879721    0.3561596879002971    0.2546740352690307    H2830
    0.7203417262879721    0.3561596879002971    0.5880073686023640    H2831
    0.7203417262879721    0.3561596879002971    0.9213407019356973    H2832
    0.7203417262879721    0.6894930212336303    0.2546740352690307    H2833
    0.7203417262879721    0.6894930212336303    0.5880073686023640    H2834
    0.7203417262879721    0.6894930212336303    0.9213407019356973    H2835
    0.2118685445547417    0.0492491165670390    0.2099323553483686    H2836
    0.2118685445547417    0.0492491165670390    0.5432656886817020    H2837
    0.2118685445547417    0.0492491165670390    0.8765990220150353    H2838
    0.2118685445547417    0.3825824499003724    0.2099323553483686    H2839
    0.2118685445547417    0.3825824499003724    0.5432656886817020    H2840
    0.2118685445547417    0.3825824499003724    0.8765990220150353    H2841
    0.2118685445547417    0.7159157832337057    0.2099323553483686    H2842
    0.2118685445547417    0.7159157832337057    0.5432656886817020    H2843
    0.2118685445547417    0.7159157832337057    0.8765990220150353    H2844
    0.5452018778880752    0.0492491165670390    0.2099323553483686    H2845
    0.5452018778880752    0.0492491165670390    0.5432656886817020    H2846
    0.5452018778880752    0.0492491165670390    0.8765990220150353    H2847
    0.5452018778880752    0.3825824499003724    0.2099323553483686    H2848
    0.5452018778880752    0.3825824499003724    0.5432656886817020    H2849
    0.5452018778880752    0.3825824499003724    0.8765990220150353    H2850
    0.5452018778880752    0.7159157832337057    0.2099323553483686    H2851
    0.5452018778880752    0.7159157832337057    0.5432656886817020    H2852
    0.5452018778880752    0.7159157832337057    0.8765990220150353    H2853
    0.8785352112214084    0.0492491165670390    0.2099323553483686    H2854
    0.8785352112214084    0.0492491165670390    0.5432656886817020    H2855
    0.8785352112214084    0.0492491165670390    0.8765990220150353    H2856
    0.8785352112214084    0.3825824499003724    0.2099323553483686    H2857
    0.8785352112214084    0.3825824499003724    0.5432656886817020    H2858
    0.8785352112214084    0.3825824499003724    0.8765990220150353    H2859
    0.8785352112214084    0.7159157832337057    0.2099323553483686    H2860
    0.8785352112214084    0.7159157832337057    0.5432656886817020    H2861
    0.8785352112214084    0.7159157832337057    0.8765990220150353    H2862
    0.0400159434420199    0.0485085277590065    0.3016524306977111    H2863
    0.0400159434420199    0.0485085277590065    0.6349857640310445    H2864
    0.0400159434420199    0.0485085277590065    0.9683190973643777    H2865
    0.0400159434420199    0.3818418610923399    0.3016524306977111    H2866
    0.0400159434420199    0.3818418610923399    0.6349857640310445    H2867
    0.0400159434420199    0.3818418610923399    0.9683190973643777    H2868
    0.0400159434420199    0.7151751944256731    0.3016524306977111    H2869
    0.0400159434420199    0.7151751944256731    0.6349857640310445    H2870
    0.0400159434420199    0.7151751944256731    0.9683190973643777    H2871
    0.3733492767753532    0.0485085277590065    0.3016524306977111    H2872
    0.3733492767753532    0.0485085277590065    0.6349857640310445    H2873
    0.3733492767753532    0.0485085277590065    0.9683190973643777    H2874
    0.3733492767753532    0.3818418610923399    0.3016524306977111    H2875
    0.3733492767753532    0.3818418610923399    0.6349857640310445    H2876
    0.3733492767753532    0.3818418610923399    0.9683190973643777    H2877
    0.3733492767753532    0.7151751944256731    0.3016524306977111    H2878
    0.3733492767753532    0.7151751944256731    0.6349857640310445    H2879
    0.3733492767753532    0.7151751944256731    0.9683190973643777    H2880
    0.7066826101086865    0.0485085277590065    0.3016524306977111    H2881
    0.7066826101086865    0.0485085277590065    0.6349857640310445    H2882
    0.7066826101086865    0.0485085277590065    0.9683190973643777    H2883
    0.7066826101086865    0.3818418610923399    0.3016524306977111    H2884
    0.7066826101086865    0.3818418610923399    0.6349857640310445    H2885
    0.7066826101086865    0.3818418610923399    0.9683190973643777    H2886
    0.7066826101086865    0.7151751944256731    0.3016524306977111    H2887
    0.7066826101086865    0.7151751944256731    0.6349857640310445    H2888
    0.7066826101086865    0.7151751944256731    0.9683190973643777    H2889
    0.2435817408774317    0.9126976637490780    0.9794334222802732    H2890
    0.2435817408774317    0.9126976637490780    0.3127667556136065    H2891
    0.2435817408774317    0.9126976637490780    0.6461000889469397    H2892
    0.2435817408774317    0.2460309970824113    0.9794334222802732    H2893
    0.2435817408774317    0.2460309970824113    0.3127667556136065    H2894
    0.2435817408774317    0.2460309970824113    0.6461000889469397    H2895
    0.2435817408774317    0.5793643304157446    0.9794334222802732    H2896
    0.2435817408774317    0.5793643304157446    0.3127667556136065    H2897
    0.2435817408774317    0.5793643304157446    0.6461000889469397    H2898
    0.5769150742107650    0.9126976637490780    0.9794334222802732    H2899
    0.5769150742107650    0.9126976637490780    0.3127667556136065    H2900
    0.5769150742107650    0.9126976637490780    0.6461000889469397    H2901
    0.5769150742107650    0.2460309970824113    0.9794334222802732    H2902
    0.5769150742107650    0.2460309970824113    0.3127667556136065    H2903
    0.5769150742107650    0.2460309970824113    0.6461000889469397    H2904
    0.5769150742107650    0.5793643304157446    0.9794334222802732    H2905
    0.5769150742107650    0.5793643304157446    0.3127667556136065    H2906
    0.5769150742107650    0.5793643304157446    0.6461000889469397    H2907
    0.9102484075440984    0.9126976637490780    0.9794334222802732    H2908
    0.9102484075440984    0.9126976637490780    0.3127667556136065    H2909
    0.9102484075440984    0.9126976637490780    0.6461000889469397    H2910
    0.9102484075440984    0.2460309970824113    0.9794334222802732    H2911
    0.9102484075440984    0.2460309970824113    0.3127667556136065    H2912
    0.9102484075440984    0.2460309970824113    0.6461000889469397    H2913
    0.9102484075440984    0.5793643304157446    0.9794334222802732    H2914
    0.9102484075440984    0.5793643304157446    0.3127667556136065    H2915
    0.9102484075440984    0.5793643304157446    0.6461000889469397    H2916
    0.1171401844182495    0.0297195991464527    0.2739245147842917    H2917
    0.1171401844182495    0.0297195991464527    0.6072578481176250    H2918
    0.1171401844182495    0.0297195991464527    0.9405911814509583    H2919
    0.1171401844182495    0.3630529324797860    0.2739245147842917    H2920
    0.1171401844182495    0.3630529324797860    0.6072578481176250    H2921
    0.1171401844182495    0.3630529324797860    0.9405911814509583    H2922
    0.1171401844182495    0.6963862658131194    0.2739245147842917    H2923
    0.1171401844182495    0.6963862658131194    0.6072578481176250    H2924
    0.1171401844182495    0.6963862658131194    0.9405911814509583    H2925
    0.4504735177515828    0.0297195991464527    0.2739245147842917    H2926
    0.4504735177515828    0.0297195991464527    0.6072578481176250    H2927
    0.4504735177515828    0.0297195991464527    0.9405911814509583    H2928
    0.4504735177515828    0.3630529324797860    0.2739245147842917    H2929
    0.4504735177515828    0.3630529324797860    0.6072578481176250    H2930
    0.4504735177515828    0.3630529324797860    0.9405911814509583    H2931
    0.4504735177515828    0.6963862658131194    0.2739245147842917    H2932
    0.4504735177515828    0.6963862658131194    0.6072578481176250    H2933
    0.4504735177515828    0.6963862658131194    0.9405911814509583    H2934
    0.7838068510849161    0.0297195991464527    0.2739245147842917    H2935
    0.7838068510849161    0.0297195991464527    0.6072578481176250    H2936
    0.7838068510849161    0.0297195991464527    0.9405911814509583    H2937
    0.7838068510849161    0.3630529324797860    0.2739245147842917    H2938
    0.7838068510849161    0.3630529324797860    0.6072578481176250    H2939
    0.7838068510849161    0.3630529324797860    0.9405911814509583    H2940
    0.7838068510849161    0.6963862658131194    0.2739245147842917    H2941
    0.7838068510849161    0.6963862658131194    0.6072578481176250    H2942
    0.7838068510849161    0.6963862658131194    0.9405911814509583    H2943
    0.9979191914904684    0.0359874001659264    0.0625261957276391    H2944
    0.9979191914904684    0.0359874001659264    0.3958595290609723    H2945
    0.9979191914904684    0.0359874001659264    0.7291928623943057    H2946
    0.9979191914904684    0.3693207334992596    0.0625261957276391    H2947
    0.9979191914904684    0.3693207334992596    0.3958595290609723    H2948
    0.9979191914904684    0.3693207334992596    0.7291928623943057    H2949
    0.9979191914904684    0.7026540668325929    0.0625261957276391    H2950
    0.9979191914904684    0.7026540668325929    0.3958595290609723    H2951
    0.9979191914904684    0.7026540668325929    0.7291928623943057    H2952
    0.3312525248238017    0.0359874001659264    0.0625261957276391    H2953
    0.3312525248238017    0.0359874001659264    0.3958595290609723    H2954
    0.3312525248238017    0.0359874001659264    0.7291928623943057    H2955
    0.3312525248238017    0.3693207334992596    0.0625261957276391    H2956
    0.3312525248238017    0.3693207334992596    0.3958595290609723    H2957
    0.3312525248238017    0.3693207334992596    0.7291928623943057    H2958
    0.3312525248238017    0.7026540668325929    0.0625261957276391    H2959
    0.3312525248238017    0.7026540668325929    0.3958595290609723    H2960
    0.3312525248238017    0.7026540668325929    0.7291928623943057    H2961
    0.6645858581571350    0.0359874001659264    0.0625261957276391    H2962
    0.6645858581571350    0.0359874001659264    0.3958595290609723    H2963
    0.6645858581571350    0.0359874001659264    0.7291928623943057    H2964
    0.6645858581571350    0.3693207334992596    0.0625261957276391    H2965
    0.6645858581571350    0.3693207334992596    0.3958595290609723    H2966
    0.6645858581571350    0.3693207334992596    0.7291928623943057    H2967
    0.6645858581571350    0.7026540668325929    0.0625261957276391    H2968
    0.6645858581571350    0.7026540668325929    0.3958595290609723    H2969
    0.6645858581571350    0.7026540668325929    0.7291928623943057    H2970
    0.1302771831452352    0.1887110533773917    0.1727558968026063    H2971
    0.1302771831452352    0.1887110533773917    0.5060892301359396    H2972
    0.1302771831452352    0.1887110533773917    0.8394225634692729    H2973
    0.1302771831452352    0.5220443867107250    0.1727558968026063    H2974
    0.1302771831452352    0.5220443867107250    0.5060892301359396    H2975
    0.1302771831452352    0.5220443867107250    0.8394225634692729    H2976
    0.1302771831452352    0.8553777200440582    0.1727558968026063    H2977
    0.1302771831452352    0.8553777200440582    0.5060892301359396    H2978
    0.1302771831452352    0.8553777200440582    0.8394225634692729    H2979
    0.4636105164785685    0.1887110533773917    0.1727558968026063    H2980
    0.4636105164785685    0.1887110533773917    0.5060892301359396    H2981
    0.4636105164785685    0.1887110533773917    0.8394225634692729    H2982
    0.4636105164785685    0.5220443867107250    0.1727558968026063    H2983
    0.4636105164785685    0.5220443867107250    0.5060892301359396    H2984
    0.4636105164785685    0.5220443867107250    0.8394225634692729    H2985
    0.4636105164785685    0.8553777200440582    0.1727558968026063    H2986
    0.4636105164785685    0.8553777200440582    0.5060892301359396    H2987
    0.4636105164785685    0.8553777200440582    0.8394225634692729    H2988
    0.7969438498119019    0.1887110533773917    0.1727558968026063    H2989
    0.7969438498119019    0.1887110533773917    0.5060892301359396    H2990
    0.7969438498119019    0.1887110533773917    0.8394225634692729    H2991
    0.7969438498119019    0.5220443867107250    0.1727558968026063    H2992
    0.7969438498119019    0.5220443867107250    0.5060892301359396    H2993
    0.7969438498119019    0.5220443867107250    0.8394225634692729    H2994
    0.7969438498119019    0.8553777200440582    0.1727558968026063    H2995
    0.7969438498119019    0.8553777200440582    0.5060892301359396    H2996
    0.7969438498119019    0.8553777200440582    0.8394225634692729    H2997
    0.3425873582595729    0.1905343868665532    0.0624080959956721    H2998
    0.3425873582595729    0.1905343868665532    0.3957414293290054    H2999
    0.3425873582595729    0.1905343868665532    0.7290747626623386    H3000
    0.3425873582595729    0.5238677201998865    0.0624080959956721    H3001
    0.3425873582595729    0.5238677201998865    0.3957414293290054    H3002
    0.3425873582595729    0.5238677201998865    0.7290747626623386    H3003
    0.3425873582595729    0.8572010535332197    0.0624080959956721    H3004
    0.3425873582595729    0.8572010535332197    0.3957414293290054    H3005
    0.3425873582595729    0.8572010535332197    0.7290747626623386    H3006
    0.6759206915929061    0.1905343868665532    0.0624080959956721    H3007
    0.6759206915929061    0.1905343868665532    0.3957414293290054    H3008
    0.6759206915929061    0.1905343868665532    0.7290747626623386    H3009
    0.6759206915929061    0.5238677201998865    0.0624080959956721    H3010
    0.6759206915929061    0.5238677201998865    0.3957414293290054    H3011
    0.6759206915929061    0.5238677201998865    0.7290747626623386    H3012
    0.6759206915929061    0.8572010535332197    0.0624080959956721    H3013
    0.6759206915929061    0.8572010535332197    0.3957414293290054    H3014
    0.6759206915929061    0.8572010535332197    0.7290747626623386    H3015
    0.0092540249262395    0.1905343868665532    0.0624080959956721    H3016
    0.0092540249262395    0.1905343868665532    0.3957414293290054    H3017
    0.0092540249262395    0.1905343868665532    0.7290747626623386    H3018
    0.0092540249262395    0.5238677201998865    0.0624080959956721    H3019
    0.0092540249262395    0.5238677201998865    0.3957414293290054    H3020
    0.0092540249262395    0.5238677201998865    0.7290747626623386    H3021
    0.0092540249262395    0.8572010535332197    0.0624080959956721    H3022
    0.0092540249262395    0.8572010535332197    0.3957414293290054    H3023
    0.0092540249262395    0.8572010535332197    0.7290747626623386    H3024
    0.1116264503860317    0.9206844995795391    0.2729516485765744    H3025
    0.1116264503860317    0.9206844995795391    0.6062849819099076    H3026
    0.1116264503860317    0.9206844995795391    0.9396183152432410    H3027
    0.1116264503860317    0.2540178329128724    0.2729516485765744    H3028
    0.1116264503860317    0.2540178329128724    0.6062849819099076    H3029
    0.1116264503860317    0.2540178329128724    0.9396183152432410    H3030
    0.1116264503860317    0.5873511662462056    0.2729516485765744    H3031
    0.1116264503860317    0.5873511662462056    0.6062849819099076    H3032
    0.1116264503860317    0.5873511662462056    0.9396183152432410    H3033
    0.4449597837193651    0.9206844995795391    0.2729516485765744    H3034
    0.4449597837193651    0.9206844995795391    0.6062849819099076    H3035
    0.4449597837193651    0.9206844995795391    0.9396183152432410    H3036
    0.4449597837193651    0.2540178329128724    0.2729516485765744    H3037
    0.4449597837193651    0.2540178329128724    0.6062849819099076    H3038
    0.4449597837193651    0.2540178329128724    0.9396183152432410    H3039
    0.4449597837193651    0.5873511662462056    0.2729516485765744    H3040
    0.4449597837193651    0.5873511662462056    0.6062849819099076    H3041
    0.4449597837193651    0.5873511662462056    0.9396183152432410    H3042
    0.7782931170526983    0.9206844995795391    0.2729516485765744    H3043
    0.7782931170526983    0.9206844995795391    0.6062849819099076    H3044
    0.7782931170526983    0.9206844995795391    0.9396183152432410    H3045
    0.7782931170526983    0.2540178329128724    0.2729516485765744    H3046
    0.7782931170526983    0.2540178329128724    0.6062849819099076    H3047
    0.7782931170526983    0.2540178329128724    0.9396183152432410    H3048
    0.7782931170526983    0.5873511662462056    0.2729516485765744    H3049
    0.7782931170526983    0.5873511662462056    0.6062849819099076    H3050
    0.7782931170526983    0.5873511662462056    0.9396183152432410    H3051
    0.0983071770532175    0.8948708775857508    0.3299470658873196    H3052
    0.0983071770532175    0.8948708775857508    0.6632803992206528    H3053
    0.0983071770532175    0.8948708775857508    0.9966137325539862    H3054
    0.0983071770532175    0.2282042109190840    0.3299470658873196    H3055
    0.0983071770532175    0.2282042109190840    0.6632803992206528    H3056
    0.0983071770532175    0.2282042109190840    0.9966137325539862    H3057
    0.0983071770532175    0.5615375442524173    0.3299470658873196    H3058
    0.0983071770532175    0.5615375442524173    0.6632803992206528    H3059
    0.0983071770532175    0.5615375442524173    0.9966137325539862    H3060
    0.4316405103865508    0.8948708775857508    0.3299470658873196    H3061
    0.4316405103865508    0.8948708775857508    0.6632803992206528    H3062
    0.4316405103865508    0.8948708775857508    0.9966137325539862    H3063
    0.4316405103865508    0.2282042109190840    0.3299470658873196    H3064
    0.4316405103865508    0.2282042109190840    0.6632803992206528    H3065
    0.4316405103865508    0.2282042109190840    0.9966137325539862    H3066
    0.4316405103865508    0.5615375442524173    0.3299470658873196    H3067
    0.4316405103865508    0.5615375442524173    0.6632803992206528    H3068
    0.4316405103865508    0.5615375442524173    0.9966137325539862    H3069
    0.7649738437198841    0.8948708775857508    0.3299470658873196    H3070
    0.7649738437198841    0.8948708775857508    0.6632803992206528    H3071
    0.7649738437198841    0.8948708775857508    0.9966137325539862    H3072
    0.7649738437198841    0.2282042109190840    0.3299470658873196    H3073
    0.7649738437198841    0.2282042109190840    0.6632803992206528    H3074
    0.7649738437198841    0.2282042109190840    0.9966137325539862    H3075
    0.7649738437198841    0.5615375442524173    0.3299470658873196    H3076
    0.7649738437198841    0.5615375442524173    0.6632803992206528    H3077
    0.7649738437198841    0.5615375442524173    0.9966137325539862    H3078
    0.9798536604465609    0.2361521882967865    0.2144228431367043    H3079
    0.9798536604465609    0.2361521882967865    0.5477561764700378    H3080
    0.9798536604465609    0.2361521882967865    0.8810895098033711    H3081
    0.9798536604465609    0.5694855216301198    0.2144228431367043    H3082
    0.9798536604465609    0.5694855216301198    0.5477561764700378    H3083
    0.9798536604465609    0.5694855216301198    0.8810895098033711    H3084
    0.9798536604465609    0.9028188549634532    0.2144228431367043    H3085
    0.9798536604465609    0.9028188549634532    0.5477561764700378    H3086
    0.9798536604465609    0.9028188549634532    0.8810895098033711    H3087
    0.3131869937798941    0.2361521882967865    0.2144228431367043    H3088
    0.3131869937798941    0.2361521882967865    0.5477561764700378    H3089
    0.3131869937798941    0.2361521882967865    0.8810895098033711    H3090
    0.3131869937798941    0.5694855216301198    0.2144228431367043    H3091
    0.3131869937798941    0.5694855216301198    0.5477561764700378    H3092
    0.3131869937798941    0.5694855216301198    0.8810895098033711    H3093
    0.3131869937798941    0.9028188549634532    0.2144228431367043    H3094
    0.3131869937798941    0.9028188549634532    0.5477561764700378    H3095
    0.3131869937798941    0.9028188549634532    0.8810895098033711    H3096
    0.6465203271132274    0.2361521882967865    0.2144228431367043    H3097
    0.6465203271132274    0.2361521882967865    0.5477561764700378    H3098
    0.6465203271132274    0.2361521882967865    0.8810895098033711    H3099
    0.6465203271132274    0.5694855216301198    0.2144228431367043    H3100
    0.6465203271132274    0.5694855216301198    0.5477561764700378    H3101
    0.6465203271132274    0.5694855216301198    0.8810895098033711    H3102
    0.6465203271132274    0.9028188549634532    0.2144228431367043    H3103
    0.6465203271132274    0.9028188549634532    0.5477561764700378    H3104
    0.6465203271132274    0.9028188549634532    0.8810895098033711    H3105
    0.0726802824824457    0.0003978245044254    0.9990240613952275    H3106
    0.0726802824824457    0.0003978245044254    0.3323573947285609    H3107
    0.0726802824824457    0.0003978245044254    0.6656907280618941    H3108
    0.0726802824824457    0.3337311578377586    0.9990240613952275    H3109
    0.0726802824824457    0.3337311578377586    0.3323573947285609    H3110
    0.0726802824824457    0.3337311578377586    0.6656907280618941    H3111
    0.0726802824824457    0.6670644911710920    0.9990240613952275    H3112
    0.0726802824824457    0.6670644911710920    0.3323573947285609    H3113
    0.0726802824824457    0.6670644911710920    0.6656907280618941    H3114
    0.4060136158157790    0.0003978245044254    0.9990240613952275    H3115
    0.4060136158157790    0.0003978245044254    0.3323573947285609    H3116
    0.4060136158157790    0.0003978245044254    0.6656907280618941    H3117
    0.4060136158157790    0.3337311578377586    0.9990240613952275    H3118
    0.4060136158157790    0.3337311578377586    0.3323573947285609    H3119
    0.4060136158157790    0.3337311578377586    0.6656907280618941    H3120
    0.4060136158157790    0.6670644911710920    0.9990240613952275    H3121
    0.4060136158157790    0.6670644911710920    0.3323573947285609    H3122
    0.4060136158157790    0.6670644911710920    0.6656907280618941    H3123
    0.7393469491491123    0.0003978245044254    0.9990240613952275    H3124
    0.7393469491491123    0.0003978245044254    0.3323573947285609    H3125
    0.7393469491491123    0.0003978245044254    0.6656907280618941    H3126
    0.7393469491491123    0.3337311578377586    0.9990240613952275    H3127
    0.7393469491491123    0.3337311578377586    0.3323573947285609    H3128
    0.7393469491491123    0.3337311578377586    0.6656907280618941    H3129
    0.7393469491491123    0.6670644911710920    0.9990240613952275    H3130
    0.7393469491491123    0.6670644911710920    0.3323573947285609    H3131
    0.7393469491491123    0.6670644911710920    0.6656907280618941    H3132
    0.3076013413519081    0.2082074170158068    0.1040252072708379    H3133
    0.3076013413519081    0.2082074170158068    0.4373585406041711    H3134
    0.3076013413519081    0.2082074170158068    0.7706918739375045    H3135
    0.3076013413519081    0.5415407503491401    0.1040252072708379    H3136
    0.3076013413519081    0.5415407503491401    0.4373585406041711    H3137
    0.3076013413519081    0.5415407503491401    0.7706918739375045    H3138
    0.3076013413519081    0.8748740836824734    0.1040252072708379    H3139
    0.3076013413519081    0.8748740836824734    0.4373585406041711    H3140
    0.3076013413519081    0.8748740836824734    0.7706918739375045    H3141
    0.6409346746852415    0.2082074170158068    0.1040252072708379    H3142
    0.6409346746852415    0.2082074170158068    0.4373585406041711    H3143
    0.6409346746852415    0.2082074170158068    0.7706918739375045    H3144
    0.6409346746852415    0.5415407503491401    0.1040252072708379    H3145
    0.6409346746852415    0.5415407503491401    0.4373585406041711    H3146
    0.6409346746852415    0.5415407503491401    0.7706918739375045    H3147
    0.6409346746852415    0.8748740836824734    0.1040252072708379    H3148
    0.6409346746852415    0.8748740836824734    0.4373585406041711    H3149
    0.6409346746852415    0.8748740836824734    0.7706918739375045    H3150
    0.9742680080185747    0.2082074170158068    0.1040252072708379    H3151
    0.9742680080185747    0.2082074170158068    0.4373585406041711    H3152
    0.9742680080185747    0.2082074170158068    0.7706918739375045    H3153
    0.9742680080185747    0.5415407503491401    0.1040252072708379    H3154
    0.9742680080185747    0.5415407503491401    0.4373585406041711    H3155
    0.9742680080185747    0.5415407503491401    0.7706918739375045    H3156
    0.9742680080185747    0.8748740836824734    0.1040252072708379    H3157
    0.9742680080185747    0.8748740836824734    0.4373585406041711    H3158
    0.9742680080185747    0.8748740836824734    0.7706918739375045    H3159
    0.0290933026385271    0.2848770332820370    0.2361442702828125    H3160
    0.0290933026385271    0.2848770332820370    0.5694776036161459    H3161
    0.0290933026385271    0.2848770332820370    0.9028109369494792    H3162
    0.0290933026385271    0.6182103666153703    0.2361442702828125    H3163
    0.0290933026385271    0.6182103666153703    0.5694776036161459    H3164
    0.0290933026385271    0.6182103666153703    0.9028109369494792    H3165
    0.0290933026385271    0.9515436999487037    0.2361442702828125    H3166
    0.0290933026385271    0.9515436999487037    0.5694776036161459    H3167
    0.0290933026385271    0.9515436999487037    0.9028109369494792    H3168
    0.3624266359718604    0.2848770332820370    0.2361442702828125    H3169
    0.3624266359718604    0.2848770332820370    0.5694776036161459    H3170
    0.3624266359718604    0.2848770332820370    0.9028109369494792    H3171
    0.3624266359718604    0.6182103666153703    0.2361442702828125    H3172
    0.3624266359718604    0.6182103666153703    0.5694776036161459    H3173
    0.3624266359718604    0.6182103666153703    0.9028109369494792    H3174
    0.3624266359718604    0.9515436999487037    0.2361442702828125    H3175
    0.3624266359718604    0.9515436999487037    0.5694776036161459    H3176
    0.3624266359718604    0.9515436999487037    0.9028109369494792    H3177
    0.6957599693051937    0.2848770332820370    0.2361442702828125    H3178
    0.6957599693051937    0.2848770332820370    0.5694776036161459    H3179
    0.6957599693051937    0.2848770332820370    0.9028109369494792    H3180
    0.6957599693051937    0.6182103666153703    0.2361442702828125    H3181
    0.6957599693051937    0.6182103666153703    0.5694776036161459    H3182
    0.6957599693051937    0.6182103666153703    0.9028109369494792    H3183
    0.6957599693051937    0.9515436999487037    0.2361442702828125    H3184
    0.6957599693051937    0.9515436999487037    0.5694776036161459    H3185
    0.6957599693051937    0.9515436999487037    0.9028109369494792    H3186
