# Amorphous model
1.000000
14.3885804018699570  0.0000000000000000  0.0000000000000000
 0.0000000000000000 14.3885804018699570  0.0000000000000000
 0.0000000000000000  0.0000000000000000 14.3885804018699570
C H
114 118
Cartesian
 2.7653450830072686  6.4573688088725358  0.6571260871334754
12.8895842111697707  4.8135568033898366  2.5955680851454694
12.6814788813702126  5.6872884875648904  3.6801487648277966
14.2821758343267913  4.4049754019486365  6.0128213216315753
 8.3318552708456526  4.9740356591611832  3.4788335837295161
14.3312691880200429  5.6722841307350986  6.8727726830329292
13.4062717731612562  5.2989116637013556  1.3841603378836655
 7.4381997081263247  4.7211754846175644  4.5396369253393907
 7.9755526085612960  4.5713110372808288  2.1758572109586627
13.0224510116897303  7.0479934266601791  3.5394000327646289
 9.5465286928400328  7.1193712779395728  4.2044455865177728
10.1422409008023369  2.1164934925874448  0.9518605396188491
 9.0417897660530731  1.3704065730624961  0.4967217951531904
11.3719452990255316  2.0400438779771175  0.2806727998502545
13.7766663761459629  5.6878863881189066  8.1689962735273038
14.3579336043592978  3.1635795105972129 10.9975671723498483
 9.6944799723418615  5.6301644412708125  3.7395638962048015
 8.9813643617205319  2.5024988445217407 11.1543222607064099
12.0086700315023140  5.1923045711895828  4.9669321193744178
12.8066103829517797  4.0432515367222024  5.6638184108753347
 0.0159184856823504 14.1490821137439138  6.9366038086313129
 7.0556397298221629  7.9266771547764403  2.4976552466969082
 2.9265306663011064 14.2294737124899502  0.7404024377909728
 0.5862835877832886  8.0063233748088489  7.1519769805428997
 2.6473317333577473 13.3138926727507592 12.8978077673076452
 3.2563648648494858 12.4758672412094409  7.3079560744908303
 3.5822702055036100 14.0001948710634192  7.4253063213313215
 4.4937013285529304 11.0349737416318892  9.9668426425732033
 5.3060496078201798 11.6576915725081047  8.8076476327547315
 6.9462390667055427  9.8772381907023412  7.9011250510449731
 0.0450626574083408  8.0106846797235445  8.4463515221273777
 6.7018704403739147 11.0162495343763798  8.7017003324056095
 4.5363502373202209 11.5891883952386099  7.4504445085542788
 2.4834950672640890 13.1984562795935059 14.2865651044481279
13.1946962277369604 13.7596514514995274  7.5326222410840717
13.7369751794844657  6.6551470067573870  1.2498354737496253
 5.9964121220961939  7.6876843752619894  1.6099096883475692
 9.9670112108665467  2.4409637282750456 10.1558646775483030
 7.6833778374108359  0.8211167168405620  9.9778086040359160
13.5505579842418644  7.5295818185221020  2.3310293286200281
11.0449017275035342  9.8341616536207273 11.7572241644498643
 8.2470631126837457  9.3660857093784156  7.7639298998049302
 9.3194228832351751  9.9839041567535478  8.4232335184407656
 8.0220398507542452 14.0125025292383132 13.3029291816942408
 9.0253404437853977 10.3700681772745913 13.0019677609503486
11.7390174729922219 10.8297868868567857 12.4600027389780461
 7.7830238461774375 11.5998170996939454  9.3920307317083083
 9.7182694321071050 11.3589714026127577 13.7270399659670357
11.0802841243766661 11.5857162537024312 13.4434004657484731
13.0471080192549227 13.8189097815973998  8.9249303700418761
 9.6866388841187412  9.6073820119173039 12.0264721535407215
14.1169565178338043 14.2561160645409100  9.7205296204064791
 7.5831869121686264  7.3511400570055212 14.1903752069045428
 9.0851963760790273 11.1000797035810610  9.2393021343748973
 8.6441569583184243  7.5908112763881146  0.6888800636394112
 7.8397070692733291  1.6794553849552898 11.0846086748624959
 9.5506402581037495  8.1236129183264776  3.0092155298120815
10.2709743267123645 12.6574318660309491  3.9167483519208979
13.8313453530971717  6.8501764726338994  8.9542786425525893
10.4072810322330884  0.4731378948942417 13.0857560803490056
 9.8121817754416600  1.5681426376787062  9.0679252715462848
 8.6671144417585761  0.7624375485772390  8.9766629952561576
 9.1669990243484580  0.5408838760314172 13.7525072509043031
11.5036590459494530  1.2202895503229829 13.5402749248323158
 9.6046256653987694  9.6009157111978798  3.5080413087302631
12.3168021265604377 13.9692814575561233  3.8795051228910165
10.8042695900675714 11.7756910768788909  2.9542035094837260
12.1133431960742168 11.9901490210117725  2.4799443005912298
12.8644471960360089 13.0851098705285533  2.9375307943265270
 8.3883356918020997  7.8756448448409788  2.0454745231025875
 9.9547726458839474 10.6320886880062471  2.3858722957685856
 8.6869219995362048 11.1967972201910602  1.6636332088765347
 9.0268113962337448 12.1377662638756494  0.4650907672777862
11.0238640523308238 13.7493326018957251  4.3753409448040106
 6.2590406094314819  7.3977945006149515  0.2615288092337540
10.5346341569978801  4.7383134051496025  4.7136450617604631
 4.2348754840860856  2.4307391547926986 12.6117991681632819
 3.2383192903413320  0.0760893628154093 12.3530715803614601
 2.6804077757886802  4.9853585563742175  8.4024418519396686
 3.2346849109123248  6.2099344034374173  8.8065475078184416
 2.8724820123812638  2.0587495968316460  7.3916407113266391
 2.5323077043703339  5.6750371748202451 13.9034904208402477
 0.9409630137066340  0.2512618134469715  9.1228336805979584
 6.7876618344422024  1.7260407147788435 12.2002921847314045
 3.6750115916682553  1.1227988171385963 13.1913743385794096
 2.1235208664826075  4.3326287619690937 14.0308281111880309
 3.0892460978790446  3.2308716254637098 11.9089713418180825
 1.8167194640980640  3.4852047916131639 12.7896478828021554
 5.4174842697647581  2.2089527037510255 11.6059367444877939
 3.8956331616374236  7.0245632281041548  7.8763068456009524
 1.0979423472689938  0.2041151285925284  7.7229347659522976
 0.6647685571087010  4.1406074787201490 11.9700791955438017
 1.9406205606233549  3.7947645842348727  0.9326407952848381
 3.5252880684481340  0.9857089222630222  0.1958826798153410
 6.7486019969100770  3.9332537447060982  1.9367029638845850
 2.6136286867039029  5.9027307939788098  1.9374093132346744
 3.4370654541830028  5.3922849073271646  6.1310356901060405
 3.9983416599137129  6.6141199681539486  6.5380651580413183
 6.2193775816249737  4.0678690486955240  4.3017730659087157
 0.5297032224962397  6.8461730756245966  6.3663162222515961
 5.8700353223449913  3.6783319391966565  2.9999478684137717
 2.1766458389111722  3.2221247206707115  6.6092608604753575
 2.4265174002614351  0.5958670842426823  7.0477408057899797
 2.1979062439310866  4.5706370073941738  2.0747421635148200
 0.6168992241839586  3.1950857883337154  6.6953766309563232
 2.7774197687609341  4.5626679961617160  7.0597965565010679
 6.6842960179310875  0.3731391308176200 12.9810024308565364
 7.7533480023336292 12.9021185874274433 14.3699864783452380
 1.2847804983350777 11.4974590079152659  6.0191291931018664
 0.6603009039687091 11.0916006308484700  4.8281518549650020
 2.5874557322300760 11.8500310730294576  3.5647519545063613
 3.1996986931053204 12.2821321955927072  4.7525612996964846
 2.5561166174922079 12.1039871773548047  5.9934533947737858
 1.3153395622876776 11.2610142069191834  3.6003064607986541
 4.5082188105664507  7.2444237400348808  5.8156659747174277
 5.0689286845673873 11.0651024992988685 10.9001423922121052
10.3756346005944113  7.3885592446227246  4.8682864183812011
13.8009754000348490  8.5813268677289631  2.2281746300399590
 3.8495837998931819  1.7820922732361328  0.8584008619548555
 3.9472075683071637  2.1493284862520614  7.1844223862345462
12.5441079976180827 11.3192200289766607  1.7417922703799924
 8.6671642927823793  9.8771274690715014  4.0077424293500332
10.5551527768759659 10.1047421094811352  1.6335112877930111
12.8584983604066299  7.7417976426963353  4.3599216849501268
 7.2836304855163068 13.3689639836205441  0.8576836792677742
 9.7228366269411861 12.8931265949416574  0.8480510432555324
 8.0573795173360825 10.3777684237790115  1.3014381734135796
 1.5840637817164822  2.7763435226364912  1.0550372917327628
 5.5519435830648245  3.8552610688141744  5.1309608071554056
 0.1199883224482452 14.0914321124315070  5.8577120223135264
10.4903766142222477  7.9442920639604377  2.4708023973285673
 2.0548363658664446  4.1459902685488856  3.0636508310830450
 9.2658139782817823 12.5061056208456005  4.2991198127330748
 4.4495442375585057 14.2247316820149212  6.7912848568868913
 2.4268549930668488  3.0781493161148124  5.5500164791643467
 2.7931277527186698 14.1535247123960932  1.8156511133035185
 0.4102200306655845  4.5914052726440673  5.0627830276641728
13.8668026489596397 13.2545742461463778  2.5558693225940772
 0.9580262841293603  6.8559934637555369  5.3673772095389065
 8.6376906682252024  7.2432694928960597  4.8073787275594917
 9.6654330743696644  7.5532844708453570  0.3203796178614038
14.0644008315459192 10.6326240546243849  4.8595572705675796
14.0060784134723395 14.2955615954478805 10.8005754391171589
 0.7737997212455543 11.3400827473700243  6.9647266739930398
 3.5090368702744694  5.0970940576025416  5.0885152582751747
 0.2785631879158945  2.2852837425207717  6.1891552681920938
11.6343245667312392 12.3420278881069319 13.9915026750895191
 9.9114030478351562 11.5778765972988271  9.7586086801289600
 2.7990940491832710  6.5080713468193938  2.8202013825424395
 0.8401740075286970 10.9330834435140165  2.6799865406180956
 9.1447004088307420  8.8415731458040501 11.4790802010848818
 6.8371130280232304  8.1485338280058119  3.5381769172936401
 6.4866151846555997  3.6240821166093884  0.9293542034589404
12.7897391461706125 11.0095798984447821 12.2503546873303488
12.3749767567859070 13.4036971144275174  6.9152964818382880
10.5278283180503447 14.2148336489569349 12.2209576427907063
 2.3046038934745248  0.5434104020056409  5.9579226512617982
12.1091263197314927 13.5218195954113991  9.3859917141458045
 4.9748045186292753  7.7275460648137280  1.9727003011856841
 8.3310307636184167 13.5043748452702221 12.3803634722593596
 7.9762596044449285 10.1770432331070584 13.2044380396311052
10.3261858018003618  9.5926646884406512  8.3104178189141411
11.5543704415007422  9.2443885937718857 11.0000569791075105
 4.9260401027389005  3.1743233502778665  2.8173600783054571
 1.0600410961188196  8.8975432158060617  6.7575603385525742
 4.1872342773470415 12.7312124397169040  4.7065206209742811
 8.4244997673863953  8.4965679721029250  7.1378712935874180
 8.0758134547381797 11.7425621412368191  2.3934679597144868
 7.6184758088869327 12.4507377935308146 10.0436577522132726
10.3837752245346895  9.6630332919839059  4.2791864551239485
 1.7575505353396927  0.5862730461578511  9.7527605119733050
 6.8009194378109452  0.1939091618229352  9.8962896490319050
 2.1584543136030963  4.3753025746832499  9.1310881102144617
 4.2415604975260912  9.9894418949267614  9.7532329787428669
 7.6916632074727840  5.0196771541343086  5.5527807168800063
10.5525968063804800  3.7245874971209059  4.2920288610450150
 3.1465869260457566  6.5283254118040315  9.8412031997522629
11.9644787507571255  6.0251222696671842  5.6791688944136727
 4.6156036202309600  3.0567316690883057 13.4290892898861411
 5.0952007216382693  1.5212520056269874 10.8152080633338290
12.7994749031850876  3.1562160981153387  5.0181615296708753
 7.0175747743655972 12.1892890006420327 13.9771281455789289
 2.3051153529014368 12.5173639424585854 12.2434621196789717
10.0504346661859625  2.7378363681290132  1.8373304728179836
12.2830280013665760  3.7541724373244829  6.5844196681603631
10.2356943240175600  5.6386685113181070  2.7865020477752189
 0.6441072415388849  2.8517615253662925 10.1935773441441082
 4.2443803103900208 10.5484623528159620  7.2592449849533889
10.0219183315395970  4.6587400348794237  5.6807624041180436
12.6232890322993700  3.7649183912374227  2.6824441990315844
 3.0548771287849839  7.4986048348562466  0.5473855803853525
 5.4547651970097437 12.7162352079640453  9.0518250885345086
 6.1382404206624788  9.3847447223254914  7.3709444050431454
12.8932090315423746  0.4339781062400689  4.2238547068959544
 0.0916440816190267  8.9103649463906738  9.0524910255268107
 0.2985598278982557  3.1007719841360242  7.7399459463704208
 3.8930159910453206 14.2136536494711248  8.4558838340551414
 5.4397376878235857  7.2089504432658078 13.9627545856541264
 3.3475459391703701  0.1535993738261645 11.2769493885923051
 8.6514198677484959  4.7522912967287230  1.3446606729435278
13.4840746845242823  3.6386812397208104 10.5379885870004752
 2.6509710441085925  6.1207817282806953 12.9203470523167727
10.6009029252815115  0.0412569812578472  5.1088283028731194
 7.7881235877440123  7.1307000255416835 13.1463655124823777
13.4081318629849573  6.8499927208074691  9.9550044366642449
12.4589526918148987  1.1482112111199498 13.0295896867699259
 1.0389201316776813  5.0094598328703679 11.4142065072088794
 2.7757785199203404  2.2228549571546381  8.4706278257255452
14.2939033990806710  4.5212028834630775 12.6641264753202467
 8.5429746112872582  0.0886955448526088  8.1327497069711345
 4.3227038194196687  7.9724579211591919  8.1907505690556750
14.0124504610297560  2.2682576936161407 11.5270690620411767
 7.1006674786364226  2.4840714843817207 12.9298205205215719
10.8519583807739881  3.0649207579675082 10.2303656614408016
10.5758069959709058  1.5197504637984434  8.2973519230245376
 3.5615983395127451 11.5865442382553336 10.1356998090590569
 3.4848914566854710  4.1926789788491643 11.5588205235809891
 3.1060801171966439 11.9628875640007326  2.6178618664694167
 2.7969281928895420  2.6798050208610462 11.0078897372104247
13.3015246113506063  4.7989077834478149  8.5686910786836261
 1.4395549821244966  2.5110329796508370 13.1260602388258487
 2.0113492583037118 12.3151859719516015  0.3183559817557455
 9.1191007320301534  3.1733486317667232 11.9979410553527419
12.2261518292063496  2.6042299518231946  0.6400446927510934
 6.0425990229095614 14.0699175523794668 12.4201999611822220
14.1361504377313185  7.0260491935006808  0.3104238522688725
 5.6105505019175599  3.1617091334162861 11.0946015222412750
 6.1729746956415728  0.5776504485291802 13.9290918863293616
 2.5824016919068722 12.2248009631841601  8.1348183284230640
 8.1026242499949301  1.4153269425817960  1.0393696986568379
13.5480724909997381  4.6226580868144840  0.5470785403956775
 5.2364961409277679 11.8593879061921452  6.6495808651933697
