# Amorphous model
1.000000
14.7571299145621513  0.0000000000000000  0.0000000000000000
 0.0000000000000000 14.7571299145621513  0.0000000000000000
 0.0000000000000000  0.0000000000000000 14.7571299145621513
C H N O
100 112 10 10
Cartesian
13.5539204957298036  9.6110819713011271  7.6456629899035384
 2.4297965129841295 11.4992945192876750  7.5921765500673200
 7.2981014535122597 11.2807278707154008  6.5579397453870474
12.9860648090474218  2.9164652329703156  0.8892312193900125
 6.6436457847982666 10.0526352063110007  6.6847617988738204
 6.9639362824684827  9.6070156227088273  4.2913825813659106
 6.8011075728273713  8.5872086786024138  3.1358875852080921
14.0074465909815498  3.8539201953207147  0.6893446793698512
13.6838526618354930  5.1776044415715781  0.3754888827756160
 7.5569598750101505  2.3265866067800971  8.1752654740109705
 3.7502144502107235 10.9456727459437655  0.0792825341045713
 6.4788814771565288  9.2288893435671344  5.5640121135851572
 4.0178577145179641 10.8061158271511335  2.6321378267767415
 1.5444431704456640  7.9247010673428626  9.7568910244098408
 9.3847624760518311  5.4444910108590303 13.7809678015478614
 0.3636750935790865  8.4092445007824175  3.8869582866683086
 3.9798069105458342 11.4722423078982967  3.8753795415950361
 3.2173055238321808  8.4567365865973780  1.9444675834293168
 3.6407340020626648 12.8297392423288326  3.9604296634117215
 3.3356370651419045 13.5478649766303061  2.7990721022419738
 1.6872925040773428  8.1631466741935803  4.6475687413318170
 9.6485277868295629  6.3827045024021913  1.4155648339087925
 3.7213323915880849 11.5470175790301912  1.4538202686837423
 8.7105268798406410  0.9708883686648253 14.5970365424213018
 8.8900597570512350  2.6958663480979386  7.9129041853317013
 5.7795937314913370  9.0344775771353216  2.0503605533506200
14.1986027084853337  1.7231395535920218  7.9134322042732084
 1.1829815972308833  9.2878235008844552  6.9278127240291738
 4.3524195115931477  9.2995023215835904  2.6282394960728972
11.2933987018483446  4.6419321876132038  0.5035129091802286
 5.3470586619084450 14.1416960962090510  7.6573495429012262
13.3051048554210727  4.2498963303396593  5.6189438657961066
 8.9181613650914162  1.2942314467262808  5.9348934366988733
 8.6301706481031335  4.5913847988424585  3.9308243870141517
12.3405223957184607  5.5660361468278055  0.2812826134015713
 8.1846797771461812  6.8868237934675296  1.6086801857576951
 9.8358985623909287  5.1491050810113350  0.4759586666965845
 9.8602273410116847  5.9158028959464009  5.6704735886458124
 0.0788236056676128  9.1354067748871213  7.9984586105065798
 2.5178438734851021  9.9554808020004995  7.4047124768355062
 0.7745505208315961 11.7792427984766821 11.0422703876536108
 7.5950985105992679  0.9076718422523111  6.1932387124402783
 7.3944576279658900  4.5419972982136780  3.0863727763494353
 9.5691581424872734  2.1834038797885302  6.7982923395932460
10.6091782718595926  2.1863905389078298  0.9506491911649579
 0.1887257749537730 12.5541574146183290  8.3882295731901664
 1.4116075864435000 11.8855102302945088  8.6798208649072972
 3.1364281526735862  7.7460668974658411 11.6919751381080861
14.2668045540336603  5.9855015857580049  4.0912036040439759
 3.5333017154166075 14.0881006211909980  9.4590398959482638
 3.9200804822116666 13.6356581056451400  8.0300663197066182
 0.2595236184310021  8.5607689734112622  9.2920303426424784
 5.2268323566662591 10.4720537741429940 12.8602672815270349
 3.9067844830568745 13.8724643499313824 11.8752214037119348
 3.8526101824524428 12.0800600761096479  7.8536660545961627
11.6297531729482824  3.2852298419932833  0.7829165990279954
 4.2396825042806228 13.5402310621980622 10.5552065345696402
 1.6822938209532801 11.5053652187261175 10.0121330708833529
 3.3815287645307830 12.9091106080000966  1.5527708021252291
 0.1021746497772877  9.7282376980106395  3.4505093876571511
 2.8711197270486348  7.0416655162514079  2.5468401088174417
 7.6112931522301430 10.8716419981902011  4.1676318412084399
 3.7359037537322362  4.3689624258267976  6.3424510774802716
 4.3207586583213207  3.7529471754703909  1.3270430381175213
12.6850922785184412 13.1332901707863865  5.3378430713071410
 2.6154969097800826  7.0449264922635049  4.0874276264455638
14.3272289074551669 12.4287499720279353 10.7540871834633318
 5.8204064487266525  5.7249226536614213  0.8651143152249130
 2.1693593000930012  0.5878419408585618 11.0574018080047178
12.6825388152050262  9.0662494295713163  9.8372402125267318
12.6890663169354649  9.0730916359894440  2.5875138329937926
 5.0111712793348513  4.4597014647166944 10.0854987414282551
 5.0985605015942745  5.1076509790907405  2.7820047891140014
14.5657566847990712 13.0111041525489792  6.9974713152197072
 7.1648788513194503  5.7638848733815244  1.9108505573890024
 6.8995498608314119  1.4059809397266143  7.3157018083899672
14.0363556506717000 12.8083111864120678  9.4370285486482874
 8.1731576353035198 11.4066869124043304  2.8822784349625064
 3.5393231698322101  5.7196752552994674  0.2800729756557523
 8.1812505607738402  8.1126503962336241  2.5864489192208353
 1.7309753814522750  0.9794462921717599  8.6309449283860555
 6.4438848512996074  3.7019848226467733  1.1053173477531040
12.4895347883070524  9.5865458233772163  8.5549069064575054
 6.8798701214514164  2.9411471002126923  9.3676105313727849
 2.8641839098309259  0.0110082049752451 12.1273956678934685
 6.3860716153960784  3.1892621180717207  3.3880218447324086
 5.8032552249928067  3.8189368904601135 14.2851172069327408
 2.4948894999966331  0.2703789078715459  9.7209883897325664
13.6601356346858847 10.0568818562373696  2.8027077993409364
13.9333217801081322  8.5494837470311698 10.1970987993154782
 7.7711171936874965 11.6878315417144467  5.3052887524967627
 3.7937427147551759  5.9365092781522719  1.9551659200258076
 5.4607983434028586  0.9277881148171900  7.5680272935312782
 5.0280516362643937  5.1882984973550599  4.3363828995927438
10.2985390540771089 12.1577282182547304  1.7816017468175023
14.1286002978230290  7.4145536239838137  3.6612064908675297
12.9261302642219729  7.7623062299867964  3.0184901752305429
 4.9329144797885967  2.7865272926542382  2.6005327271435785
 4.4419414759571954  4.7685808256136912 13.9494218920959714
 1.4483196205682063  7.9518877426123140  6.1743728098893964
 7.4349375484465661 11.9181361728541528  7.4264498326381059
10.2410795772861558  7.2241360344940091  1.0370060387563189
12.7524030750105677  3.6750295414585192  4.8644762822633627
11.3684768753459711 12.1650678239927803  2.0222445441784860
12.7484059664047837  4.2377986868457143  6.5639549832058446
11.8592134185141429  9.0431538851447772 10.5454831580786017
 9.1836415135118425  4.3660331544983695  0.8685613885305248
 7.9143210650780222  6.2917722053095577  4.8439988856721978
 9.6274731801562918  6.7398209104402351  6.3562318950612475
12.9280615975083624  6.3625665922201513  5.6156408897877199
13.6199317347504927 12.6404824308111987 11.5507463093465415
10.7242251679823379  6.1896262225269769  5.0524685008019219
14.2929269828689716  3.7962869107908368  5.7707355677905579
11.5162199045323899  9.9709666727978306  8.2634243036853157
13.1019060695713154 13.3235266901662133  9.2333886465466986
 8.2708496016287540 12.6484716070714835  5.2134572487194024
 8.2111264905084820  0.8597141038925233  0.8109414966981614
12.6843742673958797 12.2100069299885821  7.2771777760250291
14.2852579698305693  2.8070129221836861  8.0592867123669372
13.1687405102675807  1.4077337788777768  8.1212310017172378
 7.9629018237223637  1.2097026147751038 13.8303541206004414
 9.2093595465082050  0.0287084545099363 14.3377438304203846
 8.3117574161856815  5.6670899987173176 13.7356945259556777
13.3781771935608322 10.0147753859047928  6.6526942460842395
11.6779717173303350 12.7102916016905194  5.2360929080907930
10.1397021700949157 11.6169590760156840  0.8402324676348005
14.7333640101036547  0.5428129545785936  9.6235907486884980
12.6266346959486508 14.2279770059988646  5.2848861815082504
 9.3950369764134809  3.3975680258295640  8.5708738124837556
 9.9322234448652029  6.2990645640670309 13.3639057467393290
 8.8215273115794357  7.8861844680188273  3.4466399587063759
13.4851667590482354 11.0768292222457294  2.4731748777231513
 9.5687941472849918  4.5761902565238906 13.1359917281989862
13.3180781654533025 12.7636978070421510  4.5210521980892544
 9.7477663697139700  2.7209991635633699 13.9088314638880366
14.4738724127867133  5.9068417890494249  0.2197013972712556
11.7558994038304672  9.3236324097691590  2.0907434462535637
13.2491056326078134  1.8870247206802784  1.1160885108559153
 8.6713598897969408  8.9464506836263258  2.0714782838819250
12.1718668481244290  7.0002039225654507  2.8531761512721392
14.4491061009621102  1.4740717314289071  6.8741726613661545
10.0682422329407419 11.1322285986359208  3.6544215244211973
 9.9478906854840243 13.1921998397166522  1.6710711330612025
 7.8904096205298604  7.3061842599330120  0.6389077974660946
10.5921072749001919  2.4867708844780338  6.5947586138813836
10.0779695056329590  6.1363137529048331  2.3920729360919477
 4.3176751020869375 11.5703814341759053  8.7049834026074695
 9.4364255751882471  0.9109196282018672  5.0597408059921118
 6.1523517936220298  9.9198747216296379  1.5364213938459539
 4.3778513943206629  8.9873455576990313  3.6747354340607590
 3.6069293878306752 13.3240738452940253  4.9266465383471214
 2.2807647808624179  9.0802562660336203  4.5658666910850112
 0.8337322629169837 10.5145300705324960  3.6181081424714652
 3.4361623063430660  8.3504421962284159  0.8759824063732609
 2.1264788904456893 11.8899757418613614  6.6182393092705567
10.0973019181590704  5.0156803640338872  6.2509701237917312
 4.2081424247654766 10.9324799572384048  4.7881605553554873
 5.7146234972360475  8.2765384919696334  1.2720302662381826
 3.0631634974073663 14.5970101651026649  2.8644150827130872
 4.3645534866251481  3.6099945245035538  6.8204349203765346
 2.6061501955652986  0.2724337547226652 13.1497607734629494
 4.3928584897256524  1.8945941522012717  2.9025412676278943
 3.9305915508786917  5.3487358184331715  6.7968924158886601
 1.3835977303675264  1.3071138780949205 11.2702935428580364
 3.0414325299333047  6.6541574327093116 11.7407883164755678
 4.4599939662326555  3.7069713973577390 10.6633644917229784
 5.0535888892599594  1.3564260668621575  8.4892853383601601
 4.1053186918357163  4.7732592834798364 12.9175696136224385
 4.2975332327271563  5.1354035639284827  9.5971825129628829
 5.5943907213052508  3.9270806403178824  8.0916421222400992
 6.2708105275942394  3.2590441213082499 13.4799373407405891
 5.6563550631899631  5.0374999345272720 10.7593684950141668
 3.5672080486205360  7.1664634884177971  4.6091414397107364
 1.8867829781616052  6.8094336698277882  2.1213098494903324
 2.7137684411277618  6.2744303454213153 14.6008060203345433
 0.6080975586525561  7.2639548394487061  6.3232555008993216
 7.2890944868120204  3.0243907905596767  1.2534272625261575
 2.2979694704781313  9.0522625742582594  1.9748049757684676
 6.3574316957759684  7.6902353285144613  3.5656767396560305
 3.1486805271649700 13.4729201503487435  0.6538223630341022
 0.7839094799585347  9.9799019025940918  6.1762633977755890
 3.4394514149486426  3.8723595451479191  4.2801113279483456
12.1199145591724058  6.6012895763762600  0.0414570617364163
 5.7675294503409589 11.3561482520286834 14.7411742586489414
 6.2657708642621621  9.7343269453589674  7.6523508020665645
 6.1475326192018453 10.9153738359700245 12.4613591375510655
 1.0042861020381455 11.4833220782250667 12.0622146309194083
 2.6806860284040006  4.1084698202241317  6.4926022938505721
 2.6059115696293489 10.9886227287900606 10.2545535242291539
 4.4590733268940426 13.4368564847547294 12.7025463258556517
 2.2166084701966504  6.0743797428673272  4.3891712335054009
 3.3935083755627087  3.4312083199328445  0.8436044506351372
 3.2060613935209386  8.1493769484334173 12.7100945993577898
 6.7099472769848330  2.5155623635603153  4.1734533890068608
 7.1059421502363875  0.2249461669828108  5.5048192518771071
14.0554254538592165  8.1147921996960477 11.1852858419504297
 2.8989812756910762  9.4911550100157971  8.3179895992574409
 5.9700188515292272  8.2808877786333728  5.6973635326815195
 3.2859294515856483  9.7573884321584377  6.6467627518233030
 3.2298025189957862 14.0546806354629421  7.2903543305698406
 2.3223026689962634  7.4588190470012581  6.6171687882050847
 5.7553717759151084  6.4927940732565297  0.0891807636494795
 5.3351857364526669  9.3810024236101430 12.8949833629570616
 5.6300605436293001 13.7178719153174260  6.6864721048855049
 5.0560844197817758 12.8443570273354037 10.3892576718005127
 4.3862399766319182 10.7359290322006569 12.2055407001617393
 6.0750830962689850 13.7681435948913968  8.3882401912409303
 1.4217755018050777  9.0207280317099414 11.5037099261680797
 4.0430045492129612  8.0080405387661830 11.1322034624653998
 4.8168340941902041  1.2826400296224811  6.7537317217493715
 4.4647644225216450 11.8073211591252498  6.9867455184801308
 0.2908790072616032  3.5539588811881515  0.7767578242328668
 4.0292428576566177  4.4091322568891975  4.9044411901633165
 9.7042038554112704  2.0507226319270728 14.6666121653885124
 8.7044566659090084  5.6579964045745008  4.8059590948552273
13.2597389684314155 12.7328058383228697  6.6286703254253965
 0.3604165561051822  1.0332045000021353  8.8254047895313992
 9.5550878705345053 11.4974669711748216  2.8618235836180812
 5.8297608578247555  3.7920241402061468  9.0674776651937226
 1.9616017039618967  8.3128871302939942 11.0204462149544380
13.4638537791672537  5.6337723518730556  5.1610709008694240
 4.9858517449760154 10.9820531180863110 14.2152164679764912
 2.2845889589545632  1.5699689820143607  7.7195994034953213
 9.5087984195200068  3.7534623027807541  3.8337253946055991
10.6612336081391756  1.3955752067357032  1.8779234516953665
 0.5564329109582591 13.6627617349505837  6.2885960033953943
 0.1303073622189288  5.1662524911945162  3.4367407894982538
 7.2578917054395244  2.7296728308574494 10.5077199222622557
 2.1169135915380206  7.0581105301195262  9.1194122591248092
 7.4710629059485392 11.8895646829584454  2.0109566561249128
 2.7399030304526395 10.5484945042333020 14.2802681487051633
 5.7754913251233919  5.8667991999699503  5.0171313329063683
