# Amorphous model                       
    1.000000000000000     
    11.8485446022160499   -1.1540013998304239   -2.0329496396770086
    -0.0000000001807374   14.7252227262210535    4.8892049645044251
    -0.0000000002527223   -0.0000000000729687   14.1268795339609188
  C               H             
    86   174
Direct
     0.4304533218727365    0.5404004372378197   -0.3531124888372551
     1.2618220779724729   -0.1025806283654985    0.2474406247056438
     0.2173583129764202    0.2271143414860696    0.4032024496410714
    -0.0322718933280292    0.5712755781706059    0.1398517329342414
     1.2442606032621222   -0.1894749882302761    0.2296785595073561
     0.9696276746974449    0.3627948326175239    0.0144170924684402
     0.9173574076608333    1.1834502107925260   -0.2224314053229388
     0.3865549265981805    0.6775563147927776   -0.4986520977514188
     0.1353029270620589    0.5804034558796001   -0.5125098179118788
     1.0880543168325214    0.8360507211532385   -0.1690689542577939
     0.6201675197594294    1.0172772717417147   -0.4484511589003144
     0.0872788356261781    0.2619524635659420   -0.4746356708386871
     0.0523137567008120    0.5189596928562911    0.1237567139050651
    -0.0777194433707459    1.1673358042360666   -0.1099306475477539
     0.5147270085617891    0.9853005487010063   -0.5167099744908924
     0.4191684302771715    0.9303980199964519   -0.4595825946855051
     0.6398488130948907    0.5709544922450261   -0.6615244419864538
     0.1445929314841652   -0.0247226028006616    0.5655052090730811
     0.9103884389781862    1.1133197916702566   -0.2792086638291528
    -0.0206944533264113    0.2471031635520802    0.1977739769001823
    -0.0060602863513561    0.0176448313021370    0.1934589998566315
    -0.0273359930181144    0.3524387705751984    0.1302829868244542
    -0.1287396961100931    0.1690514613452042    0.2031101525743877
    -0.1116405005937156    0.0944080676603471    0.2926227766781388
     0.8306231228051786    1.2564689977034127   -0.2728715081444004
     0.7185692693510366    0.4391255636583373   -0.6840177021193823
    -0.0623269432948228   -0.0003457785828030    0.5390754986005288
     1.1442677064146383    0.2738248870162716    0.0081443243108537
     0.6385426206374789    0.5604571675139139   -0.2737097257902648
     0.5927737105657616    0.0488220015716499   -0.3658207164285738
     0.1732908318752353    0.2954790611405151   -0.5575667242185142
     0.8825662456845440   -0.1034977805454991    0.0585847452580050
     0.8833268912689802   -0.1501766392984023   -0.0164965877122079
     0.7945905806732648   -0.0212030855177199   -0.1632106582807884
     0.5669790897615086    0.5049119084905359   -0.0996902618967431
     0.6525474330184822    0.4940744582287256   -0.1600405808593791
     0.3880654088460757    0.2739224609561189   -0.4468254529831307
     0.6728037601695220   -0.1390306506089261    0.2636073428398778
     0.6102175244296684    0.4869697100504412   -0.4043230582823412
     0.5454806832721887    0.4217126272320054   -0.4500453968419249
     0.1742255569877657    0.5791313389251160    0.1308390786122592
     0.5010697733896670    0.3272232411045140   -0.3797060556737254
     0.5008336897162087    0.1131242764950173   -0.3900561406549041
     0.4575226739216575    0.1354681660346255   -0.3034718567173684
     0.5569785122525349    0.5563903086582970   -0.3674986501791447
     0.6032415139875649    0.4014439458550361   -0.5300734830943510
     1.0679750913213175    0.3976327185379490   -0.1411668021437658
     0.6955684974311016    0.1019994035462267   -0.3144994729373736
     0.2647675292048630    0.5764010075235193    0.0626196787632080
     0.6325773275416293    0.3891189680195045   -0.1691773401401748
     0.0547791698265413    0.4154126013169233    0.1794979495371866
     1.0777522128953718    0.3593016520982817   -0.0259965882385492
     0.3682557330496256    0.6540724962994865    0.0671938086163889
     1.0096297806134267   -0.0837084640560865    0.0897022952249557
     0.1672723237260983   -0.0400202605395114    0.2141911871854722
     0.0353377122806508    0.0055064700809496    0.4805124438156984
     0.3589643824329347    0.5727801368642008   -0.4553301294191345
     0.8836707583792915    0.9185438575915871   -0.1268334189257269
     0.2377200946867902    0.5401090347084396   -0.4397584440143536
     0.7170973712046941    0.8956676395963415    0.1576733104639235
     0.8828047603601900    0.8682800611673396   -0.2061954450591030
     1.2083519470278030    0.5968602906259888   -0.0455995701683916
    -0.3999115637990172    0.1342656577894132   -0.8619483810058516
    -0.0121845909540890    0.0378025594677202    0.3002098341783687
    -0.2327384230996247    0.2191023422447165   -0.7947476949116767
     0.3452841051425610    0.1918100678608507   -0.3681570259025622
     0.1470134748362859    0.5876935732930741   -0.6281836392426352
    -0.3171241379357712    0.2275491961639197   -0.8890392564934140
     0.2887527273253454    0.0056584346011229   -0.0716536508656676
     0.4181552906505842    0.0665178915354306   -0.2162239731443989
     0.3288065370554278    0.0946640575182946   -0.1536452893036402
     0.8480451974676875    0.5371091317375706    0.1079144535478645
     0.8118165616157295    0.8387029332549333    0.1404224500839318
    -0.3935609151096271    0.2984782643305165   -0.8907776919424698
     0.3760400724910133   -0.0481175165302226    0.1935203918260577
     0.9356222416844645    0.7544560564620952   -0.2843908151664204
     0.6218219687820445    0.8828388284690083    0.0703307267561417
     0.3672822091271881    0.1768033972451023   -0.1074503375769513
     0.9680111391040235    0.7891789766199228   -0.1921126714371117
     0.8056936658112480    0.0484466373827632   -0.2723412690175807
     0.2876422337732785    0.3389153270558838   -0.5042543821827701
     0.5533350118964445    0.9211783141968275   -0.5647317554335854
     0.6807700554601641    0.4758878241805022   -0.6034784423752257
     0.0092363947259019   -0.0358560230315379    0.4010531749388838
     0.0247429359745083    0.5251856888819746   -0.4840809046724905
     0.0376842872863820   -0.0648385719817908    0.1880529703198933
     1.1100287302324552    0.4653151253251620   -0.1676909186781527
     0.8050068054605649   -0.2034309804266295   -0.0277536604574800
     1.1218475774675492    0.3514710629953663   -0.1600147184205210
     0.6489532182806548    0.3783303779134664   -0.2348517368222736
     0.7951600142853507    0.4075426753972161   -0.6344483888686427
     0.1438567142700296    0.1927737754766152    0.3602910027195766
     0.5663032076302887    0.9887957982606711   -0.3094607404759802
     0.5696059122876869    0.9402738139253618    0.0456263725677588
     0.9562585957309098    0.9723186317869175   -0.1311760908585119
     0.9075939307334119    0.6873836646949049   -0.2662968792416055
     0.8899324545116443    0.8158639828029836    0.1972269502473875
     0.9497234774764832    0.7311544048713823   -0.1297274430211726
     0.6352507148346304    0.3918024752769276   -0.7108949901279025
     0.6863583981127196    0.3486454488391705   -0.1071727301893461
     0.9585931362541774   -0.1916108628851829    0.0055291049066409
     0.4830818287054553    0.5436121755319728   -0.1360104653616804
     0.8687885497414372    0.7922451833575169   -0.3405111679453080
     0.7627187675517572    0.9648945580373768    0.1402863481426825
     1.1187878837977470    0.2322893466142462   -0.0420596619584079
     0.5390930453054843    0.3771401871944073   -0.1691161944178263
     0.2664520968085196    0.2520492780266438    0.3490492992320517
     1.1316670441036094    0.4132927896644370    0.0048807840212132
     1.0028655097916461    0.7648366424104864   -0.3323467475173985
     0.1284010652097860    0.2118580613692327    0.5949943795556163
     1.1860582455511250    0.0089363434109772    0.1428278150402992
     0.6162251255723645   -0.2039878516114525    0.2696163771654426
     0.2433779166409137    0.1651645980607883    0.4597516864313272
     0.9934401519350446    0.3812282372181199   -0.1953552462451142
     0.5273940019894046    0.4349471096251342   -0.0621989916920167
     0.4196340211465525    0.9387564875222679   -0.3813038024900314
     0.7658209204266121    1.2548999108100076   -0.2287567667144071
     0.9921919752471837    1.0831039499292288   -0.2374656582215778
     0.7843982546444090    0.8416395174152279   -0.2227094796854516
     0.7570263305570191    0.5011770695854604   -0.5672536172269705
     0.5624235487020071    0.8201113117242177    0.1067595004900102
     0.7661768122556406    0.7696843378781723    0.1433266478687850
     1.0925063872741398    0.8494203355698141   -0.0974631313427645
     0.7053417340090535    0.6092449462516990   -0.7075578729161108
     0.4169968458794822    0.8558238783974621   -0.4593433922927141
     1.1625129500856290    0.8033511980368737   -0.1640427681338710
     0.6329140860149342    0.6252796174595716   -0.2557254693208189
     0.6082029129588077    0.5890905939078473   -0.6053583959018316
     0.8971238765144954    0.9278530414207353   -0.2759282235379898
     0.7848277786136623    0.5850057241259211   -0.8966689513899027
     0.7421860854133836    0.4941393303331022   -0.7511033640103454
     0.3196548127084949    0.7239618714110705   -0.4826917437907713
     0.6810473140944833    0.9689434907268205   -0.4105301094254938
     0.4877389659567133    1.0492466812997494   -0.5617399222005356
     0.7306029015567872   -0.1741374950404222    0.3271987008153450
     0.7949387265769214    1.0025554054845947   -0.3182129055953478
     0.9311651004796464    0.4237900330348202   -0.0326942880541479
     0.7187364178452205    0.5833179387800119   -0.3023869752608644
     1.2854004527194198    0.6193152859329170   -0.0959669323045585
     0.9086836376573163    0.3026132309135243    0.0074885536661692
     0.6785159829673449    1.0661311207540380   -0.4892883164184791
     0.7421221241535028    0.5034214583584519   -0.1247283668242151
     1.1496907027229313    0.5410240562090577   -0.0634671665642706
     0.8267208072935204    0.4693990963058697    0.1731131501984720
     0.6531750434805660    0.8734388115005660    0.0079522498563503
     0.6483092843521863   -0.0836532881056572    0.2903022178834713
     1.0467776884033175   -0.0248973768602481    0.0339287318938388
     1.0981794266655749    0.8963465525073789   -0.2360215784945832
     0.3458649624995858    0.9681159624765816   -0.4926966771480004
     0.8664629485212501    1.3264682828570278   -0.2784109336332936
     1.1505554886853107    0.6567396061575000   -0.0673225961611984
     0.9979148205040095    1.2185411771354551   -0.2306421439755451
     1.3221880951493072   -0.2255738614633841    0.2665275004250181
     0.7869662537826486    1.2557096531173786   -0.3418737315211081
     0.5456205914660709    0.1770055486737022   -0.4226233666888946
     1.1573517718109032    0.2304068410546488   -0.9098742417376217
    -0.2776564254977341    0.2490684832277226   -0.9644463644347000
    -0.1224282685976817    0.0974691212065131   -0.0571435189128305
     0.3503282373800029   -0.0447013044890149   -0.0470880556417657
     0.0581280852842139    0.0774236026085864    0.1622945095279152
    -0.0065176548109899   -0.1138856427810333    0.2424419298661431
     0.0874584786026149   -0.0699050352141266    0.4042799652400375
    -0.0576108973452002    0.0147795269886727    0.6109606968566260
    -0.1037336199348512    0.0236215219887135    0.1631649478594875
    -0.0968288523993129    0.3754213814072509    0.1409221574747126
    -0.0966151603962750    0.1286955489397291    0.3556675036504956
     0.1607934559020407    0.5183351038075354   -0.6381783590675926
     0.0756606286676985    0.0809169353789916    0.2996681296634241
    -0.1515622644714991    0.1505406570494209    0.1326754507314530
     0.1854507816654107   -0.0114031147336844    0.2800219547408485
    -0.1391820743778472    0.0470654466379711    0.5095680861756245
     0.2103490505186358   -0.0018594631831781    0.5150026786359292
    -0.0633604225005133   -0.0864947625948289    0.4201901233545626
     0.0500709303988375    0.2228611633511552    0.1779705800201192
    -0.1834223109789499    0.0387109034437620    0.2981369123471869
     0.3525776046435126    0.2388553743154615   -0.1648174952343623
     0.0044464082517120    0.2526181885657692    0.2836241132761545
     0.1676802752579877   -0.2291819040493148    0.2533002834757225
     0.4026427383979626    0.5727841247029787   -0.3090047786505639
     0.0716937309558278    0.6214032768854569   -0.6713567101845825
     0.3764274955581716    0.5467641607802187   -0.5111016630765297
     0.3371444107554223    0.1756047420284937   -0.0393322704315516
     0.2268966214086620    0.5372502215882409   -0.3635145963382606
    -0.3398939229487767    0.3681917220380500   -0.9052269082690342
     0.2610068645049292    0.1148683338997870   -0.2106667604128085
     0.4892443348463754    0.0439660107602317   -0.1585219161396721
     0.2036396868191790   -0.0238593572868102   -0.0932977113505663
     0.3809131300954576    0.0164996208956564    0.2131182201507907
     0.2918605817988333    0.0294811546405307   -0.0056531541615142
     0.4128194615981906    0.4688096328471456   -0.3145414968756155
     0.3171926594569232    0.3951998652526787   -0.5627276292687305
    -0.0483412899039039    0.5463587191136056   -0.5536117150403005
    -0.4601472120859457    0.1211817325336173   -0.9243119029099550
     0.2890953792968294    0.2151832033659250   -0.3302351129254952
     0.4352230128632451   -0.0922184310369467    0.2430957596967087
     0.2810743116200913    0.1437930733987553   -0.3952159870368523
    -0.4736606586315071    0.2972643062403015   -0.9358442440902014
    -0.2071374799232373    0.2895086870801575   -0.7853948484711992
    -0.4209692187228060    0.2815581483862205   -0.8163202819407585
     0.3484586945392624   -0.0238293362852202    0.1128300866682736
     0.2373792420969290    0.4594512848291495   -0.4141502338865293
     0.3692453565433084    0.0002463004030258   -0.2216212111193723
    -0.2753674056495661    0.1798684191887898   -0.7237903472028534
    -0.3653791473803351    0.0731286903956455   -0.8140407681616985
     0.2741994575018583    0.3707496176778535   -0.4486008579256742
    -0.1015895375198789   -0.0655687384896552    0.5557349279798628
     0.8363898753729357   -0.0414512024987015    0.0255256096878441
     0.0647223558310340    0.0847325678956446    0.4443956945637681
    -0.4471624473553941    0.1554245204723821    0.1906280769260887
     0.4422299785083456    0.1011495757822109   -0.4499713444049784
     0.4190547992169739    0.2492141134672465   -0.5001204334484273
     0.4660227833878769    0.3262652534382350   -0.3167808676304318
     1.0326909416363335    0.5196215189014928    0.0398957013536400
     0.7280022376766396    0.1516742616911085   -0.3911142782321302
     0.7080792149072844   -0.0573223687264760   -0.1686702469653107
     0.5743579979991145    0.6226276253287509   -0.4152571893593754
     1.2288875028573809   -0.1713943244964373    0.1424027274212462
     0.6622614865655622    0.5352771179593075   -0.4616827004639094
     0.7987902336030596    0.0160491618969846   -0.1109312968700054
     0.5127905858938145    0.1869048161415403   -0.2664536061288456
     0.6775218601832950    0.1385631060144963   -0.2638853359694120
     0.5693193877657373    0.2828546965961000   -0.3553456732566381
     0.5699431535324021    0.5819268721315104   -0.7238195047752309
     0.6632115862494191    0.3478232599946652   -0.4852645818890757
     0.4666297045679878    0.4461956832876041   -0.5038488986581326
     0.9214515941179224    0.1362965316928615   -0.3553937587486921
     0.4705332952188097    0.1817923627443021   -0.0929287683748973
     0.6687081236215623    0.4436233405815265   -0.3444127854691776
     1.2920658756967118   -0.1085858678881022    0.3260914940348130
     0.1347158689348235    0.3561294204178626   -0.6102298546452525
     1.2310042489267585    0.2997649708624254   -0.9922068562607106
     0.5277628436291507    0.3792457290427220   -0.5802347477800625
     0.3778971750406867    0.7106628741314107   -0.0180318653040311
     0.0300519677080693    0.4012152521729291    0.2574134735636885
    -0.0069594404553031    0.6439893079340314    0.0976391208024005
     0.1359640154183499   -0.1002223141946792    0.6083167486958689
     0.1535426580012821    0.4014353283258620    0.1935476435121837
     0.1251893643485069    0.6525889572718853   -0.5224226966410576
     0.3773408691975081    0.6921291487697343   -0.5859998611021549
    -0.1103987786340888    1.2256002771338024   -0.1012616610916597
     0.4736485457786233    0.7140936221948444   -0.4838381769702274
     0.0085721397943529    0.2237249143659633   -0.4963273246041107
     0.4805567096502670    0.9010624789893894   -0.6091500042447500
     0.6138634402382125    0.9575869194705015   -0.6136151214136997
    -0.0254666330081900    0.5651584633910998   -0.7768064422291738
     0.0221513865456172    0.4519186716093088   -0.4697946249586558
     0.0086060421662103    1.1751265122644436   -0.0761904887217500
     0.5916132113640906    0.8520891669642316   -0.4997787409480003
    -0.0003990719969931    0.5327927631712704   -0.4142136448214813
     0.2211916950454419    0.6236203064059771   -0.6518515557838203
     0.2983716732408347    0.5109106128359666    0.0798751282898382
     0.4535585610991971    0.6278756691697183    0.0842504060277294
     0.1956084168274021    0.5624866762583336    0.2073061790357705
     0.1606845182219343    0.6503477008344737    0.1008834718071187
     0.0606655206568775    0.3180090512806976    0.5522110014963860
     0.3568507926555466    0.6898641925692039    0.1175928035630759
     0.0572240547890579    0.8464524420271812    0.1106012680183040
    -0.1694045987729406    0.5095051677855539    0.0475432614137691
     0.1671745001357977    0.0211856194520465    0.6170635655462010
     0.6053287021679533    0.5450525704924064   -0.0475592307955118
Lattice velocities and vectors
            1
 -0.56429034E-03 -0.65589449E-03 -0.10221969E-02
  0.18836274E-03  0.16190494E-03 -0.31904055E-03
  0.24021887E-03 -0.82755401E-03 -0.64335974E-03
  0.11848336E+02 -0.11542775E+01 -0.20332509E+01
 -0.18072824E-09  0.14725402E+02  0.48887323E+01
 -0.25271947E-09 -0.72964396E-10  0.14126622E+02
 
 -0.50773124E-02  0.66357573E-02 -0.17608485E-02
 -0.99177800E-02 -0.61876008E-02  0.11108580E-01
  0.10914958E-02  0.25520653E-02  0.90848128E-02
 -0.43944830E-03 -0.32774878E-02 -0.14500853E-01
 -0.46360648E-02  0.50926285E-02  0.73131432E-02
 -0.16015854E-01  0.21033523E-02  0.11156362E-01
  0.14432545E-02 -0.53729401E-02 -0.17856119E-02
  0.12307513E-01  0.61930267E-02  0.91663328E-02
 -0.94519408E-04 -0.12807871E-01 -0.11366349E-01
 -0.11302066E-01 -0.11495638E-01 -0.13123893E-01
  0.15009091E-02 -0.16133964E-01 -0.19009942E-02
  0.11788522E-01 -0.87200853E-02  0.51911856E-02
  0.11794439E-01 -0.10190957E-01 -0.79845239E-02
 -0.11620748E-01  0.47661943E-02  0.52913115E-02
  0.54502625E-02  0.16546755E-02  0.52710950E-02
  0.21197503E-01  0.36407084E-02  0.99691056E-03
  0.64873890E-02 -0.91138485E-02 -0.76227862E-03
  0.23900530E-02  0.98446170E-02  0.33482963E-02
 -0.11482768E-02 -0.75558199E-02 -0.27507222E-02
  0.44794817E-02 -0.11282873E-01  0.33251042E-02
 -0.63921020E-02 -0.13547010E-02 -0.53445757E-02
  0.10938624E-01 -0.12031651E-02  0.75655720E-02
  0.12596830E-01 -0.52024888E-02 -0.14695107E-01
 -0.64473322E-02  0.65196880E-02 -0.10958821E-01
 -0.10504130E-01  0.21139450E-02 -0.11667645E-01
 -0.53313238E-02 -0.11882282E-03  0.67146370E-02
 -0.11059489E-01  0.65153441E-02  0.83397854E-02
 -0.30426481E-02  0.38409128E-02  0.44511047E-02
  0.98456983E-02 -0.14105181E-01 -0.49358891E-02
 -0.66811853E-02 -0.77222543E-03  0.25560725E-02
 -0.40717282E-02  0.32135949E-02 -0.71000905E-02
  0.15802472E-02 -0.82008404E-02 -0.49481465E-03
  0.42496402E-02 -0.77213989E-03  0.11972103E-01
  0.59149393E-02 -0.81618040E-02 -0.22242157E-02
  0.15640809E-02 -0.71097801E-02 -0.67114210E-02
  0.89570737E-03 -0.14936967E-02  0.84497711E-03
 -0.39315197E-02  0.34899029E-03 -0.76626350E-03
  0.63940488E-02  0.57905933E-02 -0.36875733E-02
  0.72280802E-02  0.67143647E-02  0.82327188E-04
  0.12960971E-01 -0.64431832E-02 -0.13784141E-01
  0.10825276E-02 -0.34314676E-02  0.89807384E-02
 -0.76331272E-02  0.31070508E-02 -0.22803344E-02
 -0.15019079E-02  0.10177969E-02 -0.13848988E-01
 -0.65248529E-02 -0.95398072E-02  0.33281955E-02
  0.43795100E-02  0.59530938E-03 -0.27327453E-02
  0.24536068E-02  0.13747352E-02  0.51606849E-02
  0.45554224E-02 -0.32178464E-03  0.46034082E-02
 -0.24279018E-02  0.45893905E-02  0.38224967E-02
  0.41589665E-02 -0.89948654E-02  0.34645535E-02
  0.23335689E-02  0.16924407E-03 -0.15739580E-02
  0.10954944E-02 -0.16845281E-02  0.94943735E-02
 -0.65401981E-02  0.72511035E-02  0.29420556E-02
  0.16624564E-02  0.52762302E-02  0.28275763E-02
  0.36769384E-02  0.61281944E-02 -0.67709482E-03
  0.15327875E-01 -0.86582896E-02  0.25434215E-02
  0.55761393E-02  0.83071965E-02  0.11212371E-01
 -0.50276208E-02 -0.95660555E-02 -0.88015961E-02
 -0.47367574E-02  0.70897749E-03 -0.33559239E-02
  0.52052711E-02 -0.68831290E-02  0.34948069E-02
 -0.72167171E-02 -0.15348741E-02  0.53935957E-02
 -0.11108523E-01 -0.71628561E-02 -0.88793877E-02
  0.91367935E-02 -0.11428529E-02 -0.84052906E-02
  0.22390946E-02 -0.20450569E-02 -0.13591326E-01
  0.27318436E-02  0.60021093E-02 -0.13647783E-02
  0.12893989E-02 -0.48622834E-02 -0.68556389E-02
  0.83596895E-02 -0.64793984E-02  0.29201900E-02
  0.86810374E-02  0.65981210E-02 -0.16959943E-02
  0.47954047E-02  0.11726078E-01  0.19277656E-02
  0.19289152E-02  0.19295257E-01 -0.56013927E-02
  0.48169331E-02 -0.36990628E-02 -0.16694169E-02
  0.21907644E-01  0.56229021E-02  0.42138342E-02
  0.60535235E-02 -0.10831564E-01  0.24626079E-02
  0.41837454E-02  0.39162588E-02  0.72575588E-02
  0.11278996E-01 -0.17458604E-01  0.17007775E-01
 -0.50328978E-02  0.63866692E-02 -0.19041496E-02
  0.50734980E-02 -0.10114198E-01  0.13810786E-01
 -0.14638691E-02 -0.47377154E-02 -0.31097816E-02
 -0.11562348E-01 -0.58960502E-02 -0.26111181E-02
 -0.89836793E-02 -0.19213019E-02 -0.11992050E-01
  0.24236898E-02 -0.23415625E-02 -0.31738127E-02
 -0.13964256E-02 -0.10640127E-01 -0.77943259E-02
 -0.41162366E-02  0.31678410E-02  0.14821491E-01
 -0.69295663E-02 -0.44187289E-02  0.11266416E-02
  0.59306030E-02 -0.96372335E-02  0.79297253E-03
  0.12331665E-01 -0.11085424E-02  0.98859652E-05
 -0.64232396E-02 -0.14506640E-01  0.82799560E-02
 -0.27008209E-01  0.10344185E-01 -0.25400939E-01
 -0.25172871E-01  0.81525387E-02  0.51306022E-02
 -0.28578647E-01 -0.10836231E-02  0.16019048E-01
 -0.40509504E-01  0.12857695E-01  0.38092867E-01
 -0.34948671E-01 -0.21254341E-01  0.16116245E-01
  0.80998038E-02 -0.27921050E-01  0.96571346E-02
  0.29125448E-02 -0.31263418E-01 -0.26970090E-01
 -0.32524217E-01  0.14387164E-01  0.16769399E-01
  0.27081526E-02  0.39712224E-01 -0.57222135E-02
 -0.23158270E-01  0.56210405E-03  0.46818831E-01
  0.44919454E-01 -0.18345237E-01 -0.21978585E-01
 -0.38733817E-01  0.36402234E-01 -0.45935154E-01
 -0.10539019E-01 -0.99390280E-02  0.42004587E-01
  0.15927331E-02 -0.17547585E-01  0.32904225E-01
  0.24344331E-01 -0.22646538E-01  0.17737109E-01
 -0.16921974E-01 -0.27812142E-01 -0.34426169E-01
  0.46775882E-01 -0.34091773E-01 -0.12630364E-01
 -0.36489553E-01 -0.71243713E-02  0.33017442E-01
  0.11329767E-02  0.11895602E-01  0.35411551E-01
  0.28439392E-01  0.10323489E-01 -0.17740603E-01
  0.19140548E-01  0.31873160E-01 -0.50854926E-02
  0.15998198E-01 -0.12405574E-01  0.31646423E-01
  0.37962980E-01 -0.55728450E-02 -0.40279603E-02
  0.28697442E-01  0.18804422E-01  0.14124124E-01
  0.25653810E-01  0.27758538E-02  0.13035334E-01
 -0.27246334E-02 -0.31765078E-02  0.43539344E-01
 -0.14733494E-01  0.63045186E-02  0.13698928E-01
  0.23896281E-01  0.15065878E-01 -0.20732503E-01
  0.26639501E-01 -0.46829080E-01 -0.27995002E-01
 -0.21866673E-01  0.13386217E-01  0.18801837E-01
  0.56592892E-02  0.15828185E-01  0.12527687E-01
  0.39560190E-01  0.13395611E-01 -0.14422630E-01
  0.22755344E-01  0.15806063E-01 -0.21594918E-01
  0.58835474E-02 -0.60794535E-01  0.10347098E-01
  0.81969436E-02  0.22612460E-01  0.32933840E-02
  0.25364290E-01 -0.39756610E-01  0.42001130E-02
 -0.33372661E-02 -0.20154387E-01  0.14736918E-01
  0.64316762E-02  0.18643750E-01  0.20734216E-01
  0.13157060E-01  0.51092651E-01  0.27057548E-02
 -0.19277168E-02  0.16167466E-02  0.31703188E-01
 -0.28662999E-01 -0.15449854E-02  0.21977365E-01
 -0.37129309E-01  0.41354015E-01 -0.12921944E-01
 -0.74219339E-02 -0.52346330E-02 -0.73028239E-02
  0.13757278E-01 -0.90391508E-02 -0.64218635E-03
  0.25227101E-03  0.29425449E-02 -0.22184696E-01
  0.18425654E-01  0.96218770E-02  0.81721138E-02
 -0.67907639E-02 -0.65666311E-01  0.56615442E-02
  0.37695540E-01 -0.39388222E-01  0.25635452E-01
 -0.73075847E-02 -0.11117290E-01 -0.41101467E-01
  0.44730878E-01 -0.31182166E-01  0.77389036E-02
 -0.89345479E-02 -0.18509254E-02 -0.23076918E-01
  0.24514548E-01  0.58242122E-01 -0.46070863E-01
  0.13550792E-01  0.11864729E-01 -0.13401312E-01
  0.29017344E-01 -0.61714983E-02  0.19040099E-01
 -0.15296798E-01  0.13300045E-01  0.28175095E-01
 -0.12079494E-01 -0.11439977E-01 -0.24566438E-02
 -0.19555470E-01 -0.21035496E-01  0.18389998E-01
  0.36084408E-01  0.24268695E-01  0.14933463E-01
 -0.44284271E-01 -0.88478887E-02 -0.66249641E-02
 -0.68186342E-02  0.12446544E-01  0.37609952E-01
 -0.59887361E-02 -0.21929752E-01  0.34266452E-01
  0.57832440E-02  0.12993135E-01  0.48990130E-01
 -0.27452860E-01  0.68414596E-01  0.76959558E-02
  0.17262809E-01 -0.27379910E-01  0.18823464E-01
 -0.28752643E-02 -0.94502275E-02 -0.43984069E-01
  0.93127655E-02  0.15604414E-01  0.47243151E-01
 -0.16238590E-01  0.23041511E-01  0.24705207E-01
  0.16643704E-01 -0.13513854E-01 -0.28819357E-01
 -0.50953571E-01 -0.14075808E-03 -0.11135163E-01
 -0.10810458E-01 -0.21011272E-01  0.49414465E-01
  0.15933836E-01 -0.10250757E-02 -0.41239164E-01
 -0.19113355E-02  0.51439214E-02  0.46974989E-02
  0.15299028E-01 -0.13456430E-01  0.55857588E-01
  0.25112875E-02 -0.54819062E-02 -0.24667509E-01
  0.96407908E-02 -0.16375403E-01 -0.33237811E-01
  0.30106103E-01  0.20171014E-01 -0.20156264E-01
  0.15668731E-01 -0.19415190E-01 -0.32333722E-01
  0.13196329E-01  0.17668653E-01  0.23252511E-01
 -0.12792627E-01 -0.38109001E-02 -0.49833241E-02
  0.11452482E-01 -0.14179769E-02 -0.12292189E-01
 -0.40228375E-02  0.43835968E-02  0.55486715E-01
  0.32355696E-01 -0.16244740E-01  0.10194353E-01
  0.42460077E-01 -0.28904860E-01 -0.79024990E-02
  0.16248377E-03  0.19163669E-01 -0.22932998E-01
 -0.13052969E-01  0.16076467E-01  0.33115350E-01
  0.16212312E-01  0.19294990E-01  0.31385837E-01
 -0.13819019E-01  0.17352009E-01  0.41372260E-01
  0.22460037E-01 -0.26971753E-01  0.16913749E-01
 -0.30127775E-01  0.23491570E-01  0.30634057E-01
 -0.61625779E-01  0.87579383E-02  0.43842541E-02
 -0.66083707E-01  0.53999178E-02 -0.33413094E-03
  0.89339070E-02 -0.12922270E-01  0.26934473E-01
  0.18742980E-01  0.21331346E-01 -0.13336693E-01
 -0.18346023E-01  0.13266895E-01  0.38600017E-02
  0.22527384E-01 -0.64592979E-01  0.11373919E-01
  0.36549366E-01 -0.44498617E-01  0.51876221E-01
  0.31074899E-02 -0.49449263E-01  0.57519062E-03
 -0.45265463E-02 -0.49840703E-01  0.71949524E-01
 -0.39120745E-01 -0.17665947E-01  0.28992016E-01
 -0.13910734E-01 -0.99587146E-02 -0.43812185E-01
 -0.58325545E-02  0.38117034E-01 -0.48639378E-01
 -0.38461122E-02  0.12702779E-01  0.12275097E-01
 -0.10116935E-01  0.46023840E-01 -0.14741375E-01
  0.12821495E-01 -0.38905434E-01  0.96276044E-02
 -0.11027503E-01 -0.69706371E-01 -0.75575157E-02
 -0.33226554E-02  0.15480045E-01  0.18078037E-01
 -0.14971721E-02 -0.33885980E-02  0.33422568E-01
 -0.45379482E-01 -0.50075850E-01 -0.35777721E-01
 -0.74725088E-03 -0.37315874E-01  0.13680593E-02
 -0.13306628E-01 -0.73737496E-03 -0.87805323E-02
 -0.51711941E-02  0.31279760E-01  0.47549806E-02
 -0.13388729E-01  0.70046459E-02  0.48485616E-01
 -0.25582640E-01  0.13213113E-01 -0.29654611E-01
  0.14189621E-01  0.86931461E-02 -0.70056362E-02
 -0.85833176E-02  0.51178356E-02 -0.24577822E-01
 -0.21658632E-01 -0.26917869E-01 -0.76476662E-02
 -0.40197837E-02  0.11822123E-02 -0.51502646E-02
  0.22212042E-01  0.99980650E-02 -0.60000577E-02
 -0.39427407E-01 -0.20187988E-01 -0.98598071E-02
 -0.50968588E-02  0.23083868E-01 -0.27831500E-01
 -0.24217715E-01  0.97376235E-02 -0.39492218E-01
  0.17295929E-01 -0.15102769E-01  0.23771268E-01
 -0.28141452E-01 -0.36779850E-01 -0.23384855E-01
 -0.23709930E-01 -0.10946474E-01  0.49169238E-01
  0.44416334E-01 -0.63815094E-01  0.71289095E-02
  0.21012664E-01 -0.21030384E-01 -0.80601908E-02
  0.76360786E-02 -0.60528299E-02  0.17162956E-01
  0.14425475E-01 -0.77097585E-02 -0.15274410E-01
 -0.16160989E-01 -0.77261138E-02 -0.10251970E-03
 -0.39671776E-02  0.37939248E-01  0.54208187E-02
  0.14989648E-01  0.32993122E-01  0.33506350E-01
  0.33625422E-01  0.28957802E-02  0.13305836E-04
 -0.28802847E-01 -0.24379304E-02 -0.11642369E-01
  0.39255566E-01 -0.73323714E-02  0.49148234E-01
 -0.85956468E-02 -0.59005805E-02  0.13593891E-01
 -0.79643090E-02  0.95781673E-02 -0.82294736E-02
 -0.57970354E-02 -0.30652643E-01 -0.29899678E-01
 -0.99322468E-02 -0.31424870E-01 -0.19394708E-01
 -0.48705131E-01 -0.15388920E-02  0.11581649E-01
  0.13228705E-01 -0.15947933E-01 -0.11420077E-01
 -0.19431411E-01 -0.20292867E-01  0.37070019E-01
 -0.17137111E-01 -0.13120233E-01  0.38730888E-01
 -0.36712984E-01  0.18908063E-01 -0.34348099E-01
 -0.25335046E-01  0.28073938E-02 -0.16936254E-01
  0.12726083E-02 -0.11942132E-01  0.10354289E-01
  0.11352517E-02  0.93561412E-02 -0.22751085E-01
  0.19507657E-01  0.14528521E-01  0.33522248E-03
 -0.68335581E-03  0.79540621E-02  0.44969177E-01
 -0.17859776E-01 -0.12981715E-01 -0.24516440E-02
  0.17884797E-01 -0.16837373E-01  0.23947689E-03
  0.14926480E-01  0.86499044E-02 -0.71472195E-02
  0.66049190E-01  0.60100323E-01  0.48004561E-01
  0.22445297E-02  0.34689892E-01  0.27669953E-02
  0.15609440E-01  0.17865165E-01  0.12485025E-02
 -0.21552315E-01  0.32967124E-02 -0.62655678E-02
 -0.14488393E-01 -0.26855640E-01  0.21983596E-01
  0.25806473E-02  0.70095041E-03  0.16825305E-01
 -0.67847849E-01  0.63096111E-02 -0.80301736E-02
  0.51486233E-01 -0.40236560E-01  0.51194183E-02
  0.99385848E-02 -0.20000871E-02 -0.24822791E-01
  0.56533376E-02 -0.37313175E-02 -0.32192084E-01
  0.79503027E-02 -0.24035705E-02 -0.37998082E-02
 -0.23895198E-01 -0.31622983E-01 -0.16604186E-01
 -0.21353575E-01  0.74623931E-01 -0.40130689E-03
  0.38896696E-01  0.32333075E-02 -0.25260624E-01
 -0.71384857E-02 -0.18006086E-01  0.47076237E-01
 -0.11370252E-01  0.37660873E-01  0.50945947E-01
 -0.81458933E-02 -0.18649574E-01  0.16421230E-01
 -0.19432027E-01 -0.16667230E-01  0.85101193E-02
  0.10800385E-01  0.91004159E-02  0.12376513E-02
  0.36114421E-01  0.42405182E-02 -0.29442969E-01
  0.13650098E-01  0.92179644E-02  0.13491730E-01
  0.14477524E-01 -0.29519049E-03 -0.24496285E-01
 -0.54735768E-02  0.18153940E-02  0.22206206E-01
 
            1
   0.4000000000000000     
  0.10000000E+01  0.00000000E+00  0.00000000E+00  0.00000000E+00
  0.43028191E+00  0.54056725E+00  0.64675525E+00
  0.26148725E+00  0.89722505E+00  0.24777423E+00
  0.21739516E+00  0.22718655E+00  0.40344000E+00
  0.96771327E+00  0.57118539E+00  0.13947021E+00
  0.24410409E+00  0.81065108E+00  0.22981948E+00
  0.96908698E+00  0.36280958E+00  0.14650061E-01
  0.91740613E+00  0.18330808E+00  0.77757423E+00
  0.38697043E+00  0.67775711E+00  0.50159776E+00
  0.13529974E+00  0.58005529E+00  0.48728837E+00
  0.87672759E-01  0.83570855E+00  0.83062294E+00
  0.62021819E+00  0.16842982E-01  0.55165260E+00
  0.87676816E-01  0.26174679E+00  0.52563978E+00
  0.52711937E-01  0.51871408E+00  0.12367294E+00
  0.92188824E+00  0.16743452E+00  0.89012855E+00
  0.51491101E+00  0.98535992E+00  0.48344522E+00
  0.41988406E+00  0.93055301E+00  0.54049500E+00
  0.64006783E+00  0.57072409E+00  0.33856523E+00
  0.14467362E+00  0.97555114E+00  0.56551690E+00
  0.91034967E+00  0.11311151E+00  0.72077995E+00
  0.97945677E+00  0.24680853E+00  0.19799186E+00
  0.99372392E+00  0.17591117E-01  0.19329520E+00
  0.97303330E+00  0.35243504E+00  0.13055165E+00
  0.87168557E+00  0.16894348E+00  0.20279263E+00
  0.88814184E+00  0.94568106E-01  0.29222576E+00
  0.83026850E+00  0.25649862E+00  0.72673683E+00
  0.71838928E+00  0.43910823E+00  0.31615252E+00
  0.93729969E+00  0.99980194E+00  0.53920678E+00
  0.14416499E+00  0.27392117E+00  0.82222543E-02
  0.63887501E+00  0.56010007E+00  0.72632193E+00
  0.59254815E+00  0.48783344E-01  0.63423257E+00
  0.17315337E+00  0.29555558E+00  0.44218597E+00
  0.88261959E+00  0.89628363E+00  0.58654058E-01
  0.88347036E+00  0.84981363E+00  0.98386642E+00
  0.79479027E+00  0.97859086E+00  0.83682641E+00
  0.56703189E+00  0.50472292E+00  0.90019271E+00
  0.65257767E+00  0.49403625E+00  0.84000092E+00
  0.38793268E+00  0.27392154E+00  0.55313407E+00
  0.67301962E+00  0.86114357E+00  0.26347371E+00
  0.61046154E+00  0.48717123E+00  0.59564466E+00
  0.54591825E+00  0.42157190E+00  0.54967598E+00
  0.17426210E+00  0.57904099E+00  0.13112990E+00
  0.50081208E+00  0.32728744E+00  0.62017007E+00
  0.50078299E+00  0.11314795E+00  0.60953623E+00
  0.45730239E+00  0.13519176E+00  0.69668633E+00
  0.55712636E+00  0.55641807E+00  0.63243564E+00
  0.60332435E+00  0.40148778E+00  0.47006940E+00
  0.68128882E-01  0.39763603E+00  0.85898453E+00
  0.69548653E+00  0.10211764E+00  0.68555605E+00
  0.26490794E+00  0.57616768E+00  0.62818735E-01
  0.63265611E+00  0.38912974E+00  0.83078570E+00
  0.54816154E-01  0.41536974E+00  0.17978694E+00
  0.77531416E-01  0.35948131E+00  0.97399276E+00
  0.36831186E+00  0.65422022E+00  0.67230829E-01
  0.97539141E-02  0.91646773E+00  0.89640014E-01
  0.16778979E+00  0.95978511E+00  0.21440504E+00
  0.35525963E-01  0.57468827E-02  0.48077382E+00
  0.35879465E+00  0.57250698E+00  0.54449075E+00
  0.88351085E+00  0.91855058E+00  0.87304621E+00
  0.23789582E+00  0.53993584E+00  0.56042574E+00
  0.71685373E+00  0.89560685E+00  0.15781200E+00
  0.88242974E+00  0.86805609E+00  0.79357666E+00
  0.20866041E+00  0.59685343E+00  0.95420920E+00
  0.60016403E+00  0.13421603E+00  0.13769483E+00
  0.98790764E+00  0.37972830E-01  0.30012554E+00
  0.76730511E+00  0.21897368E+00  0.20510898E+00
  0.34556633E+00  0.19165618E+00  0.63201953E+00
  0.14730655E+00  0.58789578E+00  0.37174054E+00
  0.68303775E+00  0.22788041E+00  0.11092401E+00
  0.28881785E+00  0.61876745E-02  0.92801397E+00
  0.41831791E+00  0.66430158E-01  0.78378252E+00
  0.32954614E+00  0.94874773E-01  0.84650756E+00
  0.84824956E+00  0.53683092E+00  0.10810988E+00
  0.81195780E+00  0.83882039E+00  0.14060763E+00
  0.60681986E+00  0.29803387E+00  0.10991248E+00
  0.37587016E+00  0.95204265E+00  0.19338659E+00
  0.93579352E+00  0.75419474E+00  0.71611533E+00
  0.62177255E+00  0.88270626E+00  0.70281437E-01
  0.36689186E+00  0.17661264E+00  0.89248556E+00
  0.96770785E+00  0.78910301E+00  0.80753041E+00
  0.80577549E+00  0.48389445E-01  0.72760043E+00
  0.28759509E+00  0.33862260E+00  0.49561943E+00
  0.55319605E+00  0.92125347E+00  0.43564191E+00
  0.68053611E+00  0.47574946E+00  0.39656767E+00
  0.94366120E-02  0.96389789E+00  0.40118961E+00
  0.25159253E-01  0.52518821E+00  0.51597842E+00
  0.37467439E-01  0.93475037E+00  0.18839846E+00
  0.10911693E+00  0.46552464E+00  0.83138610E+00
  0.80415697E+00  0.79672386E+00  0.97221571E+00
  0.12088276E+00  0.35136600E+00  0.84033636E+00
  0.64758562E+00  0.37857244E+00  0.76594627E+00
  0.79398015E+00  0.40687284E+00  0.36606994E+00
  0.14413016E+00  0.19203676E+00  0.36085886E+00
  0.56640154E+00  0.98795427E+00  0.69008097E+00
  0.56850789E+00  0.94057856E+00  0.45837705E-01
  0.95635002E+00  0.97340454E+00  0.86829925E+00
  0.90681211E+00  0.68733765E+00  0.73493221E+00
  0.89144894E+00  0.81548453E+00  0.19695420E+00
  0.94841582E+00  0.73204073E+00  0.86847695E+00
  0.63489492E+00  0.39150460E+00  0.29034626E+00
  0.68641217E+00  0.34817300E+00  0.89393020E+00
  0.95941500E+00  0.80783839E+00  0.63402224E-02
  0.48251054E+00  0.54281191E+00  0.86320947E+00
  0.87036770E+00  0.79144290E+00  0.65963613E+00
  0.76148688E+00  0.96460447E+00  0.14114433E+00
  0.11882613E+00  0.23261548E+00  0.95883567E+00
  0.54005316E+00  0.37749587E+00  0.83039657E+00
  0.26709828E+00  0.25296573E+00  0.34868115E+00
  0.13220714E+00  0.41299814E+00  0.59565671E-02
  0.41471406E-02  0.76478572E+00  0.66774129E+00
  0.12936989E+00  0.21244481E+00  0.59533070E+00
  0.18692432E+00  0.90796353E-02  0.14327198E+00
  0.61613314E+00  0.79591865E+00  0.27086832E+00
  0.24288051E+00  0.16529686E+00  0.46002221E+00
  0.99424689E+00  0.38170072E+00  0.80401031E+00
  0.52829335E+00  0.43374554E+00  0.93755358E+00
  0.41889580E+00  0.93906224E+00  0.61901651E+00
  0.76601198E+00  0.25534484E+00  0.77147148E+00
  0.99352753E+00  0.83572517E-01  0.76215603E+00
  0.78516648E+00  0.84212909E+00  0.77662020E+00
  0.75722496E+00  0.49954122E+00  0.43363406E+00
  0.56270028E+00  0.82074725E+00  0.10667251E+00
  0.76703311E+00  0.76867151E+00  0.14391933E+00
  0.92393721E-01  0.84886403E+00  0.90313045E+00
  0.70555887E+00  0.60976840E+00  0.29287932E+00
  0.41744103E+00  0.85724657E+00  0.54030481E+00
  0.16244787E+00  0.80339001E+00  0.83683212E+00
  0.63194642E+00  0.62516180E+00  0.74479832E+00
  0.60694943E+00  0.59011568E+00  0.39374056E+00
  0.89687331E+00  0.92769121E+00  0.72388494E+00
  0.78529222E+00  0.58479659E+00  0.10345209E+00
  0.74219460E+00  0.49421993E+00  0.24824180E+00
  0.32027686E+00  0.72427200E+00  0.51752186E+00
  0.68081806E+00  0.96714176E+00  0.59022072E+00
  0.48901157E+00  0.48276497E-01  0.43950487E+00
  0.73035620E+00  0.82554118E+00  0.32611059E+00
  0.79644884E+00  0.18267480E-02  0.68247574E+00
  0.93086347E+00  0.42371611E+00  0.96663445E+00
  0.71956403E+00  0.58496490E+00  0.69585768E+00
  0.28585793E+00  0.61967344E+00  0.90359551E+00
  0.90966326E+00  0.30252238E+00  0.82001193E-02
  0.67799956E+00  0.66451922E-01  0.51132412E+00
  0.74171432E+00  0.50307874E+00  0.87526198E+00
  0.14903051E+00  0.54040090E+00  0.93717418E+00
  0.82793902E+00  0.47015382E+00  0.17345015E+00
  0.65168001E+00  0.87308128E+00  0.76732107E-02
  0.64807909E+00  0.91666676E+00  0.29122326E+00
  0.46575509E-01  0.97449108E+00  0.35081533E-01
  0.98374669E-01  0.89671480E+00  0.76526626E+00
  0.34493815E+00  0.96990172E+00  0.50676985E+00
  0.86704574E+00  0.32577022E+00  0.72244752E+00
  0.15045842E+00  0.65647529E+00  0.93150948E+00
  0.99822922E+00  0.21898970E+00  0.77058560E+00
  0.32163988E+00  0.77500906E+00  0.26694640E+00
  0.78752815E+00  0.25538661E+00  0.65750291E+00
  0.54390040E+00  0.17686688E+00  0.57686174E+00
  0.15698681E+00  0.22980748E+00  0.91679833E-01
  0.72288150E+00  0.24908280E+00  0.34458403E-01
  0.87750720E+00  0.97603792E-01  0.94293360E+00
  0.35084473E+00  0.95497365E+00  0.95468040E+00
  0.58212866E-01  0.77281338E-01  0.16165748E+00
  0.99380782E+00  0.88569505E+00  0.24169274E+00
  0.88474861E-01  0.93072256E+00  0.40363833E+00
  0.94291808E+00  0.14293599E-01  0.61028946E+00
  0.89671189E+00  0.24136394E-01  0.16370929E+00
  0.90273927E+00  0.37528401E+00  0.14076643E+00
  0.90377148E+00  0.12868734E+00  0.35537794E+00
  0.16065764E+00  0.51844353E+00  0.36333569E+00
  0.76752957E-01  0.80561288E-01  0.30023708E+00
  0.84987119E+00  0.14986785E+00  0.13289084E+00
  0.18545627E+00  0.98911788E+00  0.27919309E+00
  0.86037726E+00  0.47467604E-01  0.51030316E+00
  0.21089638E+00  0.99870757E+00  0.51577393E+00
  0.93617305E+00  0.91394002E+00  0.42114398E+00
  0.50829182E-01  0.22218794E+00  0.17879161E+00
  0.81556057E+00  0.39269299E-01  0.29866469E+00
  0.35049712E+00  0.23893019E+00  0.83498131E+00
  0.22154213E-02  0.25258999E+00  0.28330330E+00
  0.16798188E+00  0.77049072E+00  0.25421965E+00
  0.40327550E+00  0.57341317E+00  0.69049097E+00
  0.71074369E-01  0.62171511E+00  0.32855553E+00
  0.37718802E+00  0.54506918E+00  0.48991643E+00
  0.33837832E+00  0.17449271E+00  0.96269906E+00
  0.22700153E+00  0.53591521E+00  0.63697879E+00
  0.65995326E+00  0.36682587E+00  0.97261044E-01
  0.25968615E+00  0.11428493E+00  0.79016596E+00
  0.48877471E+00  0.43658680E-01  0.84027629E+00
  0.20344278E+00  0.97716062E+00  0.90494373E+00
  0.38078329E+00  0.16834500E-01  0.21333121E+00
  0.29151903E+00  0.30704571E-01  0.99345690E+00
  0.41325232E+00  0.46778674E+00  0.68614740E+00
  0.31682037E+00  0.39327718E+00  0.43767017E+00
  0.95154654E+00  0.54677043E+00  0.44674155E+00
  0.53980224E+00  0.12108572E+00  0.76660419E-01
  0.28756337E+00  0.21370286E+00  0.66904362E+00
  0.43519779E+00  0.90676595E+00  0.24348234E+00
  0.28062508E+00  0.14373783E+00  0.60448985E+00
  0.52616476E+00  0.29810030E+00  0.63975958E-01
  0.79241052E+00  0.28966353E+00  0.21585940E+00
  0.57816711E+00  0.28184937E+00  0.18261495E+00
  0.34893774E+00  0.97644435E+00  0.11260595E+00
  0.23708947E+00  0.45956759E+00  0.58507188E+00
  0.36851416E+00  0.99945779E+00  0.77832988E+00
  0.72449689E+00  0.17988990E+00  0.27603686E+00
  0.63537073E+00  0.73459058E-01  0.18578294E+00
  0.27286839E+00  0.37009689E+00  0.55115426E+00
  0.89823839E+00  0.93504482E+00  0.55470977E+00
  0.83557228E+00  0.95874922E+00  0.24220339E-01
  0.65306267E-01  0.84368088E-01  0.44527896E+00
  0.55188750E+00  0.15435096E+00  0.19020071E+00
  0.44142953E+00  0.10078948E+00  0.55143031E+00
  0.42055430E+00  0.24759818E+00  0.50085646E+00
  0.46673217E+00  0.32574959E+00  0.68327146E+00
  0.32948736E-01  0.51947731E+00  0.40468687E-01
  0.72848924E+00  0.15150301E+00  0.60858258E+00
  0.70753362E+00  0.94242499E+00  0.83133575E+00
  0.57422407E+00  0.62364771E+00  0.58452401E+00
  0.22939355E+00  0.82954157E+00  0.14310043E+00
  0.66339668E+00  0.53544476E+00  0.53842305E+00
  0.79781785E+00  0.15906716E-01  0.88864839E+00
  0.51411585E+00  0.18680952E+00  0.73516177E+00
  0.67723167E+00  0.13838008E+00  0.73652115E+00
  0.56905051E+00  0.28309380E+00  0.64429986E+00
  0.56974745E+00  0.58107888E+00  0.27559917E+00
  0.66287627E+00  0.34694335E+00  0.51444249E+00
  0.46498542E+00  0.44602499E+00  0.49630145E+00
  0.92189820E+00  0.13589833E+00  0.64448496E+00
  0.46987729E+00  0.18118971E+00  0.90823502E+00
  0.66812957E+00  0.44322159E+00  0.65673965E+00
  0.29082644E+00  0.89183059E+00  0.32479640E+00
  0.13386056E+00  0.35613864E+00  0.38916430E+00
  0.23104721E+00  0.29944394E+00  0.82036091E-02
  0.52780117E+00  0.37950288E+00  0.41903757E+00
  0.37855575E+00  0.71110915E+00  0.98191798E+00
  0.30028898E-01  0.40142951E+00  0.25860932E+00
  0.99243761E+00  0.64358941E+00  0.97621310E-01
  0.13656781E+00  0.89936765E+00  0.60855233E+00
  0.15404658E+00  0.40170979E+00  0.19332281E+00
  0.12741919E+00  0.65439631E+00  0.47863205E+00
  0.37741664E+00  0.69307740E+00  0.41376124E+00
  0.89012820E+00  0.22612687E+00  0.89866730E+00
  0.47292094E+00  0.71412614E+00  0.51586843E+00
  0.80830114E-02  0.22295707E+00  0.50449047E+00
  0.48064383E+00  0.90108835E+00  0.39133000E+00
  0.61157290E+00  0.95757876E+00  0.38583064E+00
  0.97627154E+00  0.56420173E+00  0.22391978E+00
  0.22486913E-01  0.45189064E+00  0.52956050E+00
  0.87968989E-02  0.17504012E+00  0.92295535E+00
  0.59188161E+00  0.85204492E+00  0.50016761E+00
  0.99879423E+00  0.53187052E+00  0.58551925E+00
  0.22047080E+00  0.62559088E+00  0.34735138E+00
  0.29968483E+00  0.51110138E+00  0.79282851E-01
  0.45331757E+00  0.62736766E+00  0.85724502E-01
  0.19522456E+00  0.56347960E+00  0.20834986E+00
  0.16040951E+00  0.64981955E+00  0.10149164E+00
  0.60009495E-01  0.31750488E+00  0.55253202E+00
  0.35721541E+00  0.69013998E+00  0.11758489E+00
  0.58443278E-01  0.84666320E+00  0.10987013E+00
  0.83105623E+00  0.50979169E+00  0.47892457E-01
  0.16766326E+00  0.21215913E-01  0.61642981E+00
  0.60514391E+00  0.54508740E+00  0.95303090E+00
  0.00000000E+00  0.00000000E+00  0.00000000E+00
  0.00000000E+00  0.00000000E+00  0.00000000E+00
  0.00000000E+00  0.00000000E+00  0.00000000E+00
  0.00000000E+00  0.00000000E+00  0.00000000E+00
  0.00000000E+00  0.00000000E+00  0.00000000E+00
  0.00000000E+00  0.00000000E+00  0.00000000E+00
  0.00000000E+00  0.00000000E+00  0.00000000E+00
  0.00000000E+00  0.00000000E+00  0.00000000E+00
  0.00000000E+00  0.00000000E+00  0.00000000E+00
  0.00000000E+00  0.00000000E+00  0.00000000E+00
  0.00000000E+00  0.00000000E+00  0.00000000E+00
  0.00000000E+00  0.00000000E+00  0.00000000E+00
  0.00000000E+00  0.00000000E+00  0.00000000E+00
  0.00000000E+00  0.00000000E+00  0.00000000E+00
  0.00000000E+00  0.00000000E+00  0.00000000E+00
  0.00000000E+00  0.00000000E+00  0.00000000E+00
  0.00000000E+00  0.00000000E+00  0.00000000E+00
  0.00000000E+00  0.00000000E+00  0.00000000E+00
  0.00000000E+00  0.00000000E+00  0.00000000E+00
  0.00000000E+00  0.00000000E+00  0.00000000E+00
  0.00000000E+00  0.00000000E+00  0.00000000E+00
  0.00000000E+00  0.00000000E+00  0.00000000E+00
  0.00000000E+00  0.00000000E+00  0.00000000E+00
  0.00000000E+00  0.00000000E+00  0.00000000E+00
  0.00000000E+00  0.00000000E+00  0.00000000E+00
  0.00000000E+00  0.00000000E+00  0.00000000E+00
  0.00000000E+00  0.00000000E+00  0.00000000E+00
  0.00000000E+00  0.00000000E+00  0.00000000E+00
  0.00000000E+00  0.00000000E+00  0.00000000E+00
  0.00000000E+00  0.00000000E+00  0.00000000E+00
  0.00000000E+00  0.00000000E+00  0.00000000E+00
  0.00000000E+00  0.00000000E+00  0.00000000E+00
  0.00000000E+00  0.00000000E+00  0.00000000E+00
  0.00000000E+00  0.00000000E+00  0.00000000E+00
  0.00000000E+00  0.00000000E+00  0.00000000E+00
  0.00000000E+00  0.00000000E+00  0.00000000E+00
  0.00000000E+00  0.00000000E+00  0.00000000E+00
  0.00000000E+00  0.00000000E+00  0.00000000E+00
  0.00000000E+00  0.00000000E+00  0.00000000E+00
  0.00000000E+00  0.00000000E+00  0.00000000E+00
  0.00000000E+00  0.00000000E+00  0.00000000E+00
  0.00000000E+00  0.00000000E+00  0.00000000E+00
  0.00000000E+00  0.00000000E+00  0.00000000E+00
  0.00000000E+00  0.00000000E+00  0.00000000E+00
  0.00000000E+00  0.00000000E+00  0.00000000E+00
  0.00000000E+00  0.00000000E+00  0.00000000E+00
  0.00000000E+00  0.00000000E+00  0.00000000E+00
  0.00000000E+00  0.00000000E+00  0.00000000E+00
  0.00000000E+00  0.00000000E+00  0.00000000E+00
  0.00000000E+00  0.00000000E+00  0.00000000E+00
  0.00000000E+00  0.00000000E+00  0.00000000E+00
  0.00000000E+00  0.00000000E+00  0.00000000E+00
  0.00000000E+00  0.00000000E+00  0.00000000E+00
  0.00000000E+00  0.00000000E+00  0.00000000E+00
  0.00000000E+00  0.00000000E+00  0.00000000E+00
  0.00000000E+00  0.00000000E+00  0.00000000E+00
  0.00000000E+00  0.00000000E+00  0.00000000E+00
  0.00000000E+00  0.00000000E+00  0.00000000E+00
  0.00000000E+00  0.00000000E+00  0.00000000E+00
  0.00000000E+00  0.00000000E+00  0.00000000E+00
  0.00000000E+00  0.00000000E+00  0.00000000E+00
  0.00000000E+00  0.00000000E+00  0.00000000E+00
  0.00000000E+00  0.00000000E+00  0.00000000E+00
  0.00000000E+00  0.00000000E+00  0.00000000E+00
  0.00000000E+00  0.00000000E+00  0.00000000E+00
  0.00000000E+00  0.00000000E+00  0.00000000E+00
  0.00000000E+00  0.00000000E+00  0.00000000E+00
  0.00000000E+00  0.00000000E+00  0.00000000E+00
  0.00000000E+00  0.00000000E+00  0.00000000E+00
  0.00000000E+00  0.00000000E+00  0.00000000E+00
  0.00000000E+00  0.00000000E+00  0.00000000E+00
  0.00000000E+00  0.00000000E+00  0.00000000E+00
  0.00000000E+00  0.00000000E+00  0.00000000E+00
  0.00000000E+00  0.00000000E+00  0.00000000E+00
  0.00000000E+00  0.00000000E+00  0.00000000E+00
  0.00000000E+00  0.00000000E+00  0.00000000E+00
  0.00000000E+00  0.00000000E+00  0.00000000E+00
  0.00000000E+00  0.00000000E+00  0.00000000E+00
  0.00000000E+00  0.00000000E+00  0.00000000E+00
  0.00000000E+00  0.00000000E+00  0.00000000E+00
  0.00000000E+00  0.00000000E+00  0.00000000E+00
  0.00000000E+00  0.00000000E+00  0.00000000E+00
  0.00000000E+00  0.00000000E+00  0.00000000E+00
  0.00000000E+00  0.00000000E+00  0.00000000E+00
  0.00000000E+00  0.00000000E+00  0.00000000E+00
  0.00000000E+00  0.00000000E+00  0.00000000E+00
  0.00000000E+00  0.00000000E+00  0.00000000E+00
  0.00000000E+00  0.00000000E+00  0.00000000E+00
  0.00000000E+00  0.00000000E+00  0.00000000E+00
  0.00000000E+00  0.00000000E+00  0.00000000E+00
  0.00000000E+00  0.00000000E+00  0.00000000E+00
  0.00000000E+00  0.00000000E+00  0.00000000E+00
  0.00000000E+00  0.00000000E+00  0.00000000E+00
  0.00000000E+00  0.00000000E+00  0.00000000E+00
  0.00000000E+00  0.00000000E+00  0.00000000E+00
  0.00000000E+00  0.00000000E+00  0.00000000E+00
  0.00000000E+00  0.00000000E+00  0.00000000E+00
  0.00000000E+00  0.00000000E+00  0.00000000E+00
  0.00000000E+00  0.00000000E+00  0.00000000E+00
  0.00000000E+00  0.00000000E+00  0.00000000E+00
  0.00000000E+00  0.00000000E+00  0.00000000E+00
  0.00000000E+00  0.00000000E+00  0.00000000E+00
  0.00000000E+00  0.00000000E+00  0.00000000E+00
  0.00000000E+00  0.00000000E+00  0.00000000E+00
  0.00000000E+00  0.00000000E+00  0.00000000E+00
  0.00000000E+00  0.00000000E+00  0.00000000E+00
  0.00000000E+00  0.00000000E+00  0.00000000E+00
  0.00000000E+00  0.00000000E+00  0.00000000E+00
  0.00000000E+00  0.00000000E+00  0.00000000E+00
  0.00000000E+00  0.00000000E+00  0.00000000E+00
  0.00000000E+00  0.00000000E+00  0.00000000E+00
  0.00000000E+00  0.00000000E+00  0.00000000E+00
  0.00000000E+00  0.00000000E+00  0.00000000E+00
  0.00000000E+00  0.00000000E+00  0.00000000E+00
  0.00000000E+00  0.00000000E+00  0.00000000E+00
  0.00000000E+00  0.00000000E+00  0.00000000E+00
  0.00000000E+00  0.00000000E+00  0.00000000E+00
  0.00000000E+00  0.00000000E+00  0.00000000E+00
  0.00000000E+00  0.00000000E+00  0.00000000E+00
  0.00000000E+00  0.00000000E+00  0.00000000E+00
  0.00000000E+00  0.00000000E+00  0.00000000E+00
  0.00000000E+00  0.00000000E+00  0.00000000E+00
  0.00000000E+00  0.00000000E+00  0.00000000E+00
  0.00000000E+00  0.00000000E+00  0.00000000E+00
  0.00000000E+00  0.00000000E+00  0.00000000E+00
  0.00000000E+00  0.00000000E+00  0.00000000E+00
  0.00000000E+00  0.00000000E+00  0.00000000E+00
  0.00000000E+00  0.00000000E+00  0.00000000E+00
  0.00000000E+00  0.00000000E+00  0.00000000E+00
  0.00000000E+00  0.00000000E+00  0.00000000E+00
  0.00000000E+00  0.00000000E+00  0.00000000E+00
  0.00000000E+00  0.00000000E+00  0.00000000E+00
  0.00000000E+00  0.00000000E+00  0.00000000E+00
  0.00000000E+00  0.00000000E+00  0.00000000E+00
  0.00000000E+00  0.00000000E+00  0.00000000E+00
  0.00000000E+00  0.00000000E+00  0.00000000E+00
  0.00000000E+00  0.00000000E+00  0.00000000E+00
  0.00000000E+00  0.00000000E+00  0.00000000E+00
  0.00000000E+00  0.00000000E+00  0.00000000E+00
  0.00000000E+00  0.00000000E+00  0.00000000E+00
  0.00000000E+00  0.00000000E+00  0.00000000E+00
  0.00000000E+00  0.00000000E+00  0.00000000E+00
  0.00000000E+00  0.00000000E+00  0.00000000E+00
  0.00000000E+00  0.00000000E+00  0.00000000E+00
  0.00000000E+00  0.00000000E+00  0.00000000E+00
  0.00000000E+00  0.00000000E+00  0.00000000E+00
  0.00000000E+00  0.00000000E+00  0.00000000E+00
  0.00000000E+00  0.00000000E+00  0.00000000E+00
  0.00000000E+00  0.00000000E+00  0.00000000E+00
  0.00000000E+00  0.00000000E+00  0.00000000E+00
  0.00000000E+00  0.00000000E+00  0.00000000E+00
  0.00000000E+00  0.00000000E+00  0.00000000E+00
  0.00000000E+00  0.00000000E+00  0.00000000E+00
  0.00000000E+00  0.00000000E+00  0.00000000E+00
  0.00000000E+00  0.00000000E+00  0.00000000E+00
  0.00000000E+00  0.00000000E+00  0.00000000E+00
  0.00000000E+00  0.00000000E+00  0.00000000E+00
  0.00000000E+00  0.00000000E+00  0.00000000E+00
  0.00000000E+00  0.00000000E+00  0.00000000E+00
  0.00000000E+00  0.00000000E+00  0.00000000E+00
  0.00000000E+00  0.00000000E+00  0.00000000E+00
  0.00000000E+00  0.00000000E+00  0.00000000E+00
  0.00000000E+00  0.00000000E+00  0.00000000E+00
  0.00000000E+00  0.00000000E+00  0.00000000E+00
  0.00000000E+00  0.00000000E+00  0.00000000E+00
  0.00000000E+00  0.00000000E+00  0.00000000E+00
  0.00000000E+00  0.00000000E+00  0.00000000E+00
  0.00000000E+00  0.00000000E+00  0.00000000E+00
  0.00000000E+00  0.00000000E+00  0.00000000E+00
  0.00000000E+00  0.00000000E+00  0.00000000E+00
  0.00000000E+00  0.00000000E+00  0.00000000E+00
  0.00000000E+00  0.00000000E+00  0.00000000E+00
  0.00000000E+00  0.00000000E+00  0.00000000E+00
  0.00000000E+00  0.00000000E+00  0.00000000E+00
  0.00000000E+00  0.00000000E+00  0.00000000E+00
  0.00000000E+00  0.00000000E+00  0.00000000E+00
  0.00000000E+00  0.00000000E+00  0.00000000E+00
  0.00000000E+00  0.00000000E+00  0.00000000E+00
  0.00000000E+00  0.00000000E+00  0.00000000E+00
  0.00000000E+00  0.00000000E+00  0.00000000E+00
  0.00000000E+00  0.00000000E+00  0.00000000E+00
  0.00000000E+00  0.00000000E+00  0.00000000E+00
  0.00000000E+00  0.00000000E+00  0.00000000E+00
  0.00000000E+00  0.00000000E+00  0.00000000E+00
  0.00000000E+00  0.00000000E+00  0.00000000E+00
  0.00000000E+00  0.00000000E+00  0.00000000E+00
  0.00000000E+00  0.00000000E+00  0.00000000E+00
  0.00000000E+00  0.00000000E+00  0.00000000E+00
  0.00000000E+00  0.00000000E+00  0.00000000E+00
  0.00000000E+00  0.00000000E+00  0.00000000E+00
  0.00000000E+00  0.00000000E+00  0.00000000E+00
  0.00000000E+00  0.00000000E+00  0.00000000E+00
  0.00000000E+00  0.00000000E+00  0.00000000E+00
  0.00000000E+00  0.00000000E+00  0.00000000E+00
  0.00000000E+00  0.00000000E+00  0.00000000E+00
  0.00000000E+00  0.00000000E+00  0.00000000E+00
  0.00000000E+00  0.00000000E+00  0.00000000E+00
  0.00000000E+00  0.00000000E+00  0.00000000E+00
  0.00000000E+00  0.00000000E+00  0.00000000E+00
  0.00000000E+00  0.00000000E+00  0.00000000E+00
  0.00000000E+00  0.00000000E+00  0.00000000E+00
  0.00000000E+00  0.00000000E+00  0.00000000E+00
  0.00000000E+00  0.00000000E+00  0.00000000E+00
  0.00000000E+00  0.00000000E+00  0.00000000E+00
  0.00000000E+00  0.00000000E+00  0.00000000E+00
  0.00000000E+00  0.00000000E+00  0.00000000E+00
  0.00000000E+00  0.00000000E+00  0.00000000E+00
  0.00000000E+00  0.00000000E+00  0.00000000E+00
  0.00000000E+00  0.00000000E+00  0.00000000E+00
  0.00000000E+00  0.00000000E+00  0.00000000E+00
  0.00000000E+00  0.00000000E+00  0.00000000E+00
  0.00000000E+00  0.00000000E+00  0.00000000E+00
  0.00000000E+00  0.00000000E+00  0.00000000E+00
  0.00000000E+00  0.00000000E+00  0.00000000E+00
  0.00000000E+00  0.00000000E+00  0.00000000E+00
  0.00000000E+00  0.00000000E+00  0.00000000E+00
  0.00000000E+00  0.00000000E+00  0.00000000E+00
  0.00000000E+00  0.00000000E+00  0.00000000E+00
  0.00000000E+00  0.00000000E+00  0.00000000E+00
  0.00000000E+00  0.00000000E+00  0.00000000E+00
  0.00000000E+00  0.00000000E+00  0.00000000E+00
  0.00000000E+00  0.00000000E+00  0.00000000E+00
  0.00000000E+00  0.00000000E+00  0.00000000E+00
  0.00000000E+00  0.00000000E+00  0.00000000E+00
  0.00000000E+00  0.00000000E+00  0.00000000E+00
  0.00000000E+00  0.00000000E+00  0.00000000E+00
  0.00000000E+00  0.00000000E+00  0.00000000E+00
  0.00000000E+00  0.00000000E+00  0.00000000E+00
  0.00000000E+00  0.00000000E+00  0.00000000E+00
  0.00000000E+00  0.00000000E+00  0.00000000E+00
  0.00000000E+00  0.00000000E+00  0.00000000E+00
  0.00000000E+00  0.00000000E+00  0.00000000E+00
  0.00000000E+00  0.00000000E+00  0.00000000E+00
  0.00000000E+00  0.00000000E+00  0.00000000E+00
  0.00000000E+00  0.00000000E+00  0.00000000E+00
  0.00000000E+00  0.00000000E+00  0.00000000E+00
  0.00000000E+00  0.00000000E+00  0.00000000E+00
  0.00000000E+00  0.00000000E+00  0.00000000E+00
  0.00000000E+00  0.00000000E+00  0.00000000E+00
  0.00000000E+00  0.00000000E+00  0.00000000E+00
  0.00000000E+00  0.00000000E+00  0.00000000E+00
  0.00000000E+00  0.00000000E+00  0.00000000E+00
  0.00000000E+00  0.00000000E+00  0.00000000E+00
  0.00000000E+00  0.00000000E+00  0.00000000E+00
  0.00000000E+00  0.00000000E+00  0.00000000E+00
  0.00000000E+00  0.00000000E+00  0.00000000E+00
  0.00000000E+00  0.00000000E+00  0.00000000E+00
  0.00000000E+00  0.00000000E+00  0.00000000E+00
  0.00000000E+00  0.00000000E+00  0.00000000E+00
  0.00000000E+00  0.00000000E+00  0.00000000E+00
  0.00000000E+00  0.00000000E+00  0.00000000E+00
  0.00000000E+00  0.00000000E+00  0.00000000E+00
  0.00000000E+00  0.00000000E+00  0.00000000E+00
  0.00000000E+00  0.00000000E+00  0.00000000E+00
  0.00000000E+00  0.00000000E+00  0.00000000E+00
  0.00000000E+00  0.00000000E+00  0.00000000E+00
  0.00000000E+00  0.00000000E+00  0.00000000E+00
  0.00000000E+00  0.00000000E+00  0.00000000E+00
  0.00000000E+00  0.00000000E+00  0.00000000E+00
  0.00000000E+00  0.00000000E+00  0.00000000E+00
  0.00000000E+00  0.00000000E+00  0.00000000E+00
  0.00000000E+00  0.00000000E+00  0.00000000E+00
  0.00000000E+00  0.00000000E+00  0.00000000E+00
  0.00000000E+00  0.00000000E+00  0.00000000E+00
  0.00000000E+00  0.00000000E+00  0.00000000E+00
  0.00000000E+00  0.00000000E+00  0.00000000E+00
  0.00000000E+00  0.00000000E+00  0.00000000E+00
  0.00000000E+00  0.00000000E+00  0.00000000E+00
  0.00000000E+00  0.00000000E+00  0.00000000E+00
  0.00000000E+00  0.00000000E+00  0.00000000E+00
  0.00000000E+00  0.00000000E+00  0.00000000E+00
  0.00000000E+00  0.00000000E+00  0.00000000E+00
  0.00000000E+00  0.00000000E+00  0.00000000E+00
  0.00000000E+00  0.00000000E+00  0.00000000E+00
  0.00000000E+00  0.00000000E+00  0.00000000E+00
  0.00000000E+00  0.00000000E+00  0.00000000E+00
  0.00000000E+00  0.00000000E+00  0.00000000E+00
  0.00000000E+00  0.00000000E+00  0.00000000E+00
  0.00000000E+00  0.00000000E+00  0.00000000E+00
  0.00000000E+00  0.00000000E+00  0.00000000E+00
  0.00000000E+00  0.00000000E+00  0.00000000E+00
  0.00000000E+00  0.00000000E+00  0.00000000E+00
  0.00000000E+00  0.00000000E+00  0.00000000E+00
  0.00000000E+00  0.00000000E+00  0.00000000E+00
  0.00000000E+00  0.00000000E+00  0.00000000E+00
  0.00000000E+00  0.00000000E+00  0.00000000E+00
  0.00000000E+00  0.00000000E+00  0.00000000E+00
  0.00000000E+00  0.00000000E+00  0.00000000E+00
  0.00000000E+00  0.00000000E+00  0.00000000E+00
  0.00000000E+00  0.00000000E+00  0.00000000E+00
  0.00000000E+00  0.00000000E+00  0.00000000E+00
  0.00000000E+00  0.00000000E+00  0.00000000E+00
  0.00000000E+00  0.00000000E+00  0.00000000E+00
  0.00000000E+00  0.00000000E+00  0.00000000E+00
  0.00000000E+00  0.00000000E+00  0.00000000E+00
  0.00000000E+00  0.00000000E+00  0.00000000E+00
  0.00000000E+00  0.00000000E+00  0.00000000E+00
  0.00000000E+00  0.00000000E+00  0.00000000E+00
  0.00000000E+00  0.00000000E+00  0.00000000E+00
  0.00000000E+00  0.00000000E+00  0.00000000E+00
  0.00000000E+00  0.00000000E+00  0.00000000E+00
  0.00000000E+00  0.00000000E+00  0.00000000E+00
  0.00000000E+00  0.00000000E+00  0.00000000E+00
  0.00000000E+00  0.00000000E+00  0.00000000E+00
  0.00000000E+00  0.00000000E+00  0.00000000E+00
  0.00000000E+00  0.00000000E+00  0.00000000E+00
  0.00000000E+00  0.00000000E+00  0.00000000E+00
  0.00000000E+00  0.00000000E+00  0.00000000E+00
  0.00000000E+00  0.00000000E+00  0.00000000E+00
  0.00000000E+00  0.00000000E+00  0.00000000E+00
  0.00000000E+00  0.00000000E+00  0.00000000E+00
  0.00000000E+00  0.00000000E+00  0.00000000E+00
  0.00000000E+00  0.00000000E+00  0.00000000E+00
  0.00000000E+00  0.00000000E+00  0.00000000E+00
  0.00000000E+00  0.00000000E+00  0.00000000E+00
  0.00000000E+00  0.00000000E+00  0.00000000E+00
  0.00000000E+00  0.00000000E+00  0.00000000E+00
  0.00000000E+00  0.00000000E+00  0.00000000E+00
  0.00000000E+00  0.00000000E+00  0.00000000E+00
  0.00000000E+00  0.00000000E+00  0.00000000E+00
  0.00000000E+00  0.00000000E+00  0.00000000E+00
  0.00000000E+00  0.00000000E+00  0.00000000E+00
  0.00000000E+00  0.00000000E+00  0.00000000E+00
  0.00000000E+00  0.00000000E+00  0.00000000E+00
  0.00000000E+00  0.00000000E+00  0.00000000E+00
  0.00000000E+00  0.00000000E+00  0.00000000E+00
  0.00000000E+00  0.00000000E+00  0.00000000E+00
  0.00000000E+00  0.00000000E+00  0.00000000E+00
  0.00000000E+00  0.00000000E+00  0.00000000E+00
  0.00000000E+00  0.00000000E+00  0.00000000E+00
  0.00000000E+00  0.00000000E+00  0.00000000E+00
  0.00000000E+00  0.00000000E+00  0.00000000E+00
  0.00000000E+00  0.00000000E+00  0.00000000E+00
  0.00000000E+00  0.00000000E+00  0.00000000E+00
  0.00000000E+00  0.00000000E+00  0.00000000E+00
  0.00000000E+00  0.00000000E+00  0.00000000E+00
  0.00000000E+00  0.00000000E+00  0.00000000E+00
  0.00000000E+00  0.00000000E+00  0.00000000E+00
  0.00000000E+00  0.00000000E+00  0.00000000E+00
  0.00000000E+00  0.00000000E+00  0.00000000E+00
  0.00000000E+00  0.00000000E+00  0.00000000E+00
  0.00000000E+00  0.00000000E+00  0.00000000E+00
  0.00000000E+00  0.00000000E+00  0.00000000E+00
  0.00000000E+00  0.00000000E+00  0.00000000E+00
  0.00000000E+00  0.00000000E+00  0.00000000E+00
  0.00000000E+00  0.00000000E+00  0.00000000E+00
  0.00000000E+00  0.00000000E+00  0.00000000E+00
  0.00000000E+00  0.00000000E+00  0.00000000E+00
  0.00000000E+00  0.00000000E+00  0.00000000E+00
  0.00000000E+00  0.00000000E+00  0.00000000E+00
  0.00000000E+00  0.00000000E+00  0.00000000E+00
  0.00000000E+00  0.00000000E+00  0.00000000E+00
  0.00000000E+00  0.00000000E+00  0.00000000E+00
  0.00000000E+00  0.00000000E+00  0.00000000E+00
  0.00000000E+00  0.00000000E+00  0.00000000E+00
  0.00000000E+00  0.00000000E+00  0.00000000E+00
  0.00000000E+00  0.00000000E+00  0.00000000E+00
  0.00000000E+00  0.00000000E+00  0.00000000E+00
  0.00000000E+00  0.00000000E+00  0.00000000E+00
  0.00000000E+00  0.00000000E+00  0.00000000E+00
  0.00000000E+00  0.00000000E+00  0.00000000E+00
  0.00000000E+00  0.00000000E+00  0.00000000E+00
  0.00000000E+00  0.00000000E+00  0.00000000E+00
  0.00000000E+00  0.00000000E+00  0.00000000E+00
  0.00000000E+00  0.00000000E+00  0.00000000E+00
  0.00000000E+00  0.00000000E+00  0.00000000E+00
  0.00000000E+00  0.00000000E+00  0.00000000E+00
  0.00000000E+00  0.00000000E+00  0.00000000E+00
  0.00000000E+00  0.00000000E+00  0.00000000E+00
  0.00000000E+00  0.00000000E+00  0.00000000E+00
  0.00000000E+00  0.00000000E+00  0.00000000E+00
  0.00000000E+00  0.00000000E+00  0.00000000E+00
  0.00000000E+00  0.00000000E+00  0.00000000E+00
  0.00000000E+00  0.00000000E+00  0.00000000E+00
  0.00000000E+00  0.00000000E+00  0.00000000E+00
  0.00000000E+00  0.00000000E+00  0.00000000E+00
  0.00000000E+00  0.00000000E+00  0.00000000E+00
  0.00000000E+00  0.00000000E+00  0.00000000E+00
  0.00000000E+00  0.00000000E+00  0.00000000E+00
  0.00000000E+00  0.00000000E+00  0.00000000E+00
  0.00000000E+00  0.00000000E+00  0.00000000E+00
  0.00000000E+00  0.00000000E+00  0.00000000E+00
  0.00000000E+00  0.00000000E+00  0.00000000E+00
  0.00000000E+00  0.00000000E+00  0.00000000E+00
  0.00000000E+00  0.00000000E+00  0.00000000E+00
  0.00000000E+00  0.00000000E+00  0.00000000E+00
  0.00000000E+00  0.00000000E+00  0.00000000E+00
  0.00000000E+00  0.00000000E+00  0.00000000E+00
  0.00000000E+00  0.00000000E+00  0.00000000E+00
  0.00000000E+00  0.00000000E+00  0.00000000E+00
  0.00000000E+00  0.00000000E+00  0.00000000E+00
  0.00000000E+00  0.00000000E+00  0.00000000E+00
  0.00000000E+00  0.00000000E+00  0.00000000E+00
  0.00000000E+00  0.00000000E+00  0.00000000E+00
  0.00000000E+00  0.00000000E+00  0.00000000E+00
  0.00000000E+00  0.00000000E+00  0.00000000E+00
  0.00000000E+00  0.00000000E+00  0.00000000E+00
  0.00000000E+00  0.00000000E+00  0.00000000E+00
  0.00000000E+00  0.00000000E+00  0.00000000E+00
  0.00000000E+00  0.00000000E+00  0.00000000E+00
  0.00000000E+00  0.00000000E+00  0.00000000E+00
  0.00000000E+00  0.00000000E+00  0.00000000E+00
  0.00000000E+00  0.00000000E+00  0.00000000E+00
  0.00000000E+00  0.00000000E+00  0.00000000E+00
  0.00000000E+00  0.00000000E+00  0.00000000E+00
  0.00000000E+00  0.00000000E+00  0.00000000E+00
  0.00000000E+00  0.00000000E+00  0.00000000E+00
  0.00000000E+00  0.00000000E+00  0.00000000E+00
  0.00000000E+00  0.00000000E+00  0.00000000E+00
  0.00000000E+00  0.00000000E+00  0.00000000E+00
  0.00000000E+00  0.00000000E+00  0.00000000E+00
  0.00000000E+00  0.00000000E+00  0.00000000E+00
  0.00000000E+00  0.00000000E+00  0.00000000E+00
  0.00000000E+00  0.00000000E+00  0.00000000E+00
  0.00000000E+00  0.00000000E+00  0.00000000E+00
  0.00000000E+00  0.00000000E+00  0.00000000E+00
  0.00000000E+00  0.00000000E+00  0.00000000E+00
  0.00000000E+00  0.00000000E+00  0.00000000E+00
  0.00000000E+00  0.00000000E+00  0.00000000E+00
  0.00000000E+00  0.00000000E+00  0.00000000E+00
  0.00000000E+00  0.00000000E+00  0.00000000E+00
  0.00000000E+00  0.00000000E+00  0.00000000E+00
  0.00000000E+00  0.00000000E+00  0.00000000E+00
  0.00000000E+00  0.00000000E+00  0.00000000E+00
  0.00000000E+00  0.00000000E+00  0.00000000E+00
  0.00000000E+00  0.00000000E+00  0.00000000E+00
  0.00000000E+00  0.00000000E+00  0.00000000E+00
  0.00000000E+00  0.00000000E+00  0.00000000E+00
  0.00000000E+00  0.00000000E+00  0.00000000E+00
  0.00000000E+00  0.00000000E+00  0.00000000E+00
  0.00000000E+00  0.00000000E+00  0.00000000E+00
  0.00000000E+00  0.00000000E+00  0.00000000E+00
  0.00000000E+00  0.00000000E+00  0.00000000E+00
  0.00000000E+00  0.00000000E+00  0.00000000E+00
  0.00000000E+00  0.00000000E+00  0.00000000E+00
  0.00000000E+00  0.00000000E+00  0.00000000E+00
  0.00000000E+00  0.00000000E+00  0.00000000E+00
  0.00000000E+00  0.00000000E+00  0.00000000E+00
  0.00000000E+00  0.00000000E+00  0.00000000E+00
  0.00000000E+00  0.00000000E+00  0.00000000E+00
  0.00000000E+00  0.00000000E+00  0.00000000E+00
  0.00000000E+00  0.00000000E+00  0.00000000E+00
  0.00000000E+00  0.00000000E+00  0.00000000E+00
  0.00000000E+00  0.00000000E+00  0.00000000E+00
  0.00000000E+00  0.00000000E+00  0.00000000E+00
  0.00000000E+00  0.00000000E+00  0.00000000E+00
  0.00000000E+00  0.00000000E+00  0.00000000E+00
  0.00000000E+00  0.00000000E+00  0.00000000E+00
  0.00000000E+00  0.00000000E+00  0.00000000E+00
  0.00000000E+00  0.00000000E+00  0.00000000E+00
  0.00000000E+00  0.00000000E+00  0.00000000E+00
  0.00000000E+00  0.00000000E+00  0.00000000E+00
  0.00000000E+00  0.00000000E+00  0.00000000E+00
  0.00000000E+00  0.00000000E+00  0.00000000E+00
  0.00000000E+00  0.00000000E+00  0.00000000E+00
  0.00000000E+00  0.00000000E+00  0.00000000E+00
  0.00000000E+00  0.00000000E+00  0.00000000E+00
  0.00000000E+00  0.00000000E+00  0.00000000E+00
  0.00000000E+00  0.00000000E+00  0.00000000E+00
  0.00000000E+00  0.00000000E+00  0.00000000E+00
  0.00000000E+00  0.00000000E+00  0.00000000E+00
  0.00000000E+00  0.00000000E+00  0.00000000E+00
  0.00000000E+00  0.00000000E+00  0.00000000E+00
  0.00000000E+00  0.00000000E+00  0.00000000E+00
  0.00000000E+00  0.00000000E+00  0.00000000E+00
  0.00000000E+00  0.00000000E+00  0.00000000E+00
  0.00000000E+00  0.00000000E+00  0.00000000E+00
  0.00000000E+00  0.00000000E+00  0.00000000E+00
  0.00000000E+00  0.00000000E+00  0.00000000E+00
  0.00000000E+00  0.00000000E+00  0.00000000E+00
  0.00000000E+00  0.00000000E+00  0.00000000E+00
  0.00000000E+00  0.00000000E+00  0.00000000E+00
  0.00000000E+00  0.00000000E+00  0.00000000E+00
  0.00000000E+00  0.00000000E+00  0.00000000E+00
  0.00000000E+00  0.00000000E+00  0.00000000E+00
  0.00000000E+00  0.00000000E+00  0.00000000E+00
  0.00000000E+00  0.00000000E+00  0.00000000E+00
  0.00000000E+00  0.00000000E+00  0.00000000E+00
  0.00000000E+00  0.00000000E+00  0.00000000E+00
  0.00000000E+00  0.00000000E+00  0.00000000E+00
  0.00000000E+00  0.00000000E+00  0.00000000E+00
  0.00000000E+00  0.00000000E+00  0.00000000E+00
  0.00000000E+00  0.00000000E+00  0.00000000E+00
  0.00000000E+00  0.00000000E+00  0.00000000E+00
  0.00000000E+00  0.00000000E+00  0.00000000E+00
  0.00000000E+00  0.00000000E+00  0.00000000E+00
  0.00000000E+00  0.00000000E+00  0.00000000E+00
  0.00000000E+00  0.00000000E+00  0.00000000E+00
  0.00000000E+00  0.00000000E+00  0.00000000E+00
  0.00000000E+00  0.00000000E+00  0.00000000E+00
  0.00000000E+00  0.00000000E+00  0.00000000E+00
  0.00000000E+00  0.00000000E+00  0.00000000E+00
  0.00000000E+00  0.00000000E+00  0.00000000E+00
  0.00000000E+00  0.00000000E+00  0.00000000E+00
  0.00000000E+00  0.00000000E+00  0.00000000E+00
  0.00000000E+00  0.00000000E+00  0.00000000E+00
  0.00000000E+00  0.00000000E+00  0.00000000E+00
  0.00000000E+00  0.00000000E+00  0.00000000E+00
  0.00000000E+00  0.00000000E+00  0.00000000E+00
  0.00000000E+00  0.00000000E+00  0.00000000E+00
  0.00000000E+00  0.00000000E+00  0.00000000E+00
  0.00000000E+00  0.00000000E+00  0.00000000E+00
  0.00000000E+00  0.00000000E+00  0.00000000E+00
  0.00000000E+00  0.00000000E+00  0.00000000E+00
  0.00000000E+00  0.00000000E+00  0.00000000E+00
  0.00000000E+00  0.00000000E+00  0.00000000E+00
  0.00000000E+00  0.00000000E+00  0.00000000E+00
  0.00000000E+00  0.00000000E+00  0.00000000E+00
  0.00000000E+00  0.00000000E+00  0.00000000E+00
  0.00000000E+00  0.00000000E+00  0.00000000E+00
  0.00000000E+00  0.00000000E+00  0.00000000E+00
  0.00000000E+00  0.00000000E+00  0.00000000E+00
  0.00000000E+00  0.00000000E+00  0.00000000E+00
  0.00000000E+00  0.00000000E+00  0.00000000E+00
  0.00000000E+00  0.00000000E+00  0.00000000E+00
  0.00000000E+00  0.00000000E+00  0.00000000E+00
  0.00000000E+00  0.00000000E+00  0.00000000E+00
  0.00000000E+00  0.00000000E+00  0.00000000E+00
  0.00000000E+00  0.00000000E+00  0.00000000E+00
  0.00000000E+00  0.00000000E+00  0.00000000E+00
