# Amorphous model
1.000000
14.1148492778673909  0.0000000000000000  0.0000000000000000
 0.0000000000000000 14.1148492778673909  0.0000000000000000
 0.0000000000000000  0.0000000000000000 14.1148492778673909
C H
86 174
Cartesian
 6.1832528089559542  5.9052462025795549  6.4255799851863440
13.8450416469011177  3.8250417763782547  7.2793351178500334
 8.3397521317132810  5.8570585665538566 13.2648990932368935
 0.7551204025031915  9.0614164458831663 13.5053938393538093
13.4811816519336727  5.3295277419356122  7.2971942127228946
13.6312844966411060  5.4648885742682047 12.1064032075232415
13.7227363520478232 13.0862192080459980  4.8660943939571837
 6.0121345639375239  8.0844237901256459  5.0580588667146600
 3.1733458590482400  7.1900093782739649  4.1468231841448482
 8.3088857299812222 11.1029626979415728  6.7328218051985811
 9.5228049737074851 12.9663643456351405  1.8394897835494017
 6.8795332639996456  7.7013028832739057  0.1028744147069300
 0.4690614033220015  8.5753360873966766 12.0450534928019390
 1.1097750784708964 13.2941777924719577  4.5593491725303537
 8.6678889478992556 11.6831255094492850  2.0588480696542621
 9.1657315079482036 10.5553331438423168  1.1209601342828996
12.2876563284547213  7.6113723366962684  3.8296560086526075
 5.9832089593195814  1.1719270135619233 11.3241851793232779
12.8612581314147274 14.0983729457971290  4.0487044280156983
 2.0378311850604316  4.9032052259631609 12.1640415694506761
 1.1748225492175148  1.5799953347629483 10.2882442054226413
 0.9471206229119904  5.9820655309252455 12.4846388857306874
 1.8731367183009233  3.4880445907721160 12.8321793488988067
 2.8197787384206485  2.4411212355802956 12.1354929140592045
13.3244254150903370 11.6117625134393361  4.5918870512025549
10.0145617159675151  8.7083477366005209  4.0233163106234908
 5.4056875999578935  3.1412874822944410  9.7802633679115782
12.0505336001206960  6.3023914830413528 13.9458322264069796
 8.1570525854126554  5.1317816570089150  7.8127540114971570
 9.2207574102579297  0.0406916077528567  2.8142519120021223
 7.8011038005732107  6.5062853371458491  0.4507563796016605
12.3784877749667732  0.7738386415636995  9.1668113450468436
11.1174506557063371  0.9650406269934848  8.2548667257208432
10.9982425339850405  0.7731548997488673  5.7077551031236435
10.0068632976875715  6.7838667445664829  8.5080842346135039
 9.6546361720666471  5.3018947506306038  8.2081133817949503
 7.8363403438102655  4.2732290653518241  1.8853839168638267
11.0011706049521987  0.5058988250797221 11.9914164999768129
 8.2484316708710264  4.8501542955673287  5.2446295090925865
 8.8714236637575521  5.6146185280405074  4.0295164180146674
 0.7378385370098979  9.7401555699352524 11.0239917290700351
 9.0716245070833725  4.6829889840937771  2.7734244160740325
 8.2235083287215058  1.0644803262698517  2.1703699645225836
 7.4509975969469107  1.9614754055032346  3.1992230619018933
 7.7420431490585297  5.7447750122486347  6.4335989083359859
10.2681437573114263  6.1893474982281607  4.4523997836502271
11.7444488289704569  3.9736315834409215 12.9690586364556619
10.5635980573680452  0.7438106310280137  3.1974530838093305
 0.5324706201346920  9.4183726537502235  9.5072858914427112
 9.9786929449404784  4.4301716683214796  9.4471832313911346
 1.3113432465503987  7.2931795402037256 11.7061289320147086
12.7663239141597824  5.0713383530790868 13.3393257899062920
 0.8002204250067333 10.6789676539604965  8.6486990369611458
13.7179266153344539  0.8470593714056118  8.3466132209141808
 0.1997554561338166  3.3707328415294651  8.6963997898093002
 5.1996793935579522  1.6294795633935362 10.0635666249672493
 5.5495389595178342  6.6049616178117656  5.1828463600887336
10.9709093566986358 14.0691260086142247  7.0486735910492495
 3.9929646814129889  6.4869709981405475  5.2737373922338513
11.1074888751367293 13.4371329328921032 10.9976222066448468
 9.6554468372951536 13.2158135586668788  7.1882694604624060
13.2362428278305995  8.8542252937575281  9.2079813687985332
 1.4408919843951740  1.1188323396371231  0.8185494138622147
 2.6059299152138848  2.1527122919087223 10.6063386090287910
 2.1932660622954003  3.5596746104967121  0.2516916249083536
 6.8415275615369193  3.2351882683813518  2.5074245566276367
 3.5331026335317368  6.6716727283588764  2.7307554508680667
 1.3498509443953548  2.6226330944256624  1.1777163646149109
 4.3327890762094103  1.1301220529080211  5.5252941899346126
 6.3118553322535025  1.1375858949854436  3.8999213526315089
 5.6899220675011772  1.7880934201270762  5.1765793668075464
13.9277471754985296 10.1878459633160343 13.9933027134070702
12.3146021798404046 13.5752777251158623 10.0166297594607041
 1.7685703229834928  2.8362218609664502  2.6526624878406118
 0.7780081435704442  3.5473832799686562  6.1721999987231779
10.6942182212884287 10.8808187165093049  7.5782557620909099
11.2047310909192088 12.1018952449015824 11.7744320774358204
 6.6452203607424014  1.6913059372367947  6.3900297944088091
 9.7254507259928697 11.7297610443341629  6.7139520397243633
11.3239699584729383  0.0255926473815862  4.3654662292776241
 7.0254782901870190  5.4934483847538527  1.3440920711499693
 7.1493450189171330 11.9050581821774326  1.8547608969330245
10.7666790762811235  7.4148096378220796  3.6290164006061154
 3.6987573696099876  1.1686462218399392 10.0502782286043253
 1.6572601975277745  7.0273902751896227  4.4067153815264728
 0.6737815301428842  1.8814354528557757  8.8343461624961162
11.1651473083898960  3.6662266474009435 13.8489877683776559
11.1472205906717168  1.9933663018233325  7.8753872967800067
11.0462371483187258  4.3266969470821959 12.2016518863068644
 9.7028439636543329  3.3829623823748012  9.2752968780053369
10.4684244551360894  9.5824600365623045  3.5417301188259902
 9.0829774856474454  5.0840178267239775 13.4874850576017149
 8.7781400365115569 13.7496432771017840  3.7320877054150063
11.2308536229060589 11.2480739426179834 11.0859927142427725
11.8238475082358949 13.3904911897069478  7.0727078204659062
10.6544519616659858  9.8246094029378295  7.2855049490067554
13.2398417215033373 13.4897585986095851 10.6002794214514342
10.0700915809393994 11.6864821399150518  5.6780371034450017
 8.9634706393271539  8.6645259316645085  3.7164437072574366
11.0511366337076513  4.4624880424228124  9.6778679175359574
10.2161609501211483  0.9604915548828661  8.8779422653391453
 9.3571319379973890  7.1888746570769282  9.2943646659126120
11.7335791147756741 11.2092227792362937  7.4609300702944790
10.1784892053186784 13.4009532062632690 10.4171949740520926
11.4096527232391463  6.7941642254454582 13.2029099609755693
 9.4279140001431170  4.7825118992729223 10.3287690131121774
 7.5273218087475424  5.3970283836934456 12.6874769742882787
13.4209599337233900  4.6514252524828930 14.1108847979057099
10.4305038312660603 10.9473079585512725  8.6412463680097691
 7.4047199232421104  8.4300781949079617 13.5871728647244527
13.4935754775056598  3.5503522267618646  9.4002155883100809
11.9437795637053643  0.6453440566219264 12.5361028955463052
 8.8271615821169771  6.6067508114392783 12.6286650052073401
12.2609180019989221  3.0874265928674838 12.5814825495576823
11.0424686752073722  6.8750888826099672  8.8533088316435116
 8.9670979227775707 10.8012073820821310  0.0703484851525609
13.3926914159194670 11.3777799104511796  3.5217376506533888
12.9980544490839112 13.8482884180469323  2.9886730649183786
 9.3356606874160999 13.1933650066606187  8.2369152499733804
10.5969429729891917  7.2341720686770206  2.5613583583487909
10.3397623985226605 11.9730957972752474 12.4369979906616432
12.3054001633146850 12.7148999289914446  9.3381322164853788
 7.8860240132533743 11.1160172382144342  7.7456726303570083
12.5247903947456845  7.8071198725338409  4.8834794058168409
 8.6618824763188851  9.6101579650219566  1.3526237941291690
 7.6305576879464230 11.6563454377245552  6.0704582584628870
 7.9055874111289182  4.0638095049975202  7.8057022217409351
12.6545694097417130  8.4566439492884538  3.2338968609544558
 8.8450210557914328 13.7226638781159433  6.6509699387268508
14.0666934090315028 10.3604611658361829  0.9530594273133293
10.0526257456413166  8.8688986520066369  5.1072097704960981
 7.1029106135606437  8.1667009419533496  5.0509550448488802
10.5738744420125972 12.6697516810168427  1.9552190160616316
 8.8205634384551619 11.3507352982897682  3.0938733738190933
10.7569546219278376  1.4388457607314393 11.4690651810003832
10.9550046888800363 13.1149962956937340  4.4078776644256248
13.7320996798522135  4.6013285065689598 11.4392408434006168
 7.5497119647071589  5.5770343560898983  8.6117654339564229
13.0961457414701297  8.7060918001134429  8.1294390136446832
13.0841920172967630  6.2004083585088008 11.5055494236414138
 9.4296657296373869 13.3046536099527426  0.7990337744308373
10.2867919683111122  4.9493230703057822  7.3835924504139445
13.0882078266549922  7.8831978025204119  9.6943927368310430
12.8764910889955626  9.9197084057859382 13.8271807518711132
12.1120973926511848 12.0732268030169809 12.3902604531993763
10.2062886746976869  0.3285461718440512 12.7269205043711384
13.4980073749983394  1.0669311768672998  7.2975340932265009
 8.3351940361700141 10.0616308046735359  6.3886480384705120
10.2450766075806978 10.3934824401283219  1.2334863568261412
13.9866291239964351 10.9242842009310390  5.1324914813029050
12.4567717613909554  9.5389386140836177  9.5638232425083256
13.6001388543958317 13.2818178495543808  5.9333280984775971
12.7641547123699493  5.5418103526087084  8.0976463572341633
12.3018559701446915 11.4020905121939844  4.9220950085013158
 8.7972081493779815  1.6867327632828299  1.4738135578559692
12.7738691135532338  7.0378228304109545  0.1998082312256315
 0.2955758751459872  2.9124212183272746  1.0924242410923029
 1.4156280856601651  0.2022375730855437  4.8092397495853607
 4.4540319876528134  0.0604958637721733  5.7385613724164841
 0.4283794499396301  1.9653154439151699 10.9896007754985394
 1.5343056599282328  1.7537241326165294  8.1675956718816050
 3.4525069150587662  0.9523620340720296  9.0033894349636387
 6.4718598010141282  3.3614801272384138  9.6480334712176568
 1.1958743337595887  0.4951491615986932 10.4524469990784308
 0.9867478177736100  6.1930249778262176 13.5580035951329148
 3.8353651254264509  2.8178793042486028 12.2789951822011911
 4.5423070330175861  6.9872401970412010  2.4460126818625074
 2.7258003329148099  3.0885330034166092 10.0559190689033837
 0.8357199581276653  3.1579732078107536 12.7261711137459859
 1.0119609991433975  4.0372442792459484  9.0090008562313937
 4.8828015087112195  3.4422128236968597  8.8635551001954109
 5.6576499746424584  1.6872877020741779 12.2331713296560540
 3.6146470961370145  0.2032208236944957 10.5660746251233970
 2.0473652391469983  4.7989167152398764 11.0758614352572540
 2.7841489073296497  1.4828572670412754 12.6619683303306001
 6.2542589267689674  2.2806859231876278  7.2252071435771210
 3.0268934123108178  5.2987491517702381 12.4301540996486626
 0.2552034222678756  5.9507853260138059  7.4667163520276194
 5.8818013935106137  6.4713131922480525  7.3172000403974859
 3.4865116221790853  5.5763533166052373  2.6848328164714275
 5.8719923312655649  6.0628843356512068  4.2891427824222319
 6.7461638483729072  0.6518926703517653  6.7251658876909151
 3.6695130730004095  6.8968948883366838  6.2395703332149228
 1.6222906095572203  3.8815287319913150  2.9509500038539560
 5.4824618346087508  2.8469614677757917  4.9927967680271816
 6.6830468092725841  0.1478553168875774  4.1872469505118044
 3.6267966783301517  1.2341093162193193  4.6927330100065472
 1.7331393261308996  4.0372802067116282  6.4009240201757525
 3.8836006564165455  1.6072440892260378  6.4059397607974748
 5.7348381053165944  4.9089684436351408  6.5384637053087662
 6.6002200847455885  6.0354091518591968  2.1927730721590013
 1.3530271772037850  5.9769635745298313  4.3279077191808497
 2.4821752627957352  0.7716362094470188  0.8280056332312284
 6.1861647230507781  3.7723086416694009  3.1986634884397827
 0.9606652279527150  2.4732093306626233  6.0505875882865983
 6.1711144564450553  2.8912644647083052  1.7081722150528869
 1.1699643411751737  2.2092230038649365  3.3245081975595792
 2.0329139927405357  4.5842605172937620  0.6061978155980192
 2.8267069905525481  2.5840033021785054  2.8003903325484902
 0.4198466359794715  3.9262576035202148  5.2072720266849828
 3.7226071444213638  5.4225672647977650  5.2901480395413447
 5.5186584374898331  0.9546560353767806  3.1630642240478082
 3.2623831944598400  3.3680043487073466  0.4136496842628361
 0.8773187248846757  0.5150554532796061  1.5406050062339407
 6.1669685450399339  5.1201164072785481  0.7698667254361418
 5.0409051912053400  3.7657399054975897 10.6037733160117167
12.3784207046337276  1.6143190428950849  9.8690561173113363
 5.6742324546882674  1.0948156042654364  9.2309799816634008
 1.0085571026720359  0.9210956943215951 13.9450902679595732
 7.4866974011999101  0.5415372801828244  1.5493348563670306
 8.2586387114666682  3.7732829232903384  1.0071032280961365
 9.6057143290247620  3.7835789489103924  3.0890241699296332
13.5185394954106268  8.3251546755468997 11.9876085437279105
11.1887833661395089  0.8105814109739740  2.2975212090821326
10.0233746059954907  1.2714920873917031  5.6228187594511159
 8.1807739650724702  6.7441717333527382  6.3599662458206740
13.0255225003004877  5.6326747906916825  6.3459418534403707
 8.9912142428121857  4.1269489120595857  5.6046952153178466
11.7194839484278663  1.5947886317796325  5.7937818723439563
 8.1615060884536508  2.2791595150160475  3.9672640784114304
10.3860563624224422  1.7864604683584862  3.4773440687571124
 9.7770300737757179  5.1758547208060897  2.0967559398573989
12.8378061287696408  6.7159671655108735  3.5140770788981790
10.2629424332732402  6.4801818726610474  5.5073590153705965
 8.2126156671004562  6.4459618664981253  3.7591993807257555
13.2733709901013786  0.9937052985869244  4.1708060153703457
 7.6452155827163732  2.0724349888618736  6.1574581734172202
 7.4061307551843054  4.2450302370507558  4.9140703240173895
12.9297526229920710  3.2794773916177764  7.0237654933395728
 8.6529767086114706  6.9033838932349045  1.0165715961159201
11.4214846603144355  6.0033523562376825  0.6763730106953165
11.0076796559131740  5.3797692344742263  4.3880313152510571
 1.8092677938621708 11.0695596833697056  8.8320581505501448
 2.3706598080695773  7.5302044800622934 11.8707741048243296
 1.7954853072919814  9.4027058131511527 13.5844202386016786
 7.0551508777265592  1.3735060059426374 11.1997570728567108
 1.2185772637549892  7.0567646488200122 10.6406949788312755
 3.3809808357539719  8.2667904837104356  4.1779928521689023
 5.6349843460635096  8.6851659925834088  5.8950585748075550
 1.3261321581685124 13.1190725028323580  3.4980388919946925
 5.6583895897754868  8.5352306903752631  4.1235932493652729
 6.5510365764541252  8.2176295317622614  1.0141118514968692
 6.7474870256791686 12.6032966369132868  2.5959889870689601
 6.9393835426753956 12.3020011116846870  0.8534393973731884
 0.6557686050853473  8.2295558462941099  0.0952036687614228
 1.3891328941338106  7.3883987608636428  5.4080316042526935
 1.7275345636135633 12.6078902234130350  5.1523370165792084
 6.6027471814577350 10.9602266503409869  1.9681200416135738
 1.0797390676160745  7.6070319290146369  3.6760745672838713
 2.8419937613364699  7.0745133388013688  1.9790494895367328
 1.2722196543357338  8.6717993176064230  9.1946708188849993
 0.0817743183746114 11.4728601603761380  8.8799105813657579
 1.7652340566813933 10.1004001032486972 11.1656706503452465
 0.0828468717174182 10.5851912619346198 11.2705733903104264
 5.9856326674883906  7.3642014138556871 13.6767688783815924
 0.7194661821121890 10.4473941442319269  7.5791049136794957
 0.0707504371212160 13.9693271231384859  8.3222492685493794
 0.0194533346573955 11.1336518660685773 13.4784731932090249
 5.8670584538713637  0.0927463921776450 11.4846409569769552
 9.9002792737701579  7.4164764593232970  7.6198769523056473
