# Amorphous model                       
   1.00000000000000     
     9.7023407927579264    0.5711430779023758    5.4530524868002406
     0.0000000002599268   16.8418873363037775    6.5088784435540292
     0.0000000000540472    0.0000000000877264   10.6988738901834228
   C    H    O 
    72   146     7
Direct
     1.1690633703938447    0.3028351680899856    0.6560616592736975
     0.6316259404341587    0.7077061656972010    0.7021671453159387
     1.1238324865634739    0.6745841777741622    1.1345617046794376
     0.3365862888222426    0.7904788134556251    0.6769218972616097
     0.7437219075929971    1.0564665999899483    0.9461342722124038
     0.9396363881997248    0.9395615914242680    0.8551865126772338
     1.1095270550005853    0.4873149378982660    0.7083708937506962
     0.4083700951130372    1.2910564950909327    0.7580744340628427
     1.3088654660415455    0.5775549052072450    0.5004728457535316
     1.1011408203466024    0.7003895186567451    0.5024252369916108
     1.2237486358107874    0.2113754277164571    0.3951991909636575
     1.2609490859887305    1.0037045320194387   -0.0860647550619522
     0.3772698090377942    1.0507561745144267   -0.2502825662551420
     1.2193100844882072    1.3808084376355831    1.1483932642863144
     1.1468442135739374    0.5577134616042178    0.5696263689687057
     0.9220387465846194    0.7057449808554787    0.3995787007661235
     1.1676421193052045    1.3245224162163822    0.9933422101976034
     1.6352335517176970    0.6158205039004419    0.1391998681126208
     1.4478091358984078    0.3852546317629438    0.4331197143657733
     0.9873077497309456    0.7505940650816667    0.4465432637368325
     1.3095103688121403    0.8293885844260670    0.1607392226039474
     0.5721423535917251    0.5331914558090880    0.7512776467994837
     0.5740095711191944    0.7909220395978479    0.7061686807564350
     0.9671198684927589    0.8974744803842404    0.6385919402290651
     1.2189046546097311    0.3951184216510401    0.9981721551698938
     1.2489689733626885    0.1878134555353596    0.5352011662602949
     1.2117891508686294    0.0466696898989029    0.4229944076957941
     1.1463174130498628    0.2255518828328572    0.6615494845048593
     1.7385659591016933    0.0523556496572866    1.3282210653405919
     1.0861544616107162    0.1842394412466960    1.4310100401541685
     0.6195745692461936    0.0727768714752818    1.0785836325054288
     1.7799051047332057    0.0061568006216490    1.4505191974723857
     0.6658671301577663    0.5571913864068736    0.5939059716428829
     0.9562175525988911    0.5568480087806404    1.2336334980454895
     0.8763497533112077    0.9396649196084601    0.7616864655408498
     1.4087622390902370    0.5216096109426239    0.4170310135293070
     1.4245539000131400    0.5355456269139877    0.2652059060126938
     0.5072370917942165    1.1341375153694937    1.0732394412927766
     0.9980744675992379    0.7246541063014077    1.2291528214289340
     1.3803911059999034    0.9675228129594733    0.0928533444038501
     1.0811005257957134    0.6069271409234381    1.1127169728445225
     0.4142826337392365    0.8013026965765689    0.7622738558487135
     0.8388304058066860    0.9828922147684143    0.9692332442695438
     1.2590424735889660    1.0101109859413986    0.0569802921647775
     1.4849314777604343    0.8785715549698607    0.3801389482728091
     1.4243168154001227    0.8877919392612871    0.0769319974096956
     1.4863437511247752    0.6239977410449395    0.1716790752044808
     1.6778678461266432    0.6973392986576927    0.1262172109220286
     1.8257733138546088    0.7054737199607107    0.0338705401765824
     1.6142196884439701    0.8225052183165747    0.3145901526857068
     0.8746901053122198    0.2199624173202931    1.2176303806268578
     1.3538350903324019    0.8609425468934016    0.5378269253345530
     0.4265262070752255    0.4495860469345053    0.7600646197935045
     1.8583098346934255    0.7199697733324321   -0.1279297006234515
     0.6272438090736849    0.4681702151038939    0.8592375310762014
     0.4135231048988224    1.0085965572180724   -0.3764602283447114
     1.1413315998680460    0.1174683040537942    0.3541628496482404
     0.5471903181683856    0.3981972185249928    0.6960137846770441
     1.3621755665353761    0.7527194714748962    0.1335726782858604
     0.5431726943547519    0.3082510102460899    0.7415439783533880
     1.6559207461806815    0.1341373293443673    1.3578130969848559
     0.2649697219369974    0.2637054284637224    0.9129946125302318
     0.9772835797558272    0.4522273830040335    0.7392458532114589
     0.8602296229363008    0.5164178555921272    0.7768630735049941
     0.7309334700769792    0.3268192440194776    1.0999216542961452
     1.1173397525790949    0.3736349499003350    0.5465259247710845
     0.7380497155973291    0.1933633189848520    1.3689670243891483
     1.5517006266771682    0.7490551358397194    0.3609757532193510
     0.8258838071806991    0.2499350778530048    1.0924143899202661
     0.7086407854420690    0.5023835046349389    0.9063597889667813
     0.9212503576670527   -0.5122764770964943    1.2010387234571538
     0.7895261704321890    0.3967229160897546    1.0832982347828048
     1.4428248134056640    0.7588340948696589    0.0223703504004299
     1.0308027175218684    0.2306456311480731    1.3850951270027965
     1.3304421348706790    0.0543959027847481    1.3895645394108096
     1.7173583645264150   -0.0453963190433199    1.5296642512484890
     1.2663029822282619    0.8587531084505177    0.5243028075903167
     1.7797507105898118    0.0388852641380679    1.5139775692663486
     1.8264544080004892    0.0741348616942190    1.2196105121620813
     1.5740862353745853    0.1074487237493977    1.4708414894529398
     1.9635033460188529    0.7063713676967784   -0.1816390736402163
     1.6451756932725665    0.5767025520192887    0.2439453010731070
     0.7019855136564275    0.5196529573438520    0.5274537109329593
     1.6673595498222331    0.0145707850857870    1.3354080613405088
     1.6197905378471078    0.7489123208120879    0.0906567341575388
     1.0526911720504961    0.9586753227943592    1.7873339092921356
     0.6380525562572436    0.6128186751102540    0.5349151107751904
     1.8884991363910260   -0.0141784378202096    1.4035075576331859
     0.6908186528017903    0.4344259733474228    0.7872480960222080
     1.2805841286357569    0.7300977780371626    0.1377865176049242
     1.8329012945671144    0.6717963626474569   -0.1443428685909792
     0.5835115566163444    0.0161550870153104    1.1327552908920993
     0.6520456616739030    0.0835392823928857    1.1547362623347921
     1.3573056132626600    0.1794461916953553    0.4981383947597655
     0.9949243698388411    0.4355144217186711    1.1663345610259883
     1.1524511349322331    0.1890403144874668    0.7677409178598015
     1.0316089828024189    0.2310025103489528    0.6694978582949650
     0.7607662039015471   -0.0622113457803959    2.0708145759279195
     0.5451288285698727    1.1933490682542691    1.0538698312620622
     1.5122760091992686    0.7180859985493608    0.4815638517500032
     1.1174107307629151    1.3645617536993713    1.2435515226744347
     1.5108459552627209    0.8825981927159616    0.0982863366076993
     1.4622250497249649    0.8953643911723776   -0.0394804844859056
     1.0752251768890591    1.3401162124235750    0.9655794306014246
     1.0600698300226303    0.3408147533256621    0.5206560894033220
     0.4360246492569380    1.1304239362923389    1.1884499759213978
     1.2582946607484349    1.0766868297817178    0.0287407256251696
     0.8044468318551167    1.1108345248916487    0.8557223373456294
     0.9509171070198432    0.8814632004865822    1.9194191235891818
     1.4533834110979111    0.7668034394180656    0.3433606626396790
     0.8517875228382020    1.0059712813277926    0.7121976845318957
     0.7867342200637424    0.9118743399550255    0.8273821531739906
     1.1848107168628708    0.9879551040460935    0.1619088433410938
     1.2296180110923758    0.8534905487334959    0.1336785845264902
     1.6998310394154545    0.5857549579533883    0.0496159553102432
     1.5007190258318621    0.4917425210982513    0.2052460493238505
     1.3045337245059156    0.9155162668194710    0.5591912219742097
     1.4685369912243629    1.0022050290893130    0.0603885344780963
     1.3340001929315817    0.9584941155141640    0.2103041029503639
     1.0415434095888894    0.9249189482605309    0.5287953199118127
     1.2145334249295423    1.4348749454269776    1.1821864054460407
     1.6905524079717591    0.8411115735005190    0.1930490669510927
     1.4289348376740418    0.8901892290728539    0.3147971037932393
     1.5055551048301259    0.6514893908410523    0.0484528351139671
     1.7010177354138805    0.8168976573043460    0.3431480247177656
     1.2624879145289936    0.9446028321232257   -0.0722824117208667
     0.7157578402141014    1.0393686172482428    0.8742740629764062
     1.5135047787722191    0.5268761201005832    0.4062628855092040
     1.2767127548757606    0.8247944623006646    0.2866979027221430
     1.5399136632939563    0.9262355461033598    0.3624571954681904
     1.0413650354120154    0.0956536896689941    0.3619787986213422
     1.1008060556540469    0.3183312932845261    0.7664642946064216
     0.6257656715897456    0.3235850029997099    1.1939280094786058
     0.8492866949338453   -0.4150549704295771    1.2800923606740544
     0.8957707261814744    0.2670650584943077    1.2326618495818003
     0.6144767923378021    0.2746138857203606    0.6595645803242633
     1.0410935393967640    0.8067160589359482    0.3581058115609301
     1.3153311651073187    0.5763914697970643    0.5982477043161730
     1.3226983801248837    0.6411013101502936    0.4342737213916992
     1.5630580223900155    0.3883677416140666    0.3742080906360257
     0.8673590396512695   -0.4790669412982029    1.1224791973954782
     1.3985881571167689    0.3360526145324560    0.4440318005710980
     1.1293477150093885    0.7331749915415944    0.5472664424434494
     0.4698970644364093    1.0341574022243321   -0.2216792173188753
     0.3575457253606937    1.1116372413527389   -0.2756893140012961
     0.9118896048749785    0.6403559242242078    0.4582978395035041
     0.5906488693902688    1.4207999574503496    0.5667624196091089
     0.9072578855572908    0.8613895350699473    0.6304101780450739
     1.1807724356340341    0.4342933005990361    0.7100653279601193
     1.3455347462895682    0.4176319748473293    0.8901969136223848
     1.1869207062368772    0.7008914921857817    0.3810836803906312
     0.5453801460522746    0.4299313933784333    0.9406642286935031
     1.2114584785345186    0.1276827118209337    1.2261400490004100
     0.9484508851785876    0.1689276491153254    1.2011843612185784
     0.3133184684620061    0.9861128608093888   -0.3503680723506150
     0.8931091619249303    0.5423166181486081    0.8326847972786108
     1.2327057778261288   -0.0124118676273968    0.3798910208259539
     0.8520482790374618    0.5687577535698726    0.6947053704523577
     1.0084380545407390    0.1555632357706743    0.5454758923355546
     1.0154223804786922   -0.1540981950600997    0.6957575806032452
     0.4229096873887500    1.0420879084493200   -0.4868931428190757
     0.5523553442164425    0.2821434047064585    0.8435997809078311
     0.2809714429483669    0.2096888066930080    0.9934324964088810
     0.5534535991916242    0.5882159352484090    0.7814350671539042
     0.2161560091028326    0.2302922141711913    0.8785602231090612
     1.0799289388160513    0.5056972273635870    0.8078725593114512
     0.3536350228329680    0.4666549726903526    0.7077604582937360
    -0.5434834750920585    0.1396864281459505    1.0040844084286715
     0.7530070363514031    0.1611641671695369    0.4793531679937634
     0.7689139780532593    0.3903443622627431    1.1969991682352534
     0.6512103459118445    0.5610052876380798    0.9038348556799047
     0.7192888035012013    0.3408930735240851    1.0058013153793053
     0.9595652773386291   -0.4619438391147888    1.3401662708321276
     1.3367655967507621    0.5433268196728267    0.2407645477184749
     1.1328935917173051    0.5545577542778091    0.4695637668031646
     0.3680685885690412    1.3387761378266276    0.6845885436720407
     0.4626180363605398    0.9465601420647392   -0.3512549769233682
     0.6599308413732625    0.2454007651980950    1.3862798573736685
     0.8350876066739787    0.4485660074418581    1.3068333690031433
     0.4391493896075010    1.2433536361988906    0.7046703413636896
     0.9034275254096208    0.7641712307865005    1.5435888445149393
     0.6097307169080898    0.1830867585298035    1.2889229897246028
     0.9094614893655872    0.2577053633804522    0.9955650436324802
     1.0007486483359929    0.7886446823748425    1.1547375626868110
     1.1729013102187247    0.6553138164671062    1.2038701503771889
     0.8759368535714290   -0.0107220426845991    1.0388922492712824
     0.9376177785057395    0.4012786050912109    0.8388032799876721
     1.1578050106275537    1.0354492406207298   -0.0780365547552084
     1.2075664309222489    0.1200764584776911    0.5843530194157880
     1.2166838867534313    0.2762125373132167    0.3503375725350003
     1.1434489908666330    0.0185460932067225    0.5473569442073903
     1.2862758885785164    0.3296603086375193    1.1769963410728770
     1.3160798305083425    0.1921655935681967    0.3234422967765132
     1.1923437082727846    0.4072266107195142    0.4299375933293272
     1.1782172319860766    0.4603049828624967    0.9609247505421215
     0.7731044103207574    0.5729092162746197    0.5647534151306499
     1.2756585141977572    0.3037620884212605    0.6347011136069854
     1.8872554739992657    0.6509837114271808    0.0570801340961081
     0.6259235953974918    1.4110117615751654    0.7124433360216740
     1.1164441227135811    1.2904547824578920    1.1207012602160271
     1.8355301892003204    0.7590962627478964    0.0516478049411378
     1.1947904472747737    0.7142016251115617    1.0275620198697275
     0.7744669566829330    0.2070005719146294    1.0877955458506903
     0.3826513463121371    0.8597047369694535    0.7712051169570550
     0.6404597854186457    0.8317932007728180    0.5964026780406042
     0.8976333861640563    0.4027430660154769    1.0075523324262383
     0.5346872122999775    0.6711555192070588    0.8028010708498644
     0.3632171602526136    0.7721096078669057    0.8896923109819361
     0.6483790195646362    0.6937886827596745    0.6033970323845212
     0.2235308840243736    0.7980375343467413    0.7339988731060409
     0.8165074049258485    0.7294010130314263    1.4328926824957058
     0.7171762519016986    0.6812756307624098    0.7447573866514527
     0.9178770581471885    0.7061424691823477    1.2194912922203269
     1.0774827834806067    0.6258259650451298    1.0076972296948172
     1.8389154959179013    0.7834724249779497   -0.1780255556101471
     0.3589971999746682    0.7342869556976095    0.6548920495481974
     0.5972811643057185    0.8275918229666610    0.7626249439305230
     1.1766210623839271    0.5645334607063139    1.0891081645674070
     1.0076646873228152    0.4215515373473480    0.6061701676067321
     1.3972463004191202    0.6880701850241502    0.2294965576543418
     1.0652117798897540    0.6239373629216243    0.6028211433935239
     0.4435651109771787    0.5200387612822882    0.7739278232752318
     0.6912887380922937    0.4620781088625508    1.0459696214008132
     1.3715041302004165    0.4401656864847182    0.5080194489172104
     1.6308045760119771    0.6885798537926459    0.2877665549922848
Lattice velocities and vectors
           1
  0.61107508E-03  0.24660280E-03  0.70930931E-03
 -0.24902755E-03  0.67761261E-03  0.50002817E-03
  0.91547249E-03 -0.76794582E-03  0.15250476E-03
  0.97024095E+01  0.57121257E+00  0.54536519E+01
  0.25992902E-09  0.16842345E+02  0.65085949E+01
  0.54046704E-10  0.87720690E-10  0.10698935E+02
 
 -0.21750103E-01  0.26367434E-02  0.74512037E-03
 -0.22544964E-02 -0.44082384E-02  0.95967771E-02
 -0.33252129E-02 -0.62349430E-02 -0.35761938E-02
  0.22943133E-02 -0.43856110E-02  0.37442122E-03
 -0.57375508E-03  0.11327849E-02 -0.92646514E-03
  0.19395659E-03 -0.53010651E-02  0.13903353E-02
  0.97624325E-02  0.15347922E-02 -0.71039739E-03
  0.10009040E-01 -0.55927896E-02  0.63422431E-02
 -0.17704951E-01 -0.62225776E-02 -0.22516381E-02
  0.12053100E-02  0.72788536E-03 -0.79650343E-02
  0.13142054E-01  0.12800870E-02 -0.51878610E-02
 -0.20093724E-02  0.51708260E-03 -0.73749377E-02
 -0.60975255E-02  0.15308153E-02 -0.56209741E-02
 -0.88092670E-02  0.80964431E-02 -0.25411723E-02
  0.38249170E-02  0.21037448E-02  0.13917996E-01
  0.32366946E-02  0.31020741E-02  0.68183481E-02
  0.35025086E-02 -0.14928123E-01 -0.10243656E-01
  0.16199727E-01  0.39323365E-02  0.36967890E-02
 -0.72851381E-02 -0.82193757E-02 -0.11973030E-01
 -0.89537214E-02 -0.69358250E-02 -0.95004672E-02
  0.14440481E-03 -0.67053394E-03  0.39451069E-02
  0.45299450E-02 -0.82820351E-02 -0.13457782E-01
 -0.36799718E-03 -0.10978160E-01  0.10219006E-02
 -0.64300623E-02  0.14587053E-01  0.20219866E-02
 -0.91882938E-02  0.38377031E-02 -0.77242191E-02
 -0.12041031E-02 -0.15062961E-02 -0.39870145E-03
  0.30497835E-03 -0.26861471E-02 -0.69174809E-02
 -0.96669508E-02  0.67856430E-02 -0.55080209E-02
 -0.55588118E-02  0.71017917E-02 -0.24613757E-02
 -0.63722259E-02  0.14212943E-02 -0.15797200E-01
  0.35563563E-02  0.59303743E-02  0.10617804E-01
 -0.57789831E-02 -0.87060024E-02 -0.40744649E-02
  0.54604495E-02 -0.10837444E-01  0.16561802E-02
 -0.52239032E-02 -0.27812727E-02  0.13976923E-02
  0.34065081E-02 -0.79455900E-02  0.59308525E-02
  0.19859663E-02  0.29885604E-02  0.70055969E-02
  0.87259602E-02  0.13084546E-01  0.21591316E-03
  0.50708471E-02  0.55906955E-02  0.44409686E-02
  0.10951237E-01 -0.86965598E-02  0.40680813E-02
 -0.76349987E-02 -0.84804282E-02  0.67006806E-02
  0.74208816E-02 -0.86245647E-02 -0.12808917E-01
 -0.88995095E-02  0.72667888E-02 -0.35361614E-02
  0.23839827E-02 -0.38643474E-03  0.10160360E-02
 -0.33494860E-02  0.14122392E-01  0.68918964E-02
 -0.17477266E-02  0.50139024E-02  0.11260908E-02
 -0.53812529E-02 -0.13581282E-02  0.38582975E-02
 -0.71366530E-02 -0.76006716E-03  0.26922875E-02
 -0.42298241E-02  0.20162759E-01  0.68360018E-02
  0.52510608E-02  0.57515223E-02 -0.11837819E-01
  0.12880908E-02  0.15542119E-02  0.18833859E-02
 -0.11885518E-01 -0.11295908E-02  0.32152508E-02
 -0.46434223E-02  0.21428073E-02  0.11163723E-02
 -0.74887125E-03  0.34094172E-02 -0.11684875E-01
 -0.61938483E-02  0.95693312E-02 -0.53177565E-02
  0.69794472E-03 -0.21079336E-01 -0.31447969E-02
  0.15733417E-02 -0.50851185E-03 -0.20840006E-02
 -0.12819124E-01 -0.65561287E-02  0.41490842E-02
  0.64101109E-02  0.28032380E-02 -0.88957369E-02
  0.36762749E-02 -0.54640460E-03  0.64977003E-02
  0.13945579E-02 -0.46461018E-02 -0.66637644E-03
 -0.12058173E-02 -0.16653338E-01  0.79238556E-02
 -0.68264965E-02 -0.67187784E-02  0.34701467E-02
 -0.10373387E-01  0.17367825E-01 -0.16235403E-02
  0.74181555E-02 -0.14596525E-02 -0.35907774E-02
 -0.72724032E-02 -0.30838400E-02  0.36263924E-02
  0.44186189E-02 -0.33403064E-02  0.13325951E-02
 -0.78061114E-02  0.87316139E-02  0.18138111E-02
  0.92643465E-02  0.27303902E-02  0.93112285E-02
  0.69273579E-02 -0.15057994E-01 -0.56243040E-02
  0.10235542E-01  0.34361574E-02  0.28054641E-02
  0.18361125E-02 -0.24945663E-02 -0.12791130E-01
 -0.58563400E-02 -0.52743212E-03 -0.10960688E-01
 -0.15008284E-01  0.37165239E-02  0.10082997E-01
  0.54979056E-02  0.11054785E-01 -0.28948300E-02
  0.24801221E-01  0.31409556E-02 -0.30220160E-01
  0.13106931E-02 -0.54661859E-02  0.23559644E-01
  0.15159326E-01 -0.40081278E-01  0.41069305E-02
  0.24214868E-02 -0.99804157E-02  0.57564354E-03
  0.48622389E-01  0.28373315E-01 -0.20514878E-01
  0.26051637E-01  0.25643354E-02 -0.40516286E-01
  0.35594444E-01 -0.27486392E-01  0.79607387E-02
 -0.92209305E-02 -0.14970688E-01 -0.16628965E-01
 -0.17470924E-01 -0.30225423E-01  0.38011736E-02
  0.83794500E-02  0.11665607E-01 -0.90091636E-02
 -0.75785646E-03 -0.35235679E-01 -0.31713516E-01
 -0.30610887E-01  0.14449193E-01  0.20626761E-01
 -0.11222644E-01 -0.37177365E-01 -0.12706175E-01
  0.52216814E-01  0.18824470E-01  0.19159008E-01
 -0.19027330E-01  0.30090912E-01  0.26249129E-01
 -0.14729891E-01 -0.41246732E-01  0.33546621E-02
 -0.82394467E-02  0.29370863E-01 -0.15651642E-01
 -0.21187536E-01  0.22076000E-01  0.34525445E-02
 -0.58954843E-02  0.20314176E-01  0.18806462E-01
 -0.53038280E-02  0.24457491E-01  0.19460878E-01
  0.37480238E-02  0.14619425E-01 -0.19011538E-01
  0.66114820E-01 -0.17974545E-01  0.67396690E-02
 -0.64451384E-02 -0.18172714E-01  0.14580003E-01
  0.37581019E-02 -0.10140369E-02 -0.48368656E-01
  0.51944156E-01 -0.15724682E-01 -0.35776834E-01
 -0.25052006E-01 -0.16435864E-01  0.38662264E-01
 -0.13222485E-01 -0.10483189E-01 -0.55398015E-01
  0.10568818E-02  0.41827302E-01 -0.24481140E-01
 -0.14264554E-02  0.10385868E-01 -0.30250280E-01
  0.60955019E-02  0.24091358E-01  0.43849718E-02
  0.28611230E-04  0.29577436E-01 -0.10015308E-01
  0.63274241E-01  0.13011861E-01  0.24283554E-01
  0.32372778E-01 -0.22704734E-01  0.35433878E-01
  0.26774584E-02 -0.41333604E-01 -0.28886613E-01
 -0.56018041E-02  0.40131447E-01 -0.13580343E-01
 -0.30129773E-01 -0.16284661E-01  0.11197251E-01
 -0.14612277E-01 -0.23878021E-01 -0.44260732E-01
 -0.34757658E-01 -0.26362064E-01  0.20876495E-01
 -0.21170443E-01 -0.10329975E-01 -0.87354142E-02
 -0.36451467E-02  0.67920410E-02  0.29950432E-01
  0.13887592E-01  0.36875460E-01 -0.10725466E-01
 -0.20880329E-01  0.38773629E-01 -0.12134806E-01
 -0.49422136E-01 -0.17114467E-01 -0.23159439E-01
  0.10767252E-01 -0.21252998E-02 -0.29625216E-01
  0.44518976E-02  0.22780531E-01  0.21516407E-01
 -0.26583518E-01 -0.10218998E-01 -0.25857608E-01
 -0.24038565E-01 -0.24274601E-01 -0.18188474E-01
 -0.67056460E-02  0.18550160E-01 -0.21487541E-01
  0.40030201E-02 -0.11882760E-01  0.16059532E-01
  0.54052548E-01 -0.41008680E-01 -0.25741630E-02
  0.20509423E-01  0.21010317E-01  0.40762849E-01
  0.14830591E-01  0.25462396E-01 -0.17069300E-01
 -0.29201524E-01  0.24410886E-01  0.20034963E-01
  0.57074978E-01 -0.27358853E-01  0.32070328E-01
  0.32117334E-01 -0.16176365E-01  0.53702555E-01
 -0.19424989E-01  0.18411384E-01  0.13444391E-01
 -0.74461078E-02 -0.77534878E-03  0.75387826E-02
  0.17410559E-01 -0.10122020E-01  0.12297337E-02
 -0.78632501E-03  0.90311832E-02 -0.16171377E-01
 -0.20537584E-03 -0.25909233E-01  0.29593812E-01
  0.18066937E-01  0.28059013E-01  0.68679595E-03
  0.40627093E-01  0.41820279E-02 -0.51910306E-01
  0.18089378E-01  0.16184385E-01  0.63170214E-01
  0.34751103E-01  0.44072445E-02  0.38491214E-02
 -0.15463126E-01 -0.98662917E-02 -0.19669493E-01
  0.24132069E-01  0.11463404E-01 -0.48579059E-01
 -0.50727179E-02 -0.84245200E-02 -0.35637007E-01
 -0.26312717E-01  0.84257857E-01 -0.16787431E-01
  0.50596849E-01 -0.56191645E-02  0.50484069E-02
  0.16754789E-01 -0.10181982E-01  0.30350526E-01
 -0.21560111E-01  0.40344584E-02 -0.28987931E-02
 -0.92002058E-02 -0.15527858E-01 -0.88978424E-02
 -0.24536410E-01 -0.18124019E-01  0.36475827E-01
  0.12726874E-02 -0.40436499E-02  0.27601470E-01
  0.41408588E-01  0.79736211E-02 -0.90424835E-02
  0.22541544E-01  0.39008120E-01 -0.38587577E-01
  0.16644540E-01  0.38482267E-02  0.23728745E-01
 -0.10194848E-01 -0.13190351E-01  0.20684742E-01
  0.11158167E-01 -0.31696445E-01  0.10208831E-01
  0.99970763E-03 -0.15141188E-01 -0.11153566E-01
  0.25676391E-01  0.43637868E-01 -0.10704622E-01
 -0.66780501E-02 -0.17797895E-01 -0.12047362E-01
  0.13350466E-01 -0.67559227E-01  0.20688398E-01
  0.44673518E-01  0.22653793E-01 -0.18948645E-01
  0.39148944E-02  0.56337777E-01  0.20361326E-01
 -0.18578361E-01 -0.24405608E-01 -0.16139019E-01
 -0.59210563E-01  0.27519795E-01 -0.26681918E-01
  0.48366976E-01 -0.48349890E-02  0.13108724E-01
 -0.28937940E-01 -0.26933359E-01  0.25481033E-01
  0.47733597E-02 -0.24952842E-01 -0.28069087E-01
 -0.11513212E-01  0.41106021E-01 -0.48403257E-02
  0.30840214E-01  0.13606535E-01  0.95986983E-02
  0.24324975E-01  0.36130265E-01  0.61888484E-01
  0.26665509E-01  0.16469573E-01 -0.18218573E-01
  0.63462844E-02 -0.19774285E-01 -0.55517121E-01
  0.29800149E-01  0.68790258E-02 -0.10406592E-01
 -0.29177747E-01  0.10738848E-01  0.44086754E-02
 -0.15568812E-02 -0.22887604E-01 -0.12606870E-01
  0.42751903E-01  0.26136794E-01  0.13748785E-01
  0.47673098E-01 -0.53082722E-01  0.17626881E-01
 -0.12956255E-01  0.22196343E-01  0.33005140E-01
  0.65992002E-02 -0.26262763E-01  0.57880286E-02
 -0.41329807E-01 -0.16337535E-01 -0.11735017E-01
 -0.41169103E-01  0.42664003E-02 -0.43603550E-01
 -0.30678951E-01  0.44469053E-01  0.97501804E-04
 -0.13201199E-01  0.62932803E-02 -0.21917642E-01
 -0.50143158E-01 -0.17664216E-02 -0.12691730E-01
 -0.39375752E-01 -0.15453414E-01 -0.39501100E-01
  0.32039616E-01 -0.47033205E-01 -0.20152776E-01
 -0.17796707E-01  0.12403068E-01  0.32769982E-01
 -0.14819463E-01 -0.24969510E-02  0.13957737E-01
  0.15450666E-02 -0.23375119E-01 -0.59107728E-01
  0.22203670E-01  0.27946275E-01 -0.27667866E-01
 -0.52469608E-02 -0.15086334E-01 -0.19361594E-01
 -0.83221676E-02  0.23440533E-01 -0.10510133E-01
 -0.11048931E-01 -0.42584742E-01 -0.46589511E-02
  0.15991613E-01  0.30347057E-01  0.28818536E-01
  0.38423558E-01 -0.16713502E-02 -0.20572768E-01
 -0.10839192E-01  0.33289398E-01  0.13512207E-01
  0.14959757E-01  0.30122187E-01 -0.11759895E-01
  0.16385097E-02  0.83545181E-02 -0.42466982E-01
 -0.16192680E-01  0.71288672E-02  0.29035468E-01
  0.28719622E-01  0.10091453E-01  0.24832919E-01
 -0.26268199E-01 -0.11867814E-01  0.33201946E-01
 -0.43767283E-01  0.20826738E-01 -0.24676325E-01
 -0.50345499E-01 -0.27661318E-01 -0.12116624E-01
 -0.10478079E-01  0.18060967E-01  0.28036987E-01
 -0.93632609E-02  0.12878307E-01 -0.83792447E-02
 -0.39092179E-01  0.34480714E-01 -0.18635917E-02
  0.23019192E-01 -0.30755138E-01 -0.17635646E-01
  0.24385609E-02  0.49932752E-01 -0.71044322E-02
  0.98675509E-02 -0.44285732E-01  0.55944675E-01
  0.29298673E-01  0.18249333E-01 -0.60084869E-01
 -0.20911446E-01 -0.12651931E-01  0.11933584E-01
  0.39070937E-01  0.22051156E-01  0.89461283E-02
 -0.75280105E-02  0.19560933E-01  0.11117858E-02
 -0.82006808E-02 -0.15871526E-01 -0.74524492E-03
 -0.22134837E-02 -0.37344309E-01 -0.16958959E-01
  0.11525664E-02 -0.31685120E-01  0.54419475E-02
 -0.18578121E-01  0.65272235E-03  0.30181659E-02
 -0.39613821E-01  0.95509911E-02 -0.59915747E-02
 -0.28449689E-01  0.14244160E-01  0.57923801E-01
 -0.95472312E-04 -0.37312628E-01 -0.97648242E-02
 -0.72035903E-02 -0.26940847E-01 -0.20181610E-01
  0.10658705E-01 -0.27777323E-03 -0.20672371E-03
  0.78339186E-02 -0.32391334E-02  0.25925625E-02
  0.33806177E-03  0.86511319E-02  0.74621720E-03
  0.44480454E-02 -0.45870402E-02 -0.40088182E-02
 -0.45873282E-02  0.22952303E-02  0.94538158E-02
 -0.11666608E-01  0.47112823E-02  0.40102476E-04
  0.97677491E-02  0.28852378E-02 -0.17730328E-02
 
           1
  0.400000000000000     
  0.10000000E+01  0.00000000E+00  0.00000000E+00  0.00000000E+00
  0.16816668E+00  0.30292820E+00  0.65649000E+00
  0.63153299E+00  0.70760462E+00  0.70263509E+00
  0.12369540E+00  0.67444075E+00  0.13458513E+00
  0.33668088E+00  0.79037145E+00  0.67695300E+00
  0.74369825E+00  0.56494305E-01  0.94609484E+00
  0.93964438E+00  0.93943542E+00  0.85531117E+00
  0.10992953E+00  0.48733774E+00  0.70812531E+00
  0.40878274E+00  0.29090967E+00  0.75819053E+00
  0.30813555E+00  0.57743188E+00  0.50083558E+00
  0.10119051E+00  0.70040512E+00  0.50209263E+00
  0.22429044E+00  0.21138745E+00  0.39472174E+00
  0.26086625E+00  0.37196221E-02  0.91369257E+00
  0.37701843E+00  0.50801057E-01  0.74960812E+00
  0.21894691E+00  0.38101304E+00  0.14835891E+00
  0.14700190E+00  0.55775808E+00  0.57003920E+00
  0.92217219E+00  0.70581413E+00  0.39972353E+00
  0.16778652E+00  0.32416298E+00  0.99310429E+00
  0.63590142E+00  0.61589124E+00  0.13895461E+00
  0.44750879E+00  0.38506961E+00  0.43293773E+00
  0.98693862E+00  0.75044186E+00  0.44646882E+00
  0.30951632E+00  0.82937246E+00  0.16089349E+00
  0.57232911E+00  0.53298843E+00  0.75080282E+00
  0.57399440E+00  0.79066183E+00  0.70637292E+00
  0.96685478E+00  0.89782991E+00  0.63858644E+00
  0.21852585E+00  0.39522241E+00  0.99801320E+00
  0.24891933E+00  0.18777937E+00  0.53523230E+00
  0.21180172E+00  0.46605468E-01  0.42276844E+00
  0.14591887E+00  0.22572656E+00  0.66144045E+00
  0.73833679E+00  0.52532087E-01  0.32813853E+00
  0.85891755E-01  0.18428211E+00  0.43052739E+00
  0.61972119E+00  0.72912743E-01  0.78823206E-01
  0.77966686E+00  0.59581163E-02  0.45060918E+00
  0.66609225E+00  0.55692637E+00  0.59401436E+00
  0.95600219E+00  0.55678926E+00  0.23383127E+00
  0.87649019E+00  0.93947145E+00  0.76195431E+00
  0.40884411E+00  0.52167781E+00  0.41720971E+00
  0.42491364E+00  0.53584418E+00  0.26484898E+00
  0.50744615E+00  0.13426320E+00  0.73222452E-01
  0.99852595E+00  0.72443225E+00  0.22920974E+00
  0.38007634E+00  0.96733208E+00  0.93380341E-01
  0.81406466E-01  0.60671193E+00  0.11221306E+00
  0.41391573E+00  0.80148772E+00  0.76221611E+00
  0.83892869E+00  0.98287970E+00  0.96922874E+00
  0.25890438E+00  0.10451071E-01  0.57101460E-01
  0.48485942E+00  0.87869308E+00  0.38014385E+00
  0.42409496E+00  0.88776721E+00  0.77204378E-01
  0.48604953E+00  0.62398967E+00  0.17193462E+00
  0.67769346E+00  0.69782407E+00  0.12626677E+00
  0.82598980E+00  0.70560297E+00  0.33238980E-01
  0.61427279E+00  0.82254033E+00  0.31461214E+00
  0.87420010E+00  0.21995221E+00  0.21800657E+00
  0.35364366E+00  0.86099993E+00  0.53793134E+00
  0.42649533E+00  0.44966807E+00  0.75959360E+00
  0.85805448E+00  0.72020570E+00  0.87185812E+00
  0.62727258E+00  0.46766861E+00  0.85941044E+00
  0.41358797E+00  0.85822804E-02  0.62343748E+00
  0.14080311E+00  0.11733052E+00  0.35467118E+00
  0.54745459E+00  0.39825483E+00  0.69551144E+00
  0.36232713E+00  0.75270135E+00  0.13374937E+00
  0.54323019E+00  0.30813872E+00  0.74155807E+00
  0.65587103E+00  0.13374350E+00  0.35837427E+00
  0.26468829E+00  0.26355540E+00  0.91335907E+00
  0.97685592E+00  0.45265437E+00  0.73914340E+00
  0.86053545E+00  0.51637282E+00  0.77660033E+00
  0.73063365E+00  0.32675617E+00  0.10024843E+00
  0.11752192E+00  0.37354944E+00  0.54653491E+00
  0.73772789E+00  0.19358161E+00  0.36906609E+00
  0.55208257E+00  0.74910703E+00  0.36109761E+00
  0.82616940E+00  0.24956777E+00  0.92281985E-01
  0.70906276E+00  0.50245080E+00  0.90620864E+00
  0.92132605E+00  0.48766171E+00  0.20055952E+00
  0.78928473E+00  0.39671858E+00  0.83014158E-01
  0.44220607E+00  0.75894335E+00  0.22996258E-01
  0.31029379E-01  0.23090049E+00  0.38471632E+00
  0.33146461E+00  0.54435822E-01  0.38788922E+00
  0.71741240E+00  0.95447203E+00  0.53059762E+00
  0.26692795E+00  0.85778000E+00  0.52472977E+00
  0.77985054E+00  0.38644847E-01  0.51409446E+00
  0.82845896E+00  0.74740734E-01  0.21745315E+00
  0.57516026E+00  0.10747320E+00  0.46876435E+00
  0.96497079E+00  0.70566881E+00  0.81833794E+00
  0.64479554E+00  0.57635990E+00  0.24372582E+00
  0.70126524E+00  0.51895954E+00  0.52838481E+00
  0.66770501E+00  0.14836123E-01  0.33473373E+00
  0.61975929E+00  0.74807655E+00  0.89995427E-01
  0.51429181E-01  0.95906129E+00  0.78851357E+00
  0.63758988E+00  0.61195142E+00  0.53520350E+00
  0.89065187E+00  0.98619563E+00  0.40289896E+00
  0.69003422E+00  0.43516723E+00  0.78817839E+00
  0.27997686E+00  0.72913878E+00  0.13880488E+00
  0.83256161E+00  0.67250543E+00  0.85481376E+00
  0.58263806E+00  0.16709009E-01  0.13299265E+00
  0.65180261E+00  0.84029980E-01  0.15526476E+00
  0.35708695E+00  0.18003446E+00  0.49861957E+00
  0.99507889E+00  0.43585639E+00  0.16533698E+00
  0.15517684E+00  0.18852098E+00  0.76691943E+00
  0.31343270E-01  0.23057993E+00  0.67043548E+00
  0.76092114E+00  0.93775932E+00  0.68945093E-01
  0.54727032E+00  0.19290298E+00  0.51712017E-01
  0.51124319E+00  0.71773068E+00  0.48375193E+00
  0.11686561E+00  0.36433127E+00  0.24189844E+00
  0.51088953E+00  0.88359010E+00  0.96745436E-01
  0.46216624E+00  0.89561305E+00  0.95926726E+00
  0.75476475E-01  0.34067985E+00  0.96527239E+00
  0.60071010E-01  0.34151717E+00  0.51985374E+00
  0.43863325E+00  0.13064449E+00  0.18789399E+00
  0.25962929E+00  0.76102336E-01  0.29740749E-01
  0.80455722E+00  0.10984912E+00  0.85518555E+00
  0.95068616E+00  0.88242414E+00  0.91844454E+00
  0.45214125E+00  0.76645881E+00  0.34462212E+00
  0.85118510E+00  0.54246176E-02  0.71118255E+00
  0.78530127E+00  0.91129685E+00  0.82924440E+00
  0.18393793E+00  0.98773937E+00  0.16215839E+00
  0.22946773E+00  0.85365695E+00  0.13477371E+00
  0.70040358E+00  0.58661132E+00  0.48402158E-01
  0.49985820E+00  0.49269258E+00  0.20465321E+00
  0.30249620E+00  0.91517891E+00  0.55956919E+00
  0.46898089E+00  0.21394989E-02  0.59094531E-01
  0.33418373E+00  0.95902892E+00  0.21068963E+00
  0.40447454E-01  0.92471342E+00  0.52851227E+00
  0.21354239E+00  0.43433204E+00  0.18234183E+00
  0.69027596E+00  0.84156151E+00  0.19211292E+00
  0.42909987E+00  0.88990142E+00  0.31548848E+00
  0.50778352E+00  0.65043987E+00  0.47859152E-01
  0.70186327E+00  0.81736797E+00  0.34395491E+00
  0.26309933E+00  0.94518682E+00  0.92641249E+00
  0.71455395E+00  0.39989198E-01  0.87525925E+00
  0.51585780E+00  0.52614655E+00  0.40670630E+00
  0.27803685E+00  0.82436537E+00  0.28829177E+00
  0.53911283E+00  0.92669997E+00  0.36308553E+00
  0.41058056E-01  0.95645687E-01  0.36242200E+00
  0.10152384E+00  0.31806655E+00  0.76630544E+00
  0.62573325E+00  0.32380059E+00  0.19320879E+00
  0.84927823E+00  0.58432998E+00  0.28157726E+00
  0.89651557E+00  0.26770619E+00  0.23191783E+00
  0.61615172E+00  0.27465640E+00  0.65674418E+00
  0.41839308E-01  0.80707514E+00  0.35986896E+00
  0.31676384E+00  0.57644755E+00  0.59762720E+00
  0.32206088E+00  0.64088861E+00  0.43399269E+00
  0.56405291E+00  0.38860625E+00  0.37173964E+00
  0.86714991E+00  0.52074007E+00  0.12137084E+00
  0.39750337E+00  0.33809050E+00  0.44271740E+00
  0.13143366E+00  0.73297079E+00  0.54651612E+00
  0.47058781E+00  0.33892157E-01  0.77926475E+00
  0.35665687E+00  0.11176320E+00  0.72457876E+00
  0.91151031E+00  0.64000001E+00  0.45837504E+00
  0.58963731E+00  0.42040383E+00  0.56888275E+00
  0.90731035E+00  0.86129172E+00  0.63147487E+00
  0.18247958E+00  0.43442477E+00  0.70877708E+00
  0.34646406E+00  0.41852689E+00  0.88773612E+00
  0.18760691E+00  0.70095961E+00  0.38157960E+00
  0.54495984E+00  0.42963238E+00  0.94183371E+00
  0.21191849E+00  0.12691433E+00  0.22675468E+00
  0.94849210E+00  0.16856665E+00  0.20096596E+00
  0.31437703E+00  0.98711334E+00  0.64808349E+00
  0.89283385E+00  0.54190326E+00  0.83262618E+00
  0.23325618E+00  0.98596496E+00  0.38137138E+00
  0.85389003E+00  0.56923331E+00  0.69276883E+00
  0.85994534E-02  0.15689577E+00  0.54534424E+00
  0.14656453E-01  0.84534816E+00  0.69588142E+00
  0.42046862E+00  0.42824284E-01  0.51290564E+00
  0.55434936E+00  0.28196095E+00  0.84318444E+00
  0.27977842E+00  0.20908961E+00  0.99535780E+00
  0.55365039E+00  0.58761664E+00  0.78064992E+00
  0.21568136E+00  0.23128457E+00  0.87801752E+00
  0.81200384E-01  0.50597726E+00  0.80741297E+00
  0.35463787E+00  0.46747904E+00  0.70906177E+00
  0.45761586E+00  0.14004029E+00  0.26276307E-02
  0.75326867E+00  0.16068566E+00  0.47743528E+00
  0.77014255E+00  0.39046607E+00  0.19590981E+00
  0.65000744E+00  0.56130113E+00  0.90443288E+00
  0.71922462E+00  0.34035168E+00  0.56920544E-02
  0.96132780E+00  0.53861712E+00  0.33944061E+00
  0.33873101E+00  0.54199947E+00  0.24122920E+00
  0.13235945E+00  0.55510303E+00  0.47073829E+00
  0.36834065E+00  0.33814318E+00  0.68505131E+00
  0.46091414E+00  0.94622992E+00  0.64937572E+00
  0.65823357E+00  0.24555965E+00  0.38541816E+00
  0.83382281E+00  0.44966503E+00  0.30681315E+00
  0.43860515E+00  0.24352156E+00  0.70402618E+00
  0.90136028E+00  0.76419939E+00  0.54415096E+00
  0.60810738E+00  0.18277480E+00  0.28846342E+00
  0.91078238E+00  0.25654354E+00  0.99484507E+00
  0.14945782E-04  0.78896413E+00  0.15614239E+00
  0.17229035E+00  0.65527524E+00  0.20472689E+00
  0.87600055E+00  0.98872065E+00  0.36988960E-01
  0.93853317E+00  0.40191127E+00  0.83691738E+00
  0.15758869E+00  0.35098282E-01  0.92156334E+00
  0.20722333E+00  0.12064480E+00  0.58378922E+00
  0.21622837E+00  0.27521661E+00  0.35100144E+00
  0.14410828E+00  0.19244466E-01  0.54767347E+00
  0.28785997E+00  0.32956689E+00  0.17547655E+00
  0.31563296E+00  0.19297136E+00  0.32368508E+00
  0.19296045E+00  0.40792109E+00  0.42876107E+00
  0.17828478E+00  0.46050111E+00  0.95918330E+00
  0.77243684E+00  0.57310117E+00  0.56606248E+00
  0.27684253E+00  0.30396160E+00  0.63490463E+00
  0.88617252E+00  0.65073858E+00  0.59022597E-01
  0.62411921E+00  0.41156759E+00  0.71210240E+00
  0.11436854E+00  0.28986823E+00  0.12166309E+00
  0.83509821E+00  0.75953986E+00  0.52646361E-01
  0.19440443E+00  0.71452057E+00  0.27251485E-01
  0.77285531E+00  0.20787414E+00  0.88015965E-01
  0.38360036E+00  0.85894213E+00  0.77052596E+00
  0.64056032E+00  0.83297568E+00  0.59536647E+00
  0.89804019E+00  0.40167750E+00  0.10084793E-01
  0.53589510E+00  0.67154797E+00  0.79970023E+00
  0.36235505E+00  0.77183837E+00  0.89074293E+00
  0.64998979E+00  0.69425776E+00  0.60262507E+00
  0.22322053E+00  0.79851263E+00  0.73390962E+00
  0.81616932E+00  0.72903554E+00  0.43325949E+00
  0.71708500E+00  0.68039181E+00  0.74470752E+00
  0.91792457E+00  0.70538835E+00  0.22012929E+00
  0.76716866E-01  0.62586744E+00  0.81752540E-02
  0.83728234E+00  0.78375465E+00  0.82241123E+00
  0.35782431E+00  0.73466503E+00  0.65742551E+00
  0.59727723E+00  0.82670579E+00  0.76280088E+00
  0.17632408E+00  0.56390370E+00  0.88888130E-01
  0.81041124E-02  0.42153004E+00  0.60595153E+00
  0.39756927E+00  0.68798230E+00  0.22948232E+00
  0.65225717E-01  0.62414235E+00  0.60271723E+00
  0.44374849E+00  0.51992360E+00  0.77375453E+00
  0.69109962E+00  0.46213903E+00  0.46382409E-01
  0.37102315E+00  0.44029389E+00  0.50818813E+00
  0.63120727E+00  0.68863472E+00  0.28746162E+00
  0.00000000E+00  0.00000000E+00  0.00000000E+00
  0.00000000E+00  0.00000000E+00  0.00000000E+00
  0.00000000E+00  0.00000000E+00  0.00000000E+00
  0.00000000E+00  0.00000000E+00  0.00000000E+00
  0.00000000E+00  0.00000000E+00  0.00000000E+00
  0.00000000E+00  0.00000000E+00  0.00000000E+00
  0.00000000E+00  0.00000000E+00  0.00000000E+00
  0.00000000E+00  0.00000000E+00  0.00000000E+00
  0.00000000E+00  0.00000000E+00  0.00000000E+00
  0.00000000E+00  0.00000000E+00  0.00000000E+00
  0.00000000E+00  0.00000000E+00  0.00000000E+00
  0.00000000E+00  0.00000000E+00  0.00000000E+00
  0.00000000E+00  0.00000000E+00  0.00000000E+00
  0.00000000E+00  0.00000000E+00  0.00000000E+00
  0.00000000E+00  0.00000000E+00  0.00000000E+00
  0.00000000E+00  0.00000000E+00  0.00000000E+00
  0.00000000E+00  0.00000000E+00  0.00000000E+00
  0.00000000E+00  0.00000000E+00  0.00000000E+00
  0.00000000E+00  0.00000000E+00  0.00000000E+00
  0.00000000E+00  0.00000000E+00  0.00000000E+00
  0.00000000E+00  0.00000000E+00  0.00000000E+00
  0.00000000E+00  0.00000000E+00  0.00000000E+00
  0.00000000E+00  0.00000000E+00  0.00000000E+00
  0.00000000E+00  0.00000000E+00  0.00000000E+00
  0.00000000E+00  0.00000000E+00  0.00000000E+00
  0.00000000E+00  0.00000000E+00  0.00000000E+00
  0.00000000E+00  0.00000000E+00  0.00000000E+00
  0.00000000E+00  0.00000000E+00  0.00000000E+00
  0.00000000E+00  0.00000000E+00  0.00000000E+00
  0.00000000E+00  0.00000000E+00  0.00000000E+00
  0.00000000E+00  0.00000000E+00  0.00000000E+00
  0.00000000E+00  0.00000000E+00  0.00000000E+00
  0.00000000E+00  0.00000000E+00  0.00000000E+00
  0.00000000E+00  0.00000000E+00  0.00000000E+00
  0.00000000E+00  0.00000000E+00  0.00000000E+00
  0.00000000E+00  0.00000000E+00  0.00000000E+00
  0.00000000E+00  0.00000000E+00  0.00000000E+00
  0.00000000E+00  0.00000000E+00  0.00000000E+00
  0.00000000E+00  0.00000000E+00  0.00000000E+00
  0.00000000E+00  0.00000000E+00  0.00000000E+00
  0.00000000E+00  0.00000000E+00  0.00000000E+00
  0.00000000E+00  0.00000000E+00  0.00000000E+00
  0.00000000E+00  0.00000000E+00  0.00000000E+00
  0.00000000E+00  0.00000000E+00  0.00000000E+00
  0.00000000E+00  0.00000000E+00  0.00000000E+00
  0.00000000E+00  0.00000000E+00  0.00000000E+00
  0.00000000E+00  0.00000000E+00  0.00000000E+00
  0.00000000E+00  0.00000000E+00  0.00000000E+00
  0.00000000E+00  0.00000000E+00  0.00000000E+00
  0.00000000E+00  0.00000000E+00  0.00000000E+00
  0.00000000E+00  0.00000000E+00  0.00000000E+00
  0.00000000E+00  0.00000000E+00  0.00000000E+00
  0.00000000E+00  0.00000000E+00  0.00000000E+00
  0.00000000E+00  0.00000000E+00  0.00000000E+00
  0.00000000E+00  0.00000000E+00  0.00000000E+00
  0.00000000E+00  0.00000000E+00  0.00000000E+00
  0.00000000E+00  0.00000000E+00  0.00000000E+00
  0.00000000E+00  0.00000000E+00  0.00000000E+00
  0.00000000E+00  0.00000000E+00  0.00000000E+00
  0.00000000E+00  0.00000000E+00  0.00000000E+00
  0.00000000E+00  0.00000000E+00  0.00000000E+00
  0.00000000E+00  0.00000000E+00  0.00000000E+00
  0.00000000E+00  0.00000000E+00  0.00000000E+00
  0.00000000E+00  0.00000000E+00  0.00000000E+00
  0.00000000E+00  0.00000000E+00  0.00000000E+00
  0.00000000E+00  0.00000000E+00  0.00000000E+00
  0.00000000E+00  0.00000000E+00  0.00000000E+00
  0.00000000E+00  0.00000000E+00  0.00000000E+00
  0.00000000E+00  0.00000000E+00  0.00000000E+00
  0.00000000E+00  0.00000000E+00  0.00000000E+00
  0.00000000E+00  0.00000000E+00  0.00000000E+00
  0.00000000E+00  0.00000000E+00  0.00000000E+00
  0.00000000E+00  0.00000000E+00  0.00000000E+00
  0.00000000E+00  0.00000000E+00  0.00000000E+00
  0.00000000E+00  0.00000000E+00  0.00000000E+00
  0.00000000E+00  0.00000000E+00  0.00000000E+00
  0.00000000E+00  0.00000000E+00  0.00000000E+00
  0.00000000E+00  0.00000000E+00  0.00000000E+00
  0.00000000E+00  0.00000000E+00  0.00000000E+00
  0.00000000E+00  0.00000000E+00  0.00000000E+00
  0.00000000E+00  0.00000000E+00  0.00000000E+00
  0.00000000E+00  0.00000000E+00  0.00000000E+00
  0.00000000E+00  0.00000000E+00  0.00000000E+00
  0.00000000E+00  0.00000000E+00  0.00000000E+00
  0.00000000E+00  0.00000000E+00  0.00000000E+00
  0.00000000E+00  0.00000000E+00  0.00000000E+00
  0.00000000E+00  0.00000000E+00  0.00000000E+00
  0.00000000E+00  0.00000000E+00  0.00000000E+00
  0.00000000E+00  0.00000000E+00  0.00000000E+00
  0.00000000E+00  0.00000000E+00  0.00000000E+00
  0.00000000E+00  0.00000000E+00  0.00000000E+00
  0.00000000E+00  0.00000000E+00  0.00000000E+00
  0.00000000E+00  0.00000000E+00  0.00000000E+00
  0.00000000E+00  0.00000000E+00  0.00000000E+00
  0.00000000E+00  0.00000000E+00  0.00000000E+00
  0.00000000E+00  0.00000000E+00  0.00000000E+00
  0.00000000E+00  0.00000000E+00  0.00000000E+00
  0.00000000E+00  0.00000000E+00  0.00000000E+00
  0.00000000E+00  0.00000000E+00  0.00000000E+00
  0.00000000E+00  0.00000000E+00  0.00000000E+00
  0.00000000E+00  0.00000000E+00  0.00000000E+00
  0.00000000E+00  0.00000000E+00  0.00000000E+00
  0.00000000E+00  0.00000000E+00  0.00000000E+00
  0.00000000E+00  0.00000000E+00  0.00000000E+00
  0.00000000E+00  0.00000000E+00  0.00000000E+00
  0.00000000E+00  0.00000000E+00  0.00000000E+00
  0.00000000E+00  0.00000000E+00  0.00000000E+00
  0.00000000E+00  0.00000000E+00  0.00000000E+00
  0.00000000E+00  0.00000000E+00  0.00000000E+00
  0.00000000E+00  0.00000000E+00  0.00000000E+00
  0.00000000E+00  0.00000000E+00  0.00000000E+00
  0.00000000E+00  0.00000000E+00  0.00000000E+00
  0.00000000E+00  0.00000000E+00  0.00000000E+00
  0.00000000E+00  0.00000000E+00  0.00000000E+00
  0.00000000E+00  0.00000000E+00  0.00000000E+00
  0.00000000E+00  0.00000000E+00  0.00000000E+00
  0.00000000E+00  0.00000000E+00  0.00000000E+00
  0.00000000E+00  0.00000000E+00  0.00000000E+00
  0.00000000E+00  0.00000000E+00  0.00000000E+00
  0.00000000E+00  0.00000000E+00  0.00000000E+00
  0.00000000E+00  0.00000000E+00  0.00000000E+00
  0.00000000E+00  0.00000000E+00  0.00000000E+00
  0.00000000E+00  0.00000000E+00  0.00000000E+00
  0.00000000E+00  0.00000000E+00  0.00000000E+00
  0.00000000E+00  0.00000000E+00  0.00000000E+00
  0.00000000E+00  0.00000000E+00  0.00000000E+00
  0.00000000E+00  0.00000000E+00  0.00000000E+00
  0.00000000E+00  0.00000000E+00  0.00000000E+00
  0.00000000E+00  0.00000000E+00  0.00000000E+00
  0.00000000E+00  0.00000000E+00  0.00000000E+00
  0.00000000E+00  0.00000000E+00  0.00000000E+00
  0.00000000E+00  0.00000000E+00  0.00000000E+00
  0.00000000E+00  0.00000000E+00  0.00000000E+00
  0.00000000E+00  0.00000000E+00  0.00000000E+00
  0.00000000E+00  0.00000000E+00  0.00000000E+00
  0.00000000E+00  0.00000000E+00  0.00000000E+00
  0.00000000E+00  0.00000000E+00  0.00000000E+00
  0.00000000E+00  0.00000000E+00  0.00000000E+00
  0.00000000E+00  0.00000000E+00  0.00000000E+00
  0.00000000E+00  0.00000000E+00  0.00000000E+00
  0.00000000E+00  0.00000000E+00  0.00000000E+00
  0.00000000E+00  0.00000000E+00  0.00000000E+00
  0.00000000E+00  0.00000000E+00  0.00000000E+00
  0.00000000E+00  0.00000000E+00  0.00000000E+00
  0.00000000E+00  0.00000000E+00  0.00000000E+00
  0.00000000E+00  0.00000000E+00  0.00000000E+00
  0.00000000E+00  0.00000000E+00  0.00000000E+00
  0.00000000E+00  0.00000000E+00  0.00000000E+00
  0.00000000E+00  0.00000000E+00  0.00000000E+00
  0.00000000E+00  0.00000000E+00  0.00000000E+00
  0.00000000E+00  0.00000000E+00  0.00000000E+00
  0.00000000E+00  0.00000000E+00  0.00000000E+00
  0.00000000E+00  0.00000000E+00  0.00000000E+00
  0.00000000E+00  0.00000000E+00  0.00000000E+00
  0.00000000E+00  0.00000000E+00  0.00000000E+00
  0.00000000E+00  0.00000000E+00  0.00000000E+00
  0.00000000E+00  0.00000000E+00  0.00000000E+00
  0.00000000E+00  0.00000000E+00  0.00000000E+00
  0.00000000E+00  0.00000000E+00  0.00000000E+00
  0.00000000E+00  0.00000000E+00  0.00000000E+00
  0.00000000E+00  0.00000000E+00  0.00000000E+00
  0.00000000E+00  0.00000000E+00  0.00000000E+00
  0.00000000E+00  0.00000000E+00  0.00000000E+00
  0.00000000E+00  0.00000000E+00  0.00000000E+00
  0.00000000E+00  0.00000000E+00  0.00000000E+00
  0.00000000E+00  0.00000000E+00  0.00000000E+00
  0.00000000E+00  0.00000000E+00  0.00000000E+00
  0.00000000E+00  0.00000000E+00  0.00000000E+00
  0.00000000E+00  0.00000000E+00  0.00000000E+00
  0.00000000E+00  0.00000000E+00  0.00000000E+00
  0.00000000E+00  0.00000000E+00  0.00000000E+00
  0.00000000E+00  0.00000000E+00  0.00000000E+00
  0.00000000E+00  0.00000000E+00  0.00000000E+00
  0.00000000E+00  0.00000000E+00  0.00000000E+00
  0.00000000E+00  0.00000000E+00  0.00000000E+00
  0.00000000E+00  0.00000000E+00  0.00000000E+00
  0.00000000E+00  0.00000000E+00  0.00000000E+00
  0.00000000E+00  0.00000000E+00  0.00000000E+00
  0.00000000E+00  0.00000000E+00  0.00000000E+00
  0.00000000E+00  0.00000000E+00  0.00000000E+00
  0.00000000E+00  0.00000000E+00  0.00000000E+00
  0.00000000E+00  0.00000000E+00  0.00000000E+00
  0.00000000E+00  0.00000000E+00  0.00000000E+00
  0.00000000E+00  0.00000000E+00  0.00000000E+00
  0.00000000E+00  0.00000000E+00  0.00000000E+00
  0.00000000E+00  0.00000000E+00  0.00000000E+00
  0.00000000E+00  0.00000000E+00  0.00000000E+00
  0.00000000E+00  0.00000000E+00  0.00000000E+00
  0.00000000E+00  0.00000000E+00  0.00000000E+00
  0.00000000E+00  0.00000000E+00  0.00000000E+00
  0.00000000E+00  0.00000000E+00  0.00000000E+00
  0.00000000E+00  0.00000000E+00  0.00000000E+00
  0.00000000E+00  0.00000000E+00  0.00000000E+00
  0.00000000E+00  0.00000000E+00  0.00000000E+00
  0.00000000E+00  0.00000000E+00  0.00000000E+00
  0.00000000E+00  0.00000000E+00  0.00000000E+00
  0.00000000E+00  0.00000000E+00  0.00000000E+00
  0.00000000E+00  0.00000000E+00  0.00000000E+00
  0.00000000E+00  0.00000000E+00  0.00000000E+00
  0.00000000E+00  0.00000000E+00  0.00000000E+00
  0.00000000E+00  0.00000000E+00  0.00000000E+00
  0.00000000E+00  0.00000000E+00  0.00000000E+00
  0.00000000E+00  0.00000000E+00  0.00000000E+00
  0.00000000E+00  0.00000000E+00  0.00000000E+00
  0.00000000E+00  0.00000000E+00  0.00000000E+00
  0.00000000E+00  0.00000000E+00  0.00000000E+00
  0.00000000E+00  0.00000000E+00  0.00000000E+00
  0.00000000E+00  0.00000000E+00  0.00000000E+00
  0.00000000E+00  0.00000000E+00  0.00000000E+00
  0.00000000E+00  0.00000000E+00  0.00000000E+00
  0.00000000E+00  0.00000000E+00  0.00000000E+00
  0.00000000E+00  0.00000000E+00  0.00000000E+00
  0.00000000E+00  0.00000000E+00  0.00000000E+00
  0.00000000E+00  0.00000000E+00  0.00000000E+00
  0.00000000E+00  0.00000000E+00  0.00000000E+00
  0.00000000E+00  0.00000000E+00  0.00000000E+00
  0.00000000E+00  0.00000000E+00  0.00000000E+00
  0.00000000E+00  0.00000000E+00  0.00000000E+00
  0.00000000E+00  0.00000000E+00  0.00000000E+00
  0.00000000E+00  0.00000000E+00  0.00000000E+00
  0.00000000E+00  0.00000000E+00  0.00000000E+00
  0.00000000E+00  0.00000000E+00  0.00000000E+00
  0.00000000E+00  0.00000000E+00  0.00000000E+00
  0.00000000E+00  0.00000000E+00  0.00000000E+00
  0.00000000E+00  0.00000000E+00  0.00000000E+00
  0.00000000E+00  0.00000000E+00  0.00000000E+00
  0.00000000E+00  0.00000000E+00  0.00000000E+00
  0.00000000E+00  0.00000000E+00  0.00000000E+00
  0.00000000E+00  0.00000000E+00  0.00000000E+00
  0.00000000E+00  0.00000000E+00  0.00000000E+00
  0.00000000E+00  0.00000000E+00  0.00000000E+00
  0.00000000E+00  0.00000000E+00  0.00000000E+00
  0.00000000E+00  0.00000000E+00  0.00000000E+00
  0.00000000E+00  0.00000000E+00  0.00000000E+00
  0.00000000E+00  0.00000000E+00  0.00000000E+00
  0.00000000E+00  0.00000000E+00  0.00000000E+00
  0.00000000E+00  0.00000000E+00  0.00000000E+00
  0.00000000E+00  0.00000000E+00  0.00000000E+00
  0.00000000E+00  0.00000000E+00  0.00000000E+00
  0.00000000E+00  0.00000000E+00  0.00000000E+00
  0.00000000E+00  0.00000000E+00  0.00000000E+00
  0.00000000E+00  0.00000000E+00  0.00000000E+00
  0.00000000E+00  0.00000000E+00  0.00000000E+00
  0.00000000E+00  0.00000000E+00  0.00000000E+00
  0.00000000E+00  0.00000000E+00  0.00000000E+00
  0.00000000E+00  0.00000000E+00  0.00000000E+00
  0.00000000E+00  0.00000000E+00  0.00000000E+00
  0.00000000E+00  0.00000000E+00  0.00000000E+00
  0.00000000E+00  0.00000000E+00  0.00000000E+00
  0.00000000E+00  0.00000000E+00  0.00000000E+00
  0.00000000E+00  0.00000000E+00  0.00000000E+00
  0.00000000E+00  0.00000000E+00  0.00000000E+00
  0.00000000E+00  0.00000000E+00  0.00000000E+00
  0.00000000E+00  0.00000000E+00  0.00000000E+00
  0.00000000E+00  0.00000000E+00  0.00000000E+00
  0.00000000E+00  0.00000000E+00  0.00000000E+00
  0.00000000E+00  0.00000000E+00  0.00000000E+00
  0.00000000E+00  0.00000000E+00  0.00000000E+00
  0.00000000E+00  0.00000000E+00  0.00000000E+00
  0.00000000E+00  0.00000000E+00  0.00000000E+00
  0.00000000E+00  0.00000000E+00  0.00000000E+00
  0.00000000E+00  0.00000000E+00  0.00000000E+00
  0.00000000E+00  0.00000000E+00  0.00000000E+00
  0.00000000E+00  0.00000000E+00  0.00000000E+00
  0.00000000E+00  0.00000000E+00  0.00000000E+00
  0.00000000E+00  0.00000000E+00  0.00000000E+00
  0.00000000E+00  0.00000000E+00  0.00000000E+00
  0.00000000E+00  0.00000000E+00  0.00000000E+00
  0.00000000E+00  0.00000000E+00  0.00000000E+00
  0.00000000E+00  0.00000000E+00  0.00000000E+00
  0.00000000E+00  0.00000000E+00  0.00000000E+00
  0.00000000E+00  0.00000000E+00  0.00000000E+00
  0.00000000E+00  0.00000000E+00  0.00000000E+00
  0.00000000E+00  0.00000000E+00  0.00000000E+00
  0.00000000E+00  0.00000000E+00  0.00000000E+00
  0.00000000E+00  0.00000000E+00  0.00000000E+00
  0.00000000E+00  0.00000000E+00  0.00000000E+00
  0.00000000E+00  0.00000000E+00  0.00000000E+00
  0.00000000E+00  0.00000000E+00  0.00000000E+00
  0.00000000E+00  0.00000000E+00  0.00000000E+00
  0.00000000E+00  0.00000000E+00  0.00000000E+00
  0.00000000E+00  0.00000000E+00  0.00000000E+00
  0.00000000E+00  0.00000000E+00  0.00000000E+00
  0.00000000E+00  0.00000000E+00  0.00000000E+00
  0.00000000E+00  0.00000000E+00  0.00000000E+00
  0.00000000E+00  0.00000000E+00  0.00000000E+00
  0.00000000E+00  0.00000000E+00  0.00000000E+00
  0.00000000E+00  0.00000000E+00  0.00000000E+00
  0.00000000E+00  0.00000000E+00  0.00000000E+00
  0.00000000E+00  0.00000000E+00  0.00000000E+00
  0.00000000E+00  0.00000000E+00  0.00000000E+00
  0.00000000E+00  0.00000000E+00  0.00000000E+00
  0.00000000E+00  0.00000000E+00  0.00000000E+00
  0.00000000E+00  0.00000000E+00  0.00000000E+00
  0.00000000E+00  0.00000000E+00  0.00000000E+00
  0.00000000E+00  0.00000000E+00  0.00000000E+00
  0.00000000E+00  0.00000000E+00  0.00000000E+00
  0.00000000E+00  0.00000000E+00  0.00000000E+00
  0.00000000E+00  0.00000000E+00  0.00000000E+00
  0.00000000E+00  0.00000000E+00  0.00000000E+00
  0.00000000E+00  0.00000000E+00  0.00000000E+00
  0.00000000E+00  0.00000000E+00  0.00000000E+00
  0.00000000E+00  0.00000000E+00  0.00000000E+00
  0.00000000E+00  0.00000000E+00  0.00000000E+00
  0.00000000E+00  0.00000000E+00  0.00000000E+00
  0.00000000E+00  0.00000000E+00  0.00000000E+00
  0.00000000E+00  0.00000000E+00  0.00000000E+00
  0.00000000E+00  0.00000000E+00  0.00000000E+00
  0.00000000E+00  0.00000000E+00  0.00000000E+00
  0.00000000E+00  0.00000000E+00  0.00000000E+00
  0.00000000E+00  0.00000000E+00  0.00000000E+00
  0.00000000E+00  0.00000000E+00  0.00000000E+00
  0.00000000E+00  0.00000000E+00  0.00000000E+00
  0.00000000E+00  0.00000000E+00  0.00000000E+00
  0.00000000E+00  0.00000000E+00  0.00000000E+00
  0.00000000E+00  0.00000000E+00  0.00000000E+00
  0.00000000E+00  0.00000000E+00  0.00000000E+00
  0.00000000E+00  0.00000000E+00  0.00000000E+00
  0.00000000E+00  0.00000000E+00  0.00000000E+00
  0.00000000E+00  0.00000000E+00  0.00000000E+00
  0.00000000E+00  0.00000000E+00  0.00000000E+00
  0.00000000E+00  0.00000000E+00  0.00000000E+00
  0.00000000E+00  0.00000000E+00  0.00000000E+00
  0.00000000E+00  0.00000000E+00  0.00000000E+00
  0.00000000E+00  0.00000000E+00  0.00000000E+00
  0.00000000E+00  0.00000000E+00  0.00000000E+00
  0.00000000E+00  0.00000000E+00  0.00000000E+00
  0.00000000E+00  0.00000000E+00  0.00000000E+00
  0.00000000E+00  0.00000000E+00  0.00000000E+00
  0.00000000E+00  0.00000000E+00  0.00000000E+00
  0.00000000E+00  0.00000000E+00  0.00000000E+00
  0.00000000E+00  0.00000000E+00  0.00000000E+00
  0.00000000E+00  0.00000000E+00  0.00000000E+00
  0.00000000E+00  0.00000000E+00  0.00000000E+00
  0.00000000E+00  0.00000000E+00  0.00000000E+00
  0.00000000E+00  0.00000000E+00  0.00000000E+00
  0.00000000E+00  0.00000000E+00  0.00000000E+00
  0.00000000E+00  0.00000000E+00  0.00000000E+00
  0.00000000E+00  0.00000000E+00  0.00000000E+00
  0.00000000E+00  0.00000000E+00  0.00000000E+00
  0.00000000E+00  0.00000000E+00  0.00000000E+00
  0.00000000E+00  0.00000000E+00  0.00000000E+00
  0.00000000E+00  0.00000000E+00  0.00000000E+00
  0.00000000E+00  0.00000000E+00  0.00000000E+00
  0.00000000E+00  0.00000000E+00  0.00000000E+00
  0.00000000E+00  0.00000000E+00  0.00000000E+00
  0.00000000E+00  0.00000000E+00  0.00000000E+00
  0.00000000E+00  0.00000000E+00  0.00000000E+00
  0.00000000E+00  0.00000000E+00  0.00000000E+00
  0.00000000E+00  0.00000000E+00  0.00000000E+00
  0.00000000E+00  0.00000000E+00  0.00000000E+00
  0.00000000E+00  0.00000000E+00  0.00000000E+00
  0.00000000E+00  0.00000000E+00  0.00000000E+00
  0.00000000E+00  0.00000000E+00  0.00000000E+00
  0.00000000E+00  0.00000000E+00  0.00000000E+00
  0.00000000E+00  0.00000000E+00  0.00000000E+00
  0.00000000E+00  0.00000000E+00  0.00000000E+00
  0.00000000E+00  0.00000000E+00  0.00000000E+00
  0.00000000E+00  0.00000000E+00  0.00000000E+00
  0.00000000E+00  0.00000000E+00  0.00000000E+00
  0.00000000E+00  0.00000000E+00  0.00000000E+00
  0.00000000E+00  0.00000000E+00  0.00000000E+00
  0.00000000E+00  0.00000000E+00  0.00000000E+00
  0.00000000E+00  0.00000000E+00  0.00000000E+00
  0.00000000E+00  0.00000000E+00  0.00000000E+00
  0.00000000E+00  0.00000000E+00  0.00000000E+00
  0.00000000E+00  0.00000000E+00  0.00000000E+00
  0.00000000E+00  0.00000000E+00  0.00000000E+00
  0.00000000E+00  0.00000000E+00  0.00000000E+00
  0.00000000E+00  0.00000000E+00  0.00000000E+00
  0.00000000E+00  0.00000000E+00  0.00000000E+00
  0.00000000E+00  0.00000000E+00  0.00000000E+00
  0.00000000E+00  0.00000000E+00  0.00000000E+00
  0.00000000E+00  0.00000000E+00  0.00000000E+00
  0.00000000E+00  0.00000000E+00  0.00000000E+00
  0.00000000E+00  0.00000000E+00  0.00000000E+00
  0.00000000E+00  0.00000000E+00  0.00000000E+00
  0.00000000E+00  0.00000000E+00  0.00000000E+00
  0.00000000E+00  0.00000000E+00  0.00000000E+00
  0.00000000E+00  0.00000000E+00  0.00000000E+00
  0.00000000E+00  0.00000000E+00  0.00000000E+00
  0.00000000E+00  0.00000000E+00  0.00000000E+00
  0.00000000E+00  0.00000000E+00  0.00000000E+00
  0.00000000E+00  0.00000000E+00  0.00000000E+00
  0.00000000E+00  0.00000000E+00  0.00000000E+00
  0.00000000E+00  0.00000000E+00  0.00000000E+00
  0.00000000E+00  0.00000000E+00  0.00000000E+00
  0.00000000E+00  0.00000000E+00  0.00000000E+00
  0.00000000E+00  0.00000000E+00  0.00000000E+00
  0.00000000E+00  0.00000000E+00  0.00000000E+00
  0.00000000E+00  0.00000000E+00  0.00000000E+00
  0.00000000E+00  0.00000000E+00  0.00000000E+00
  0.00000000E+00  0.00000000E+00  0.00000000E+00
  0.00000000E+00  0.00000000E+00  0.00000000E+00
  0.00000000E+00  0.00000000E+00  0.00000000E+00
  0.00000000E+00  0.00000000E+00  0.00000000E+00
  0.00000000E+00  0.00000000E+00  0.00000000E+00
  0.00000000E+00  0.00000000E+00  0.00000000E+00
  0.00000000E+00  0.00000000E+00  0.00000000E+00
  0.00000000E+00  0.00000000E+00  0.00000000E+00
  0.00000000E+00  0.00000000E+00  0.00000000E+00
  0.00000000E+00  0.00000000E+00  0.00000000E+00
  0.00000000E+00  0.00000000E+00  0.00000000E+00
  0.00000000E+00  0.00000000E+00  0.00000000E+00
  0.00000000E+00  0.00000000E+00  0.00000000E+00
  0.00000000E+00  0.00000000E+00  0.00000000E+00
  0.00000000E+00  0.00000000E+00  0.00000000E+00
  0.00000000E+00  0.00000000E+00  0.00000000E+00
  0.00000000E+00  0.00000000E+00  0.00000000E+00
  0.00000000E+00  0.00000000E+00  0.00000000E+00
  0.00000000E+00  0.00000000E+00  0.00000000E+00
  0.00000000E+00  0.00000000E+00  0.00000000E+00
  0.00000000E+00  0.00000000E+00  0.00000000E+00
  0.00000000E+00  0.00000000E+00  0.00000000E+00
  0.00000000E+00  0.00000000E+00  0.00000000E+00
  0.00000000E+00  0.00000000E+00  0.00000000E+00
  0.00000000E+00  0.00000000E+00  0.00000000E+00
  0.00000000E+00  0.00000000E+00  0.00000000E+00
  0.00000000E+00  0.00000000E+00  0.00000000E+00
  0.00000000E+00  0.00000000E+00  0.00000000E+00
  0.00000000E+00  0.00000000E+00  0.00000000E+00
  0.00000000E+00  0.00000000E+00  0.00000000E+00
  0.00000000E+00  0.00000000E+00  0.00000000E+00
  0.00000000E+00  0.00000000E+00  0.00000000E+00
  0.00000000E+00  0.00000000E+00  0.00000000E+00
  0.00000000E+00  0.00000000E+00  0.00000000E+00
  0.00000000E+00  0.00000000E+00  0.00000000E+00
  0.00000000E+00  0.00000000E+00  0.00000000E+00
  0.00000000E+00  0.00000000E+00  0.00000000E+00
  0.00000000E+00  0.00000000E+00  0.00000000E+00
  0.00000000E+00  0.00000000E+00  0.00000000E+00
  0.00000000E+00  0.00000000E+00  0.00000000E+00
  0.00000000E+00  0.00000000E+00  0.00000000E+00
  0.00000000E+00  0.00000000E+00  0.00000000E+00
  0.00000000E+00  0.00000000E+00  0.00000000E+00
  0.00000000E+00  0.00000000E+00  0.00000000E+00
  0.00000000E+00  0.00000000E+00  0.00000000E+00
  0.00000000E+00  0.00000000E+00  0.00000000E+00
  0.00000000E+00  0.00000000E+00  0.00000000E+00
  0.00000000E+00  0.00000000E+00  0.00000000E+00
  0.00000000E+00  0.00000000E+00  0.00000000E+00
  0.00000000E+00  0.00000000E+00  0.00000000E+00
  0.00000000E+00  0.00000000E+00  0.00000000E+00
  0.00000000E+00  0.00000000E+00  0.00000000E+00
  0.00000000E+00  0.00000000E+00  0.00000000E+00
  0.00000000E+00  0.00000000E+00  0.00000000E+00
  0.00000000E+00  0.00000000E+00  0.00000000E+00
  0.00000000E+00  0.00000000E+00  0.00000000E+00
  0.00000000E+00  0.00000000E+00  0.00000000E+00
  0.00000000E+00  0.00000000E+00  0.00000000E+00
