Generated by VASPKIT code
 1.000000
   29.1070223782737791    1.7134292337071275   16.3591574604007235
    0.0000000007797804   50.5256620089113326   19.5266353306620886
    0.0000000001621416    0.0000000002631792   32.0966216705502703
   C    H    O 
  1944  3942   189
Direct
    0.3896877901312816    0.1009450560299952    0.2186872197578993     C001
    0.3896877901312816    0.1009450560299952    0.5520205530912325     C002
    0.3896877901312816    0.1009450560299952    0.8853538864245658     C003
    0.3896877901312816    0.4342783893633286    0.2186872197578993     C004
    0.3896877901312816    0.4342783893633286    0.5520205530912325     C005
    0.3896877901312816    0.4342783893633286    0.8853538864245658     C006
    0.3896877901312816    0.7676117226966619    0.2186872197578993     C007
    0.3896877901312816    0.7676117226966619    0.5520205530912325     C008
    0.3896877901312816    0.7676117226966619    0.8853538864245658     C009
    0.7230211234646149    0.1009450560299952    0.2186872197578993     C010
    0.7230211234646149    0.1009450560299952    0.5520205530912325     C011
    0.7230211234646149    0.1009450560299952    0.8853538864245658     C012
    0.7230211234646149    0.4342783893633286    0.2186872197578993     C013
    0.7230211234646149    0.4342783893633286    0.5520205530912325     C014
    0.7230211234646149    0.4342783893633286    0.8853538864245658     C015
    0.7230211234646149    0.7676117226966619    0.2186872197578993     C016
    0.7230211234646149    0.7676117226966619    0.5520205530912325     C017
    0.7230211234646149    0.7676117226966619    0.8853538864245658     C018
    0.0563544567979482    0.1009450560299952    0.2186872197578993     C019
    0.0563544567979482    0.1009450560299952    0.5520205530912325     C020
    0.0563544567979482    0.1009450560299952    0.8853538864245658     C021
    0.0563544567979482    0.4342783893633286    0.2186872197578993     C022
    0.0563544567979482    0.4342783893633286    0.5520205530912325     C023
    0.0563544567979482    0.4342783893633286    0.8853538864245658     C024
    0.0563544567979482    0.7676117226966619    0.2186872197578993     C025
    0.0563544567979482    0.7676117226966619    0.5520205530912325     C026
    0.0563544567979482    0.7676117226966619    0.8853538864245658     C027
    0.2105419801447196    0.2359020552324003    0.2340557151053129     C028
    0.2105419801447196    0.2359020552324003    0.5673890484386462     C029
    0.2105419801447196    0.2359020552324003    0.9007223817719796     C030
    0.2105419801447196    0.5692353885657337    0.2340557151053129     C031
    0.2105419801447196    0.5692353885657337    0.5673890484386462     C032
    0.2105419801447196    0.5692353885657337    0.9007223817719796     C033
    0.2105419801447196    0.9025687218990670    0.2340557151053129     C034
    0.2105419801447196    0.9025687218990670    0.5673890484386462     C035
    0.2105419801447196    0.9025687218990670    0.9007223817719796     C036
    0.5438753134780530    0.2359020552324003    0.2340557151053129     C037
    0.5438753134780530    0.2359020552324003    0.5673890484386462     C038
    0.5438753134780530    0.2359020552324003    0.9007223817719796     C039
    0.5438753134780530    0.5692353885657337    0.2340557151053129     C040
    0.5438753134780530    0.5692353885657337    0.5673890484386462     C041
    0.5438753134780530    0.5692353885657337    0.9007223817719796     C042
    0.5438753134780530    0.9025687218990670    0.2340557151053129     C043
    0.5438753134780530    0.9025687218990670    0.5673890484386462     C044
    0.5438753134780530    0.9025687218990670    0.9007223817719796     C045
    0.8772086468113862    0.2359020552324003    0.2340557151053129     C046
    0.8772086468113862    0.2359020552324003    0.5673890484386462     C047
    0.8772086468113862    0.2359020552324003    0.9007223817719796     C048
    0.8772086468113862    0.5692353885657337    0.2340557151053129     C049
    0.8772086468113862    0.5692353885657337    0.5673890484386462     C050
    0.8772086468113862    0.5692353885657337    0.9007223817719796     C051
    0.8772086468113862    0.9025687218990670    0.2340557151053129     C052
    0.8772086468113862    0.9025687218990670    0.5673890484386462     C053
    0.8772086468113862    0.9025687218990670    0.9007223817719796     C054
    0.3746108288544914    0.2248613925913875    0.3781872348931459     C055
    0.3746108288544914    0.2248613925913875    0.7115205682264792     C056
    0.3746108288544914    0.2248613925913875    0.0448539015598125     C057
    0.3746108288544914    0.5581947259247209    0.3781872348931459     C058
    0.3746108288544914    0.5581947259247209    0.7115205682264792     C059
    0.3746108288544914    0.5581947259247209    0.0448539015598125     C060
    0.3746108288544914    0.8915280592580541    0.3781872348931459     C061
    0.3746108288544914    0.8915280592580541    0.7115205682264792     C062
    0.3746108288544914    0.8915280592580541    0.0448539015598125     C063
    0.7079441621878246    0.2248613925913875    0.3781872348931459     C064
    0.7079441621878246    0.2248613925913875    0.7115205682264792     C065
    0.7079441621878246    0.2248613925913875    0.0448539015598125     C066
    0.7079441621878246    0.5581947259247209    0.3781872348931459     C067
    0.7079441621878246    0.5581947259247209    0.7115205682264792     C068
    0.7079441621878246    0.5581947259247209    0.0448539015598125     C069
    0.7079441621878246    0.8915280592580541    0.3781872348931459     C070
    0.7079441621878246    0.8915280592580541    0.7115205682264792     C071
    0.7079441621878246    0.8915280592580541    0.0448539015598125     C072
    0.0412774955211580    0.2248613925913875    0.3781872348931459     C073
    0.0412774955211580    0.2248613925913875    0.7115205682264792     C074
    0.0412774955211580    0.2248613925913875    0.0448539015598125     C075
    0.0412774955211580    0.5581947259247209    0.3781872348931459     C076
    0.0412774955211580    0.5581947259247209    0.7115205682264792     C077
    0.0412774955211580    0.5581947259247209    0.0448539015598125     C078
    0.0412774955211580    0.8915280592580541    0.3781872348931459     C079
    0.0412774955211580    0.8915280592580541    0.7115205682264792     C080
    0.0412774955211580    0.8915280592580541    0.0448539015598125     C081
    0.1121954296074142    0.2634929378185417    0.2256406324205366     C082
    0.1121954296074142    0.2634929378185417    0.5589739657538699     C083
    0.1121954296074142    0.2634929378185417    0.8923072990872032     C084
    0.1121954296074142    0.5968262711518750    0.2256406324205366     C085
    0.1121954296074142    0.5968262711518750    0.5589739657538699     C086
    0.1121954296074142    0.5968262711518750    0.8923072990872032     C087
    0.1121954296074142    0.9301596044852084    0.2256406324205366     C088
    0.1121954296074142    0.9301596044852084    0.5589739657538699     C089
    0.1121954296074142    0.9301596044852084    0.8923072990872032     C090
    0.4455287629407476    0.2634929378185417    0.2256406324205366     C091
    0.4455287629407476    0.2634929378185417    0.5589739657538699     C092
    0.4455287629407476    0.2634929378185417    0.8923072990872032     C093
    0.4455287629407476    0.5968262711518750    0.2256406324205366     C094
    0.4455287629407476    0.5968262711518750    0.5589739657538699     C095
    0.4455287629407476    0.5968262711518750    0.8923072990872032     C096
    0.4455287629407476    0.9301596044852084    0.2256406324205366     C097
    0.4455287629407476    0.9301596044852084    0.5589739657538699     C098
    0.4455287629407476    0.9301596044852084    0.8923072990872032     C099
    0.7788620962740809    0.2634929378185417    0.2256406324205366     C100
    0.7788620962740809    0.2634929378185417    0.5589739657538699     C101
    0.7788620962740809    0.2634929378185417    0.8923072990872032     C102
    0.7788620962740809    0.5968262711518750    0.2256406324205366     C103
    0.7788620962740809    0.5968262711518750    0.5589739657538699     C104
    0.7788620962740809    0.5968262711518750    0.8923072990872032     C105
    0.7788620962740809    0.9301596044852084    0.2256406324205366     C106
    0.7788620962740809    0.9301596044852084    0.5589739657538699     C107
    0.7788620962740809    0.9301596044852084    0.8923072990872032     C108
    0.2479073025309990    0.3521555333299828    0.3153780907374679     C109
    0.2479073025309990    0.3521555333299828    0.6487114240708013     C110
    0.2479073025309990    0.3521555333299828    0.9820447574041345     C111
    0.2479073025309990    0.6854888666633161    0.3153780907374679     C112
    0.2479073025309990    0.6854888666633161    0.6487114240708013     C113
    0.2479073025309990    0.6854888666633161    0.9820447574041345     C114
    0.2479073025309990    0.0188221999966494    0.3153780907374679     C115
    0.2479073025309990    0.0188221999966494    0.6487114240708013     C116
    0.2479073025309990    0.0188221999966494    0.9820447574041345     C117
    0.5812406358643324    0.3521555333299828    0.3153780907374679     C118
    0.5812406358643324    0.3521555333299828    0.6487114240708013     C119
    0.5812406358643324    0.3521555333299828    0.9820447574041345     C120
    0.5812406358643324    0.6854888666633161    0.3153780907374679     C121
    0.5812406358643324    0.6854888666633161    0.6487114240708013     C122
    0.5812406358643324    0.6854888666633161    0.9820447574041345     C123
    0.5812406358643324    0.0188221999966494    0.3153780907374679     C124
    0.5812406358643324    0.0188221999966494    0.6487114240708013     C125
    0.5812406358643324    0.0188221999966494    0.9820447574041345     C126
    0.9145739691976656    0.3521555333299828    0.3153780907374679     C127
    0.9145739691976656    0.3521555333299828    0.6487114240708013     C128
    0.9145739691976656    0.3521555333299828    0.9820447574041345     C129
    0.9145739691976656    0.6854888666633161    0.3153780907374679     C130
    0.9145739691976656    0.6854888666633161    0.6487114240708013     C131
    0.9145739691976656    0.6854888666633161    0.9820447574041345     C132
    0.9145739691976656    0.0188221999966494    0.3153780907374679     C133
    0.9145739691976656    0.0188221999966494    0.6487114240708013     C134
    0.9145739691976656    0.0188221999966494    0.9820447574041345     C135
    0.3132121293999084    0.3131871971414227    0.2850621708924113     C136
    0.3132121293999084    0.3131871971414227    0.6183955042257446     C137
    0.3132121293999084    0.3131871971414227    0.9517288375590779     C138
    0.3132121293999084    0.6465205304747561    0.2850621708924113     C139
    0.3132121293999084    0.6465205304747561    0.6183955042257446     C140
    0.3132121293999084    0.6465205304747561    0.9517288375590779     C141
    0.3132121293999084    0.9798538638080894    0.2850621708924113     C142
    0.3132121293999084    0.9798538638080894    0.6183955042257446     C143
    0.3132121293999084    0.9798538638080894    0.9517288375590779     C144
    0.6465454627332416    0.3131871971414227    0.2850621708924113     C145
    0.6465454627332416    0.3131871971414227    0.6183955042257446     C146
    0.6465454627332416    0.3131871971414227    0.9517288375590779     C147
    0.6465454627332416    0.6465205304747561    0.2850621708924113     C148
    0.6465454627332416    0.6465205304747561    0.6183955042257446     C149
    0.6465454627332416    0.6465205304747561    0.9517288375590779     C150
    0.6465454627332416    0.9798538638080894    0.2850621708924113     C151
    0.6465454627332416    0.9798538638080894    0.6183955042257446     C152
    0.6465454627332416    0.9798538638080894    0.9517288375590779     C153
    0.9798787960665749    0.3131871971414227    0.2850621708924113     C154
    0.9798787960665749    0.3131871971414227    0.6183955042257446     C155
    0.9798787960665749    0.3131871971414227    0.9517288375590779     C156
    0.9798787960665749    0.6465205304747561    0.2850621708924113     C157
    0.9798787960665749    0.6465205304747561    0.6183955042257446     C158
    0.9798787960665749    0.6465205304747561    0.9517288375590779     C159
    0.9798787960665749    0.9798538638080894    0.2850621708924113     C160
    0.9798787960665749    0.9798538638080894    0.6183955042257446     C161
    0.9798787960665749    0.9798538638080894    0.9517288375590779     C162
    0.3698423516668619    0.1624383126327554    0.2361236312502321     C163
    0.3698423516668619    0.1624383126327554    0.5694569645835654     C164
    0.3698423516668619    0.1624383126327554    0.9027902979168987     C165
    0.3698423516668619    0.4957716459660887    0.2361236312502321     C166
    0.3698423516668619    0.4957716459660887    0.5694569645835654     C167
    0.3698423516668619    0.4957716459660887    0.9027902979168987     C168
    0.3698423516668619    0.8291049792994221    0.2361236312502321     C169
    0.3698423516668619    0.8291049792994221    0.5694569645835654     C170
    0.3698423516668619    0.8291049792994221    0.9027902979168987     C171
    0.7031756850001951    0.1624383126327554    0.2361236312502321     C172
    0.7031756850001951    0.1624383126327554    0.5694569645835654     C173
    0.7031756850001951    0.1624383126327554    0.9027902979168987     C174
    0.7031756850001951    0.4957716459660887    0.2361236312502321     C175
    0.7031756850001951    0.4957716459660887    0.5694569645835654     C176
    0.7031756850001951    0.4957716459660887    0.9027902979168987     C177
    0.7031756850001951    0.8291049792994221    0.2361236312502321     C178
    0.7031756850001951    0.8291049792994221    0.5694569645835654     C179
    0.7031756850001951    0.8291049792994221    0.9027902979168987     C180
    0.0365090183335284    0.1624383126327554    0.2361236312502321     C181
    0.0365090183335284    0.1624383126327554    0.5694569645835654     C182
    0.0365090183335284    0.1624383126327554    0.9027902979168987     C183
    0.0365090183335284    0.4957716459660887    0.2361236312502321     C184
    0.0365090183335284    0.4957716459660887    0.5694569645835654     C185
    0.0365090183335284    0.4957716459660887    0.9027902979168987     C186
    0.0365090183335284    0.8291049792994221    0.2361236312502321     C187
    0.0365090183335284    0.8291049792994221    0.5694569645835654     C188
    0.0365090183335284    0.8291049792994221    0.9027902979168987     C189
    0.1361233650376791    0.4303521650303109    0.2526914780209476     C190
    0.1361233650376791    0.4303521650303109    0.5860248113542810     C191
    0.1361233650376791    0.4303521650303109    0.9193581446876142     C192
    0.1361233650376791    0.7636854983636443    0.2526914780209476     C193
    0.1361233650376791    0.7636854983636443    0.5860248113542810     C194
    0.1361233650376791    0.7636854983636443    0.9193581446876142     C195
    0.1361233650376791    0.0970188316969776    0.2526914780209476     C196
    0.1361233650376791    0.0970188316969776    0.5860248113542810     C197
    0.1361233650376791    0.0970188316969776    0.9193581446876142     C198
    0.4694566983710124    0.4303521650303109    0.2526914780209476     C199
    0.4694566983710124    0.4303521650303109    0.5860248113542810     C200
    0.4694566983710124    0.4303521650303109    0.9193581446876142     C201
    0.4694566983710124    0.7636854983636443    0.2526914780209476     C202
    0.4694566983710124    0.7636854983636443    0.5860248113542810     C203
    0.4694566983710124    0.7636854983636443    0.9193581446876142     C204
    0.4694566983710124    0.0970188316969776    0.2526914780209476     C205
    0.4694566983710124    0.0970188316969776    0.5860248113542810     C206
    0.4694566983710124    0.0970188316969776    0.9193581446876142     C207
    0.8027900317043457    0.4303521650303109    0.2526914780209476     C208
    0.8027900317043457    0.4303521650303109    0.5860248113542810     C209
    0.8027900317043457    0.4303521650303109    0.9193581446876142     C210
    0.8027900317043457    0.7636854983636443    0.2526914780209476     C211
    0.8027900317043457    0.7636854983636443    0.5860248113542810     C212
    0.8027900317043457    0.7636854983636443    0.9193581446876142     C213
    0.8027900317043457    0.0970188316969776    0.2526914780209476     C214
    0.8027900317043457    0.0970188316969776    0.5860248113542810     C215
    0.8027900317043457    0.0970188316969776    0.9193581446876142     C216
    0.4362884886805152    0.1925183017357484    0.1668242819178438     C217
    0.4362884886805152    0.1925183017357484    0.5001576152511772     C218
    0.4362884886805152    0.1925183017357484    0.8334909485845106     C219
    0.4362884886805152    0.5258516350690816    0.1668242819178438     C220
    0.4362884886805152    0.5258516350690816    0.5001576152511772     C221
    0.4362884886805152    0.5258516350690816    0.8334909485845106     C222
    0.4362884886805152    0.8591849684024150    0.1668242819178438     C223
    0.4362884886805152    0.8591849684024150    0.5001576152511772     C224
    0.4362884886805152    0.8591849684024150    0.8334909485845106     C225
    0.7696218220138485    0.1925183017357484    0.1668242819178438     C226
    0.7696218220138485    0.1925183017357484    0.5001576152511772     C227
    0.7696218220138485    0.1925183017357484    0.8334909485845106     C228
    0.7696218220138485    0.5258516350690816    0.1668242819178438     C229
    0.7696218220138485    0.5258516350690816    0.5001576152511772     C230
    0.7696218220138485    0.5258516350690816    0.8334909485845106     C231
    0.7696218220138485    0.8591849684024150    0.1668242819178438     C232
    0.7696218220138485    0.8591849684024150    0.5001576152511772     C233
    0.7696218220138485    0.8591849684024150    0.8334909485845106     C234
    0.1029551553471818    0.1925183017357484    0.1668242819178438     C235
    0.1029551553471818    0.1925183017357484    0.5001576152511772     C236
    0.1029551553471818    0.1925183017357484    0.8334909485845106     C237
    0.1029551553471818    0.5258516350690816    0.1668242819178438     C238
    0.1029551553471818    0.5258516350690816    0.5001576152511772     C239
    0.1029551553471818    0.5258516350690816    0.8334909485845106     C240
    0.1029551553471818    0.8591849684024150    0.1668242819178438     C241
    0.1029551553471818    0.8591849684024150    0.5001576152511772     C242
    0.1029551553471818    0.8591849684024150    0.8334909485845106     C243
    0.3670469401155342    0.2334631728855817    0.1674750789972037     C244
    0.3670469401155342    0.2334631728855817    0.5008084123305370     C245
    0.3670469401155342    0.2334631728855817    0.8341417456638702     C246
    0.3670469401155342    0.5667965062189151    0.1674750789972037     C247
    0.3670469401155342    0.5667965062189151    0.5008084123305370     C248
    0.3670469401155342    0.5667965062189151    0.8341417456638702     C249
    0.3670469401155342    0.9001298395522483    0.1674750789972037     C250
    0.3670469401155342    0.9001298395522483    0.5008084123305370     C251
    0.3670469401155342    0.9001298395522483    0.8341417456638702     C252
    0.7003802734488676    0.2334631728855817    0.1674750789972037     C253
    0.7003802734488676    0.2334631728855817    0.5008084123305370     C254
    0.7003802734488676    0.2334631728855817    0.8341417456638702     C255
    0.7003802734488676    0.5667965062189151    0.1674750789972037     C256
    0.7003802734488676    0.5667965062189151    0.5008084123305370     C257
    0.7003802734488676    0.5667965062189151    0.8341417456638702     C258
    0.7003802734488676    0.9001298395522483    0.1674750789972037     C259
    0.7003802734488676    0.9001298395522483    0.5008084123305370     C260
    0.7003802734488676    0.9001298395522483    0.8341417456638702     C261
    0.0337136067822008    0.2334631728855817    0.1674750789972037     C262
    0.0337136067822008    0.2334631728855817    0.5008084123305370     C263
    0.0337136067822008    0.2334631728855817    0.8341417456638702     C264
    0.0337136067822008    0.5667965062189151    0.1674750789972037     C265
    0.0337136067822008    0.5667965062189151    0.5008084123305370     C266
    0.0337136067822008    0.5667965062189151    0.8341417456638702     C267
    0.0337136067822008    0.9001298395522483    0.1674750789972037     C268
    0.0337136067822008    0.9001298395522483    0.5008084123305370     C269
    0.0337136067822008    0.9001298395522483    0.8341417456638702     C270
    0.4079162119369292    0.0704584759054858    0.1317330636545526     C271
    0.4079162119369292    0.0704584759054858    0.4650663969878859     C272
    0.4079162119369292    0.0704584759054858    0.7983997303212191     C273
    0.4079162119369292    0.4037918092388191    0.1317330636545526     C274
    0.4079162119369292    0.4037918092388191    0.4650663969878859     C275
    0.4079162119369292    0.4037918092388191    0.7983997303212191     C276
    0.4079162119369292    0.7371251425721523    0.1317330636545526     C277
    0.4079162119369292    0.7371251425721523    0.4650663969878859     C278
    0.4079162119369292    0.7371251425721523    0.7983997303212191     C279
    0.7412495452702625    0.0704584759054858    0.1317330636545526     C280
    0.7412495452702625    0.0704584759054858    0.4650663969878859     C281
    0.7412495452702625    0.0704584759054858    0.7983997303212191     C282
    0.7412495452702625    0.4037918092388191    0.1317330636545526     C283
    0.7412495452702625    0.4037918092388191    0.4650663969878859     C284
    0.7412495452702625    0.4037918092388191    0.7983997303212191     C285
    0.7412495452702625    0.7371251425721523    0.1317330636545526     C286
    0.7412495452702625    0.7371251425721523    0.4650663969878859     C287
    0.7412495452702625    0.7371251425721523    0.7983997303212191     C288
    0.0745828786035958    0.0704584759054858    0.1317330636545526     C289
    0.0745828786035958    0.0704584759054858    0.4650663969878859     C290
    0.0745828786035958    0.0704584759054858    0.7983997303212191     C291
    0.0745828786035958    0.4037918092388191    0.1317330636545526     C292
    0.0745828786035958    0.4037918092388191    0.4650663969878859     C293
    0.0745828786035958    0.4037918092388191    0.7983997303212191     C294
    0.0745828786035958    0.7371251425721523    0.1317330636545526     C295
    0.0745828786035958    0.7371251425721523    0.4650663969878859     C296
    0.0745828786035958    0.7371251425721523    0.7983997303212191     C297
    0.4203163619962436    0.3345681773398129    0.9713117483126827     C298
    0.4203163619962436    0.3345681773398129    0.3046450816460160     C299
    0.4203163619962436    0.3345681773398129    0.6379784149793493     C300
    0.4203163619962436    0.6679015106731463    0.9713117483126827     C301
    0.4203163619962436    0.6679015106731463    0.3046450816460160     C302
    0.4203163619962436    0.6679015106731463    0.6379784149793493     C303
    0.4203163619962436    0.0012348440064796    0.9713117483126827     C304
    0.4203163619962436    0.0012348440064796    0.3046450816460160     C305
    0.4203163619962436    0.0012348440064796    0.6379784149793493     C306
    0.7536496953295768    0.3345681773398129    0.9713117483126827     C307
    0.7536496953295768    0.3345681773398129    0.3046450816460160     C308
    0.7536496953295768    0.3345681773398129    0.6379784149793493     C309
    0.7536496953295768    0.6679015106731463    0.9713117483126827     C310
    0.7536496953295768    0.6679015106731463    0.3046450816460160     C311
    0.7536496953295768    0.6679015106731463    0.6379784149793493     C312
    0.7536496953295768    0.0012348440064796    0.9713117483126827     C313
    0.7536496953295768    0.0012348440064796    0.3046450816460160     C314
    0.7536496953295768    0.0012348440064796    0.6379784149793493     C315
    0.0869830286629101    0.3345681773398129    0.9713117483126827     C316
    0.0869830286629101    0.3345681773398129    0.3046450816460160     C317
    0.0869830286629101    0.3345681773398129    0.6379784149793493     C318
    0.0869830286629101    0.6679015106731463    0.9713117483126827     C319
    0.0869830286629101    0.6679015106731463    0.3046450816460160     C320
    0.0869830286629101    0.6679015106731463    0.6379784149793493     C321
    0.0869830286629101    0.0012348440064796    0.9713117483126827     C322
    0.0869830286629101    0.0012348440064796    0.3046450816460160     C323
    0.0869830286629101    0.0012348440064796    0.6379784149793493     C324
    0.1257566030125981    0.3502520581714756    0.9165724779149529     C325
    0.1257566030125981    0.3502520581714756    0.2499058112482861     C326
    0.1257566030125981    0.3502520581714756    0.5832391445816194     C327
    0.1257566030125981    0.6835853915048089    0.9165724779149529     C328
    0.1257566030125981    0.6835853915048089    0.2499058112482861     C329
    0.1257566030125981    0.6835853915048089    0.5832391445816194     C330
    0.1257566030125981    0.0169187248381422    0.9165724779149529     C331
    0.1257566030125981    0.0169187248381422    0.2499058112482861     C332
    0.1257566030125981    0.0169187248381422    0.5832391445816194     C333
    0.4590899363459314    0.3502520581714756    0.9165724779149529     C334
    0.4590899363459314    0.3502520581714756    0.2499058112482861     C335
    0.4590899363459314    0.3502520581714756    0.5832391445816194     C336
    0.4590899363459314    0.6835853915048089    0.9165724779149529     C337
    0.4590899363459314    0.6835853915048089    0.2499058112482861     C338
    0.4590899363459314    0.6835853915048089    0.5832391445816194     C339
    0.4590899363459314    0.0169187248381422    0.9165724779149529     C340
    0.4590899363459314    0.0169187248381422    0.2499058112482861     C341
    0.4590899363459314    0.0169187248381422    0.5832391445816194     C342
    0.7924232696792648    0.3502520581714756    0.9165724779149529     C343
    0.7924232696792648    0.3502520581714756    0.2499058112482861     C344
    0.7924232696792648    0.3502520581714756    0.5832391445816194     C345
    0.7924232696792648    0.6835853915048089    0.9165724779149529     C346
    0.7924232696792648    0.6835853915048089    0.2499058112482861     C347
    0.7924232696792648    0.6835853915048089    0.5832391445816194     C348
    0.7924232696792648    0.0169187248381422    0.9165724779149529     C349
    0.7924232696792648    0.0169187248381422    0.2499058112482861     C350
    0.7924232696792648    0.0169187248381422    0.5832391445816194     C351
    0.4064366948294025    0.4602694792118611    0.3827977547621049     C352
    0.4064366948294025    0.4602694792118611    0.7161310880954381     C353
    0.4064366948294025    0.4602694792118611    0.0494644214287715     C354
    0.4064366948294025    0.7936028125451944    0.3827977547621049     C355
    0.4064366948294025    0.7936028125451944    0.7161310880954381     C356
    0.4064366948294025    0.7936028125451944    0.0494644214287715     C357
    0.4064366948294025    0.1269361458785277    0.3827977547621049     C358
    0.4064366948294025    0.1269361458785277    0.7161310880954381     C359
    0.4064366948294025    0.1269361458785277    0.0494644214287715     C360
    0.7397700281627357    0.4602694792118611    0.3827977547621049     C361
    0.7397700281627357    0.4602694792118611    0.7161310880954381     C362
    0.7397700281627357    0.4602694792118611    0.0494644214287715     C363
    0.7397700281627357    0.7936028125451944    0.3827977547621049     C364
    0.7397700281627357    0.7936028125451944    0.7161310880954381     C365
    0.7397700281627357    0.7936028125451944    0.0494644214287715     C366
    0.7397700281627357    0.1269361458785277    0.3827977547621049     C367
    0.7397700281627357    0.1269361458785277    0.7161310880954381     C368
    0.7397700281627357    0.1269361458785277    0.0494644214287715     C369
    0.0731033614960691    0.4602694792118611    0.3827977547621049     C370
    0.0731033614960691    0.4602694792118611    0.7161310880954381     C371
    0.0731033614960691    0.4602694792118611    0.0494644214287715     C372
    0.0731033614960691    0.7936028125451944    0.3827977547621049     C373
    0.0731033614960691    0.7936028125451944    0.7161310880954381     C374
    0.0731033614960691    0.7936028125451944    0.0494644214287715     C375
    0.0731033614960691    0.1269361458785277    0.3827977547621049     C376
    0.0731033614960691    0.1269361458785277    0.7161310880954381     C377
    0.0731033614960691    0.1269361458785277    0.0494644214287715     C378
    0.3822814045246459    0.1859044872014060    0.1898754563229019     C379
    0.3822814045246459    0.1859044872014060    0.5232087896562353     C380
    0.3822814045246459    0.1859044872014060    0.8565421229895686     C381
    0.3822814045246459    0.5192378205347392    0.1898754563229019     C382
    0.3822814045246459    0.5192378205347392    0.5232087896562353     C383
    0.3822814045246459    0.5192378205347392    0.8565421229895686     C384
    0.3822814045246459    0.8525711538680726    0.1898754563229019     C385
    0.3822814045246459    0.8525711538680726    0.5232087896562353     C386
    0.3822814045246459    0.8525711538680726    0.8565421229895686     C387
    0.7156147378579791    0.1859044872014060    0.1898754563229019     C388
    0.7156147378579791    0.1859044872014060    0.5232087896562353     C389
    0.7156147378579791    0.1859044872014060    0.8565421229895686     C390
    0.7156147378579791    0.5192378205347392    0.1898754563229019     C391
    0.7156147378579791    0.5192378205347392    0.5232087896562353     C392
    0.7156147378579791    0.5192378205347392    0.8565421229895686     C393
    0.7156147378579791    0.8525711538680726    0.1898754563229019     C394
    0.7156147378579791    0.8525711538680726    0.5232087896562353     C395
    0.7156147378579791    0.8525711538680726    0.8565421229895686     C396
    0.0489480711913125    0.1859044872014060    0.1898754563229019     C397
    0.0489480711913125    0.1859044872014060    0.5232087896562353     C398
    0.0489480711913125    0.1859044872014060    0.8565421229895686     C399
    0.0489480711913125    0.5192378205347392    0.1898754563229019     C400
    0.0489480711913125    0.5192378205347392    0.5232087896562353     C401
    0.0489480711913125    0.5192378205347392    0.8565421229895686     C402
    0.0489480711913125    0.8525711538680726    0.1898754563229019     C403
    0.0489480711913125    0.8525711538680726    0.5232087896562353     C404
    0.0489480711913125    0.8525711538680726    0.8565421229895686     C405
    0.3073462488615399    0.2352483269518263    0.1331929002553744     C406
    0.3073462488615399    0.2352483269518263    0.4665262335887079     C407
    0.3073462488615399    0.2352483269518263    0.7998595669220412     C408
    0.3073462488615399    0.5685816602851597    0.1331929002553744     C409
    0.3073462488615399    0.5685816602851597    0.4665262335887079     C410
    0.3073462488615399    0.5685816602851597    0.7998595669220412     C411
    0.3073462488615399    0.9019149936184929    0.1331929002553744     C412
    0.3073462488615399    0.9019149936184929    0.4665262335887079     C413
    0.3073462488615399    0.9019149936184929    0.7998595669220412     C414
    0.6406795821948732    0.2352483269518263    0.1331929002553744     C415
    0.6406795821948732    0.2352483269518263    0.4665262335887079     C416
    0.6406795821948732    0.2352483269518263    0.7998595669220412     C417
    0.6406795821948732    0.5685816602851597    0.1331929002553744     C418
    0.6406795821948732    0.5685816602851597    0.4665262335887079     C419
    0.6406795821948732    0.5685816602851597    0.7998595669220412     C420
    0.6406795821948732    0.9019149936184929    0.1331929002553744     C421
    0.6406795821948732    0.9019149936184929    0.4665262335887079     C422
    0.6406795821948732    0.9019149936184929    0.7998595669220412     C423
    0.9740129155282065    0.2352483269518263    0.1331929002553744     C424
    0.9740129155282065    0.2352483269518263    0.4665262335887079     C425
    0.9740129155282065    0.2352483269518263    0.7998595669220412     C426
    0.9740129155282065    0.5685816602851597    0.1331929002553744     C427
    0.9740129155282065    0.5685816602851597    0.4665262335887079     C428
    0.9740129155282065    0.5685816602851597    0.7998595669220412     C429
    0.9740129155282065    0.9019149936184929    0.1331929002553744     C430
    0.9740129155282065    0.9019149936184929    0.4665262335887079     C431
    0.9740129155282065    0.9019149936184929    0.7998595669220412     C432
    0.3892140397684015    0.4415074720721275    0.3311140700658679     C433
    0.3892140397684015    0.4415074720721275    0.6644474033992012     C434
    0.3892140397684015    0.4415074720721275    0.9977807367325344     C435
    0.3892140397684015    0.7748408054054607    0.3311140700658679     C436
    0.3892140397684015    0.7748408054054607    0.6644474033992012     C437
    0.3892140397684015    0.7748408054054607    0.9977807367325344     C438
    0.3892140397684015    0.1081741387387941    0.3311140700658679     C439
    0.3892140397684015    0.1081741387387941    0.6644474033992012     C440
    0.3892140397684015    0.1081741387387941    0.9977807367325344     C441
    0.7225473731017349    0.4415074720721275    0.3311140700658679     C442
    0.7225473731017349    0.4415074720721275    0.6644474033992012     C443
    0.7225473731017349    0.4415074720721275    0.9977807367325344     C444
    0.7225473731017349    0.7748408054054607    0.3311140700658679     C445
    0.7225473731017349    0.7748408054054607    0.6644474033992012     C446
    0.7225473731017349    0.7748408054054607    0.9977807367325344     C447
    0.7225473731017349    0.1081741387387941    0.3311140700658679     C448
    0.7225473731017349    0.1081741387387941    0.6644474033992012     C449
    0.7225473731017349    0.1081741387387941    0.9977807367325344     C450
    0.0558807064350682    0.4415074720721275    0.3311140700658679     C451
    0.0558807064350682    0.4415074720721275    0.6644474033992012     C452
    0.0558807064350682    0.4415074720721275    0.9977807367325344     C453
    0.0558807064350682    0.7748408054054607    0.3311140700658679     C454
    0.0558807064350682    0.7748408054054607    0.6644474033992012     C455
    0.0558807064350682    0.7748408054054607    0.9977807367325344     C456
    0.0558807064350682    0.1081741387387941    0.3311140700658679     C457
    0.0558807064350682    0.1081741387387941    0.6644474033992012     C458
    0.0558807064350682    0.1081741387387941    0.9977807367325344     C459
    0.5450778505725657    0.2052735013001472    0.0463999560375403     C460
    0.5450778505725657    0.2052735013001472    0.3797332893708736     C461
    0.5450778505725657    0.2052735013001472    0.7130666227042070     C462
    0.5450778505725657    0.5386068346334807    0.0463999560375403     C463
    0.5450778505725657    0.5386068346334807    0.3797332893708736     C464
    0.5450778505725657    0.5386068346334807    0.7130666227042070     C465
    0.5450778505725657    0.8719401679668140    0.0463999560375403     C466
    0.5450778505725657    0.8719401679668140    0.3797332893708736     C467
    0.5450778505725657    0.8719401679668140    0.7130666227042070     C468
    0.8784111839058990    0.2052735013001472    0.0463999560375403     C469
    0.8784111839058990    0.2052735013001472    0.3797332893708736     C470
    0.8784111839058990    0.2052735013001472    0.7130666227042070     C471
    0.8784111839058990    0.5386068346334807    0.0463999560375403     C472
    0.8784111839058990    0.5386068346334807    0.3797332893708736     C473
    0.8784111839058990    0.5386068346334807    0.7130666227042070     C474
    0.8784111839058990    0.8719401679668140    0.0463999560375403     C475
    0.8784111839058990    0.8719401679668140    0.3797332893708736     C476
    0.8784111839058990    0.8719401679668140    0.7130666227042070     C477
    0.2117445172392323    0.2052735013001472    0.0463999560375403     C478
    0.2117445172392323    0.2052735013001472    0.3797332893708736     C479
    0.2117445172392323    0.2052735013001472    0.7130666227042070     C480
    0.2117445172392323    0.5386068346334807    0.0463999560375403     C481
    0.2117445172392323    0.5386068346334807    0.3797332893708736     C482
    0.2117445172392323    0.5386068346334807    0.7130666227042070     C483
    0.2117445172392323    0.8719401679668140    0.0463999560375403     C484
    0.2117445172392323    0.8719401679668140    0.3797332893708736     C485
    0.2117445172392323    0.8719401679668140    0.7130666227042070     C486
    0.4826030452994693    0.1284182105876480    0.1443732381219245     C487
    0.4826030452994693    0.1284182105876480    0.4777065714552577     C488
    0.4826030452994693    0.1284182105876480    0.8110399047885911     C489
    0.4826030452994693    0.4617515439209813    0.1443732381219245     C490
    0.4826030452994693    0.4617515439209813    0.4777065714552577     C491
    0.4826030452994693    0.4617515439209813    0.8110399047885911     C492
    0.4826030452994693    0.7950848772543146    0.1443732381219245     C493
    0.4826030452994693    0.7950848772543146    0.4777065714552577     C494
    0.4826030452994693    0.7950848772543146    0.8110399047885911     C495
    0.8159363786328027    0.1284182105876480    0.1443732381219245     C496
    0.8159363786328027    0.1284182105876480    0.4777065714552577     C497
    0.8159363786328027    0.1284182105876480    0.8110399047885911     C498
    0.8159363786328027    0.4617515439209813    0.1443732381219245     C499
    0.8159363786328027    0.4617515439209813    0.4777065714552577     C500
    0.8159363786328027    0.4617515439209813    0.8110399047885911     C501
    0.8159363786328027    0.7950848772543146    0.1443732381219245     C502
    0.8159363786328027    0.7950848772543146    0.4777065714552577     C503
    0.8159363786328027    0.7950848772543146    0.8110399047885911     C504
    0.1492697119661359    0.1284182105876480    0.1443732381219245     C505
    0.1492697119661359    0.1284182105876480    0.4777065714552577     C506
    0.1492697119661359    0.1284182105876480    0.8110399047885911     C507
    0.1492697119661359    0.4617515439209813    0.1443732381219245     C508
    0.1492697119661359    0.4617515439209813    0.4777065714552577     C509
    0.1492697119661359    0.4617515439209813    0.8110399047885911     C510
    0.1492697119661359    0.7950848772543146    0.1443732381219245     C511
    0.1492697119661359    0.7950848772543146    0.4777065714552577     C512
    0.1492697119661359    0.7950848772543146    0.8110399047885911     C513
    0.3291025832436486    0.2501980216938889    0.1488477545789442     C514
    0.3291025832436486    0.2501980216938889    0.4821810879122775     C515
    0.3291025832436486    0.2501980216938889    0.8155144212456109     C516
    0.3291025832436486    0.5835313550272223    0.1488477545789442     C517
    0.3291025832436486    0.5835313550272223    0.4821810879122775     C518
    0.3291025832436486    0.5835313550272223    0.8155144212456109     C519
    0.3291025832436486    0.9168646883605556    0.1488477545789442     C520
    0.3291025832436486    0.9168646883605556    0.4821810879122775     C521
    0.3291025832436486    0.9168646883605556    0.8155144212456109     C522
    0.6624359165769820    0.2501980216938889    0.1488477545789442     C523
    0.6624359165769820    0.2501980216938889    0.4821810879122775     C524
    0.6624359165769820    0.2501980216938889    0.8155144212456109     C525
    0.6624359165769820    0.5835313550272223    0.1488477545789442     C526
    0.6624359165769820    0.5835313550272223    0.4821810879122775     C527
    0.6624359165769820    0.5835313550272223    0.8155144212456109     C528
    0.6624359165769820    0.9168646883605556    0.1488477545789442     C529
    0.6624359165769820    0.9168646883605556    0.4821810879122775     C530
    0.6624359165769820    0.9168646883605556    0.8155144212456109     C531
    0.9957692499103152    0.2501980216938889    0.1488477545789442     C532
    0.9957692499103152    0.2501980216938889    0.4821810879122775     C533
    0.9957692499103152    0.2501980216938889    0.8155144212456109     C534
    0.9957692499103152    0.5835313550272223    0.1488477545789442     C535
    0.9957692499103152    0.5835313550272223    0.4821810879122775     C536
    0.9957692499103152    0.5835313550272223    0.8155144212456109     C537
    0.9957692499103152    0.9168646883605556    0.1488477545789442     C538
    0.9957692499103152    0.9168646883605556    0.4821810879122775     C539
    0.9957692499103152    0.9168646883605556    0.8155144212456109     C540
    0.4365034562707135    0.2764628614753557    0.0535797408679825     C541
    0.4365034562707135    0.2764628614753557    0.3869130742013158     C542
    0.4365034562707135    0.2764628614753557    0.7202464075346492     C543
    0.4365034562707135    0.6097961948086890    0.0535797408679825     C544
    0.4365034562707135    0.6097961948086890    0.3869130742013158     C545
    0.4365034562707135    0.6097961948086890    0.7202464075346492     C546
    0.4365034562707135    0.9431295281420223    0.0535797408679825     C547
    0.4365034562707135    0.9431295281420223    0.3869130742013158     C548
    0.4365034562707135    0.9431295281420223    0.7202464075346492     C549
    0.7698367896040468    0.2764628614753557    0.0535797408679825     C550
    0.7698367896040468    0.2764628614753557    0.3869130742013158     C551
    0.7698367896040468    0.2764628614753557    0.7202464075346492     C552
    0.7698367896040468    0.6097961948086890    0.0535797408679825     C553
    0.7698367896040468    0.6097961948086890    0.3869130742013158     C554
    0.7698367896040468    0.6097961948086890    0.7202464075346492     C555
    0.7698367896040468    0.9431295281420223    0.0535797408679825     C556
    0.7698367896040468    0.9431295281420223    0.3869130742013158     C557
    0.7698367896040468    0.9431295281420223    0.7202464075346492     C558
    0.1031701229373801    0.2764628614753557    0.0535797408679825     C559
    0.1031701229373801    0.2764628614753557    0.3869130742013158     C560
    0.1031701229373801    0.2764628614753557    0.7202464075346492     C561
    0.1031701229373801    0.6097961948086890    0.0535797408679825     C562
    0.1031701229373801    0.6097961948086890    0.3869130742013158     C563
    0.1031701229373801    0.6097961948086890    0.7202464075346492     C564
    0.1031701229373801    0.9431295281420223    0.0535797408679825     C565
    0.1031701229373801    0.9431295281420223    0.3869130742013158     C566
    0.1031701229373801    0.9431295281420223    0.7202464075346492     C567
    0.1907141178639085    0.1777304852696959    0.2504258822664946     C568
    0.1907141178639085    0.1777304852696959    0.5837592155998279     C569
    0.1907141178639085    0.1777304852696959    0.9170925489331613     C570
    0.1907141178639085    0.5110638186030294    0.2504258822664946     C571
    0.1907141178639085    0.5110638186030294    0.5837592155998279     C572
    0.1907141178639085    0.5110638186030294    0.9170925489331613     C573
    0.1907141178639085    0.8443971519363627    0.2504258822664946     C574
    0.1907141178639085    0.8443971519363627    0.5837592155998279     C575
    0.1907141178639085    0.8443971519363627    0.9170925489331613     C576
    0.5240474511972417    0.1777304852696959    0.2504258822664946     C577
    0.5240474511972417    0.1777304852696959    0.5837592155998279     C578
    0.5240474511972417    0.1777304852696959    0.9170925489331613     C579
    0.5240474511972417    0.5110638186030294    0.2504258822664946     C580
    0.5240474511972417    0.5110638186030294    0.5837592155998279     C581
    0.5240474511972417    0.5110638186030294    0.9170925489331613     C582
    0.5240474511972417    0.8443971519363627    0.2504258822664946     C583
    0.5240474511972417    0.8443971519363627    0.5837592155998279     C584
    0.5240474511972417    0.8443971519363627    0.9170925489331613     C585
    0.8573807845305750    0.1777304852696959    0.2504258822664946     C586
    0.8573807845305750    0.1777304852696959    0.5837592155998279     C587
    0.8573807845305750    0.1777304852696959    0.9170925489331613     C588
    0.8573807845305750    0.5110638186030294    0.2504258822664946     C589
    0.8573807845305750    0.5110638186030294    0.5837592155998279     C590
    0.8573807845305750    0.5110638186030294    0.9170925489331613     C591
    0.8573807845305750    0.8443971519363627    0.2504258822664946     C592
    0.8573807845305750    0.8443971519363627    0.5837592155998279     C593
    0.8573807845305750    0.8443971519363627    0.9170925489331613     C594
    0.1913365237063982    0.2636406798659493    0.2353895602521451     C595
    0.1913365237063982    0.2636406798659493    0.5687228935854785     C596
    0.1913365237063982    0.2636406798659493    0.9020562269188117     C597
    0.1913365237063982    0.5969740131992827    0.2353895602521451     C598
    0.1913365237063982    0.5969740131992827    0.5687228935854785     C599
    0.1913365237063982    0.5969740131992827    0.9020562269188117     C600
    0.1913365237063982    0.9303073465326159    0.2353895602521451     C601
    0.1913365237063982    0.9303073465326159    0.5687228935854785     C602
    0.1913365237063982    0.9303073465326159    0.9020562269188117     C603
    0.5246698570397315    0.2636406798659493    0.2353895602521451     C604
    0.5246698570397315    0.2636406798659493    0.5687228935854785     C605
    0.5246698570397315    0.2636406798659493    0.9020562269188117     C606
    0.5246698570397315    0.5969740131992827    0.2353895602521451     C607
    0.5246698570397315    0.5969740131992827    0.5687228935854785     C608
    0.5246698570397315    0.5969740131992827    0.9020562269188117     C609
    0.5246698570397315    0.9303073465326159    0.2353895602521451     C610
    0.5246698570397315    0.9303073465326159    0.5687228935854785     C611
    0.5246698570397315    0.9303073465326159    0.9020562269188117     C612
    0.8580031903730648    0.2636406798659493    0.2353895602521451     C613
    0.8580031903730648    0.2636406798659493    0.5687228935854785     C614
    0.8580031903730648    0.2636406798659493    0.9020562269188117     C615
    0.8580031903730648    0.5969740131992827    0.2353895602521451     C616
    0.8580031903730648    0.5969740131992827    0.5687228935854785     C617
    0.8580031903730648    0.5969740131992827    0.9020562269188117     C618
    0.8580031903730648    0.9303073465326159    0.2353895602521451     C619
    0.8580031903730648    0.9303073465326159    0.5687228935854785     C620
    0.8580031903730648    0.9303073465326159    0.9020562269188117     C621
    0.3223732894975864    0.2991581601280802    0.2128639800763551     C622
    0.3223732894975864    0.2991581601280802    0.5461973134096885     C623
    0.3223732894975864    0.2991581601280802    0.8795306467430217     C624
    0.3223732894975864    0.6324914934614134    0.2128639800763551     C625
    0.3223732894975864    0.6324914934614134    0.5461973134096885     C626
    0.3223732894975864    0.6324914934614134    0.8795306467430217     C627
    0.3223732894975864    0.9658248267947468    0.2128639800763551     C628
    0.3223732894975864    0.9658248267947468    0.5461973134096885     C629
    0.3223732894975864    0.9658248267947468    0.8795306467430217     C630
    0.6557066228309196    0.2991581601280802    0.2128639800763551     C631
    0.6557066228309196    0.2991581601280802    0.5461973134096885     C632
    0.6557066228309196    0.2991581601280802    0.8795306467430217     C633
    0.6557066228309196    0.6324914934614134    0.2128639800763551     C634
    0.6557066228309196    0.6324914934614134    0.5461973134096885     C635
    0.6557066228309196    0.6324914934614134    0.8795306467430217     C636
    0.6557066228309196    0.9658248267947468    0.2128639800763551     C637
    0.6557066228309196    0.9658248267947468    0.5461973134096885     C638
    0.6557066228309196    0.9658248267947468    0.8795306467430217     C639
    0.9890399561642530    0.2991581601280802    0.2128639800763551     C640
    0.9890399561642530    0.2991581601280802    0.5461973134096885     C641
    0.9890399561642530    0.2991581601280802    0.8795306467430217     C642
    0.9890399561642530    0.6324914934614134    0.2128639800763551     C643
    0.9890399561642530    0.6324914934614134    0.5461973134096885     C644
    0.9890399561642530    0.6324914934614134    0.8795306467430217     C645
    0.9890399561642530    0.9658248267947468    0.2128639800763551     C646
    0.9890399561642530    0.9658248267947468    0.5461973134096885     C647
    0.9890399561642530    0.9658248267947468    0.8795306467430217     C648
    0.4063015515365771    0.1317061405503467    0.3327240517232979     C649
    0.4063015515365771    0.1317061405503467    0.6660573850566313     C650
    0.4063015515365771    0.1317061405503467    0.9993907183899646     C651
    0.4063015515365771    0.4650394738836801    0.3327240517232979     C652
    0.4063015515365771    0.4650394738836801    0.6660573850566313     C653
    0.4063015515365771    0.4650394738836801    0.9993907183899646     C654
    0.4063015515365771    0.7983728072170134    0.3327240517232979     C655
    0.4063015515365771    0.7983728072170134    0.6660573850566313     C656
    0.4063015515365771    0.7983728072170134    0.9993907183899646     C657
    0.7396348848699104    0.1317061405503467    0.3327240517232979     C658
    0.7396348848699104    0.1317061405503467    0.6660573850566313     C659
    0.7396348848699104    0.1317061405503467    0.9993907183899646     C660
    0.7396348848699104    0.4650394738836801    0.3327240517232979     C661
    0.7396348848699104    0.4650394738836801    0.6660573850566313     C662
    0.7396348848699104    0.4650394738836801    0.9993907183899646     C663
    0.7396348848699104    0.7983728072170134    0.3327240517232979     C664
    0.7396348848699104    0.7983728072170134    0.6660573850566313     C665
    0.7396348848699104    0.7983728072170134    0.9993907183899646     C666
    0.0729682182032437    0.1317061405503467    0.3327240517232979     C667
    0.0729682182032437    0.1317061405503467    0.6660573850566313     C668
    0.0729682182032437    0.1317061405503467    0.9993907183899646     C669
    0.0729682182032437    0.4650394738836801    0.3327240517232979     C670
    0.0729682182032437    0.4650394738836801    0.6660573850566313     C671
    0.0729682182032437    0.4650394738836801    0.9993907183899646     C672
    0.0729682182032437    0.7983728072170134    0.3327240517232979     C673
    0.0729682182032437    0.7983728072170134    0.6660573850566313     C674
    0.0729682182032437    0.7983728072170134    0.9993907183899646     C675
    0.4163229911208962    0.0626044851784532    0.1784003887534318     C676
    0.4163229911208962    0.0626044851784532    0.5117337220867650     C677
    0.4163229911208962    0.0626044851784532    0.8450670554200983     C678
    0.4163229911208962    0.3959378185117866    0.1784003887534318     C679
    0.4163229911208962    0.3959378185117866    0.5117337220867650     C680
    0.4163229911208962    0.3959378185117866    0.8450670554200983     C681
    0.4163229911208962    0.7292711518451199    0.1784003887534318     C682
    0.4163229911208962    0.7292711518451199    0.5117337220867650     C683
    0.4163229911208962    0.7292711518451199    0.8450670554200983     C684
    0.7496563244542296    0.0626044851784532    0.1784003887534318     C685
    0.7496563244542296    0.0626044851784532    0.5117337220867650     C686
    0.7496563244542296    0.0626044851784532    0.8450670554200983     C687
    0.7496563244542296    0.3959378185117866    0.1784003887534318     C688
    0.7496563244542296    0.3959378185117866    0.5117337220867650     C689
    0.7496563244542296    0.3959378185117866    0.8450670554200983     C690
    0.7496563244542296    0.7292711518451199    0.1784003887534318     C691
    0.7496563244542296    0.7292711518451199    0.5117337220867650     C692
    0.7496563244542296    0.7292711518451199    0.8450670554200983     C693
    0.0829896577875628    0.0626044851784532    0.1784003887534318     C694
    0.0829896577875628    0.0626044851784532    0.5117337220867650     C695
    0.0829896577875628    0.0626044851784532    0.8450670554200983     C696
    0.0829896577875628    0.3959378185117866    0.1784003887534318     C697
    0.0829896577875628    0.3959378185117866    0.5117337220867650     C698
    0.0829896577875628    0.3959378185117866    0.8450670554200983     C699
    0.0829896577875628    0.7292711518451199    0.1784003887534318     C700
    0.0829896577875628    0.7292711518451199    0.5117337220867650     C701
    0.0829896577875628    0.7292711518451199    0.8450670554200983     C702
    0.4039297169562098    0.0155565632996344    0.1409981358985981     C703
    0.4039297169562098    0.0155565632996344    0.4743314692319314     C704
    0.4039297169562098    0.0155565632996344    0.8076648025652647     C705
    0.4039297169562098    0.3488898966329677    0.1409981358985981     C706
    0.4039297169562098    0.3488898966329677    0.4743314692319314     C707
    0.4039297169562098    0.3488898966329677    0.8076648025652647     C708
    0.4039297169562098    0.6822232299663009    0.1409981358985981     C709
    0.4039297169562098    0.6822232299663009    0.4743314692319314     C710
    0.4039297169562098    0.6822232299663009    0.8076648025652647     C711
    0.7372630502895432    0.0155565632996344    0.1409981358985981     C712
    0.7372630502895432    0.0155565632996344    0.4743314692319314     C713
    0.7372630502895432    0.0155565632996344    0.8076648025652647     C714
    0.7372630502895432    0.3488898966329677    0.1409981358985981     C715
    0.7372630502895432    0.3488898966329677    0.4743314692319314     C716
    0.7372630502895432    0.3488898966329677    0.8076648025652647     C717
    0.7372630502895432    0.6822232299663009    0.1409981358985981     C718
    0.7372630502895432    0.6822232299663009    0.4743314692319314     C719
    0.7372630502895432    0.6822232299663009    0.8076648025652647     C720
    0.0705963836228765    0.0155565632996344    0.1409981358985981     C721
    0.0705963836228765    0.0155565632996344    0.4743314692319314     C722
    0.0705963836228765    0.0155565632996344    0.8076648025652647     C723
    0.0705963836228765    0.3488898966329677    0.1409981358985981     C724
    0.0705963836228765    0.3488898966329677    0.4743314692319314     C725
    0.0705963836228765    0.3488898966329677    0.8076648025652647     C726
    0.0705963836228765    0.6822232299663009    0.1409981358985981     C727
    0.0705963836228765    0.6822232299663009    0.4743314692319314     C728
    0.0705963836228765    0.6822232299663009    0.8076648025652647     C729
    0.3821058043499543    0.0751839609442858    0.2205164948349532     C730
    0.3821058043499543    0.0751839609442858    0.5538498281682864     C731
    0.3821058043499543    0.0751839609442858    0.8871831615016198     C732
    0.3821058043499543    0.4085172942776192    0.2205164948349532     C733
    0.3821058043499543    0.4085172942776192    0.5538498281682864     C734
    0.3821058043499543    0.4085172942776192    0.8871831615016198     C735
    0.3821058043499543    0.7418506276109524    0.2205164948349532     C736
    0.3821058043499543    0.7418506276109524    0.5538498281682864     C737
    0.3821058043499543    0.7418506276109524    0.8871831615016198     C738
    0.7154391376832876    0.0751839609442858    0.2205164948349532     C739
    0.7154391376832876    0.0751839609442858    0.5538498281682864     C740
    0.7154391376832876    0.0751839609442858    0.8871831615016198     C741
    0.7154391376832876    0.4085172942776192    0.2205164948349532     C742
    0.7154391376832876    0.4085172942776192    0.5538498281682864     C743
    0.7154391376832876    0.4085172942776192    0.8871831615016198     C744
    0.7154391376832876    0.7418506276109524    0.2205164948349532     C745
    0.7154391376832876    0.7418506276109524    0.5538498281682864     C746
    0.7154391376832876    0.7418506276109524    0.8871831615016198     C747
    0.0487724710166209    0.0751839609442858    0.2205164948349532     C748
    0.0487724710166209    0.0751839609442858    0.5538498281682864     C749
    0.0487724710166209    0.0751839609442858    0.8871831615016198     C750
    0.0487724710166209    0.4085172942776192    0.2205164948349532     C751
    0.0487724710166209    0.4085172942776192    0.5538498281682864     C752
    0.0487724710166209    0.4085172942776192    0.8871831615016198     C753
    0.0487724710166209    0.7418506276109524    0.2205164948349532     C754
    0.0487724710166209    0.7418506276109524    0.5538498281682864     C755
    0.0487724710166209    0.7418506276109524    0.8871831615016198     C756
    0.5795219863672312    0.0174518832190955    0.4427403551135307     C757
    0.5795219863672312    0.0174518832190955    0.7760736884468640     C758
    0.5795219863672312    0.0174518832190955    0.1094070217801973     C759
    0.5795219863672312    0.3507852165524289    0.4427403551135307     C760
    0.5795219863672312    0.3507852165524289    0.7760736884468640     C761
    0.5795219863672312    0.3507852165524289    0.1094070217801973     C762
    0.5795219863672312    0.6841185498857623    0.4427403551135307     C763
    0.5795219863672312    0.6841185498857623    0.7760736884468640     C764
    0.5795219863672312    0.6841185498857623    0.1094070217801973     C765
    0.9128553197005644    0.0174518832190955    0.4427403551135307     C766
    0.9128553197005644    0.0174518832190955    0.7760736884468640     C767
    0.9128553197005644    0.0174518832190955    0.1094070217801973     C768
    0.9128553197005644    0.3507852165524289    0.4427403551135307     C769
    0.9128553197005644    0.3507852165524289    0.7760736884468640     C770
    0.9128553197005644    0.3507852165524289    0.1094070217801973     C771
    0.9128553197005644    0.6841185498857623    0.4427403551135307     C772
    0.9128553197005644    0.6841185498857623    0.7760736884468640     C773
    0.9128553197005644    0.6841185498857623    0.1094070217801973     C774
    0.2461886530338978    0.0174518832190955    0.4427403551135307     C775
    0.2461886530338978    0.0174518832190955    0.7760736884468640     C776
    0.2461886530338978    0.0174518832190955    0.1094070217801973     C777
    0.2461886530338978    0.3507852165524289    0.4427403551135307     C778
    0.2461886530338978    0.3507852165524289    0.7760736884468640     C779
    0.2461886530338978    0.3507852165524289    0.1094070217801973     C780
    0.2461886530338978    0.6841185498857623    0.4427403551135307     C781
    0.2461886530338978    0.6841185498857623    0.7760736884468640     C782
    0.2461886530338978    0.6841185498857623    0.1094070217801973     C783
    0.3620514872035721    0.0614131470822320    0.4770033467180562     C784
    0.3620514872035721    0.0614131470822320    0.8103366800513896     C785
    0.3620514872035721    0.0614131470822320    0.1436700133847228     C786
    0.3620514872035721    0.3947464804155654    0.4770033467180562     C787
    0.3620514872035721    0.3947464804155654    0.8103366800513896     C788
    0.3620514872035721    0.3947464804155654    0.1436700133847228     C789
    0.3620514872035721    0.7280798137488986    0.4770033467180562     C790
    0.3620514872035721    0.7280798137488986    0.8103366800513896     C791
    0.3620514872035721    0.7280798137488986    0.1436700133847228     C792
    0.6953848205369054    0.0614131470822320    0.4770033467180562     C793
    0.6953848205369054    0.0614131470822320    0.8103366800513896     C794
    0.6953848205369054    0.0614131470822320    0.1436700133847228     C795
    0.6953848205369054    0.3947464804155654    0.4770033467180562     C796
    0.6953848205369054    0.3947464804155654    0.8103366800513896     C797
    0.6953848205369054    0.3947464804155654    0.1436700133847228     C798
    0.6953848205369054    0.7280798137488986    0.4770033467180562     C799
    0.6953848205369054    0.7280798137488986    0.8103366800513896     C800
    0.6953848205369054    0.7280798137488986    0.1436700133847228     C801
    0.0287181538702387    0.0614131470822320    0.4770033467180562     C802
    0.0287181538702387    0.0614131470822320    0.8103366800513896     C803
    0.0287181538702387    0.0614131470822320    0.1436700133847228     C804
    0.0287181538702387    0.3947464804155654    0.4770033467180562     C805
    0.0287181538702387    0.3947464804155654    0.8103366800513896     C806
    0.0287181538702387    0.3947464804155654    0.1436700133847228     C807
    0.0287181538702387    0.7280798137488986    0.4770033467180562     C808
    0.0287181538702387    0.7280798137488986    0.8103366800513896     C809
    0.0287181538702387    0.7280798137488986    0.1436700133847228     C810
    0.2065248564153979    0.0242589571584273    0.3595278775018096     C811
    0.2065248564153979    0.0242589571584273    0.6928612108351430     C812
    0.2065248564153979    0.0242589571584273    0.0261945441684763     C813
    0.2065248564153979    0.3575922904917607    0.3595278775018096     C814
    0.2065248564153979    0.3575922904917607    0.6928612108351430     C815
    0.2065248564153979    0.3575922904917607    0.0261945441684763     C816
    0.2065248564153979    0.6909256238250939    0.3595278775018096     C817
    0.2065248564153979    0.6909256238250939    0.6928612108351430     C818
    0.2065248564153979    0.6909256238250939    0.0261945441684763     C819
    0.5398581897487312    0.0242589571584273    0.3595278775018096     C820
    0.5398581897487312    0.0242589571584273    0.6928612108351430     C821
    0.5398581897487312    0.0242589571584273    0.0261945441684763     C822
    0.5398581897487312    0.3575922904917607    0.3595278775018096     C823
    0.5398581897487312    0.3575922904917607    0.6928612108351430     C824
    0.5398581897487312    0.3575922904917607    0.0261945441684763     C825
    0.5398581897487312    0.6909256238250939    0.3595278775018096     C826
    0.5398581897487312    0.6909256238250939    0.6928612108351430     C827
    0.5398581897487312    0.6909256238250939    0.0261945441684763     C828
    0.8731915230820646    0.0242589571584273    0.3595278775018096     C829
    0.8731915230820646    0.0242589571584273    0.6928612108351430     C830
    0.8731915230820646    0.0242589571584273    0.0261945441684763     C831
    0.8731915230820646    0.3575922904917607    0.3595278775018096     C832
    0.8731915230820646    0.3575922904917607    0.6928612108351430     C833
    0.8731915230820646    0.3575922904917607    0.0261945441684763     C834
    0.8731915230820646    0.6909256238250939    0.3595278775018096     C835
    0.8731915230820646    0.6909256238250939    0.6928612108351430     C836
    0.8731915230820646    0.6909256238250939    0.0261945441684763     C837
    0.5933017015777353    0.0020522668738829    0.4835063991574620     C838
    0.5933017015777353    0.0020522668738829    0.8168397324907952     C839
    0.5933017015777353    0.0020522668738829    0.1501730658241285     C840
    0.5933017015777353    0.3353856002072164    0.4835063991574620     C841
    0.5933017015777353    0.3353856002072164    0.8168397324907952     C842
    0.5933017015777353    0.3353856002072164    0.1501730658241285     C843
    0.5933017015777353    0.6687189335405497    0.4835063991574620     C844
    0.5933017015777353    0.6687189335405497    0.8168397324907952     C845
    0.5933017015777353    0.6687189335405497    0.1501730658241285     C846
    0.9266350349110686    0.0020522668738829    0.4835063991574620     C847
    0.9266350349110686    0.0020522668738829    0.8168397324907952     C848
    0.9266350349110686    0.0020522668738829    0.1501730658241285     C849
    0.9266350349110686    0.3353856002072164    0.4835063991574620     C850
    0.9266350349110686    0.3353856002072164    0.8168397324907952     C851
    0.9266350349110686    0.3353856002072164    0.1501730658241285     C852
    0.9266350349110686    0.6687189335405497    0.4835063991574620     C853
    0.9266350349110686    0.6687189335405497    0.8168397324907952     C854
    0.9266350349110686    0.6687189335405497    0.1501730658241285     C855
    0.2599683682444019    0.0020522668738829    0.4835063991574620     C856
    0.2599683682444019    0.0020522668738829    0.8168397324907952     C857
    0.2599683682444019    0.0020522668738829    0.1501730658241285     C858
    0.2599683682444019    0.3353856002072164    0.4835063991574620     C859
    0.2599683682444019    0.3353856002072164    0.8168397324907952     C860
    0.2599683682444019    0.3353856002072164    0.1501730658241285     C861
    0.2599683682444019    0.6687189335405497    0.4835063991574620     C862
    0.2599683682444019    0.6687189335405497    0.8168397324907952     C863
    0.2599683682444019    0.6687189335405497    0.1501730658241285     C864
    0.2219557100525889    0.1857304621356246    0.1979686572142944     C865
    0.2219557100525889    0.1857304621356246    0.5313019905476277     C866
    0.2219557100525889    0.1857304621356246    0.8646353238809610     C867
    0.2219557100525889    0.5190637954689579    0.1979686572142944     C868
    0.2219557100525889    0.5190637954689579    0.5313019905476277     C869
    0.2219557100525889    0.5190637954689579    0.8646353238809610     C870
    0.2219557100525889    0.8523971288022912    0.1979686572142944     C871
    0.2219557100525889    0.8523971288022912    0.5313019905476277     C872
    0.2219557100525889    0.8523971288022912    0.8646353238809610     C873
    0.5552890433859221    0.1857304621356246    0.1979686572142944     C874
    0.5552890433859221    0.1857304621356246    0.5313019905476277     C875
    0.5552890433859221    0.1857304621356246    0.8646353238809610     C876
    0.5552890433859221    0.5190637954689579    0.1979686572142944     C877
    0.5552890433859221    0.5190637954689579    0.5313019905476277     C878
    0.5552890433859221    0.5190637954689579    0.8646353238809610     C879
    0.5552890433859221    0.8523971288022912    0.1979686572142944     C880
    0.5552890433859221    0.8523971288022912    0.5313019905476277     C881
    0.5552890433859221    0.8523971288022912    0.8646353238809610     C882
    0.8886223767192555    0.1857304621356246    0.1979686572142944     C883
    0.8886223767192555    0.1857304621356246    0.5313019905476277     C884
    0.8886223767192555    0.1857304621356246    0.8646353238809610     C885
    0.8886223767192555    0.5190637954689579    0.1979686572142944     C886
    0.8886223767192555    0.5190637954689579    0.5313019905476277     C887
    0.8886223767192555    0.5190637954689579    0.8646353238809610     C888
    0.8886223767192555    0.8523971288022912    0.1979686572142944     C889
    0.8886223767192555    0.8523971288022912    0.5313019905476277     C890
    0.8886223767192555    0.8523971288022912    0.8646353238809610     C891
    0.3187391841996304    0.1856160029268803    0.4112111660151632     C892
    0.3187391841996304    0.1856160029268803    0.7445444993484965     C893
    0.3187391841996304    0.1856160029268803    0.0778778326818298     C894
    0.3187391841996304    0.5189493362602136    0.4112111660151632     C895
    0.3187391841996304    0.5189493362602136    0.7445444993484965     C896
    0.3187391841996304    0.5189493362602136    0.0778778326818298     C897
    0.3187391841996304    0.8522826695935468    0.4112111660151632     C898
    0.3187391841996304    0.8522826695935468    0.7445444993484965     C899
    0.3187391841996304    0.8522826695935468    0.0778778326818298     C900
    0.6520725175329638    0.1856160029268803    0.4112111660151632     C901
    0.6520725175329638    0.1856160029268803    0.7445444993484965     C902
    0.6520725175329638    0.1856160029268803    0.0778778326818298     C903
    0.6520725175329638    0.5189493362602136    0.4112111660151632     C904
    0.6520725175329638    0.5189493362602136    0.7445444993484965     C905
    0.6520725175329638    0.5189493362602136    0.0778778326818298     C906
    0.6520725175329638    0.8522826695935468    0.4112111660151632     C907
    0.6520725175329638    0.8522826695935468    0.7445444993484965     C908
    0.6520725175329638    0.8522826695935468    0.0778778326818298     C909
    0.9854058508662971    0.1856160029268803    0.4112111660151632     C910
    0.9854058508662971    0.1856160029268803    0.7445444993484965     C911
    0.9854058508662971    0.1856160029268803    0.0778778326818298     C912
    0.9854058508662971    0.5189493362602136    0.4112111660151632     C913
    0.9854058508662971    0.5189493362602136    0.7445444993484965     C914
    0.9854058508662971    0.5189493362602136    0.0778778326818298     C915
    0.9854058508662971    0.8522826695935468    0.4112111660151632     C916
    0.9854058508662971    0.8522826695935468    0.7445444993484965     C917
    0.9854058508662971    0.8522826695935468    0.0778778326818298     C918
    0.2921165844370692    0.3132216398694867    0.2538954885136167     C919
    0.2921165844370692    0.3132216398694867    0.5872288218469500     C920
    0.2921165844370692    0.3132216398694867    0.9205621551802833     C921
    0.2921165844370692    0.6465549732028201    0.2538954885136167     C922
    0.2921165844370692    0.6465549732028201    0.5872288218469500     C923
    0.2921165844370692    0.6465549732028201    0.9205621551802833     C924
    0.2921165844370692    0.9798883065361533    0.2538954885136167     C925
    0.2921165844370692    0.9798883065361533    0.5872288218469500     C926
    0.2921165844370692    0.9798883065361533    0.9205621551802833     C927
    0.6254499177704026    0.3132216398694867    0.2538954885136167     C928
    0.6254499177704026    0.3132216398694867    0.5872288218469500     C929
    0.6254499177704026    0.3132216398694867    0.9205621551802833     C930
    0.6254499177704026    0.6465549732028201    0.2538954885136167     C931
    0.6254499177704026    0.6465549732028201    0.5872288218469500     C932
    0.6254499177704026    0.6465549732028201    0.9205621551802833     C933
    0.6254499177704026    0.9798883065361533    0.2538954885136167     C934
    0.6254499177704026    0.9798883065361533    0.5872288218469500     C935
    0.6254499177704026    0.9798883065361533    0.9205621551802833     C936
    0.9587832511037359    0.3132216398694867    0.2538954885136167     C937
    0.9587832511037359    0.3132216398694867    0.5872288218469500     C938
    0.9587832511037359    0.3132216398694867    0.9205621551802833     C939
    0.9587832511037359    0.6465549732028201    0.2538954885136167     C940
    0.9587832511037359    0.6465549732028201    0.5872288218469500     C941
    0.9587832511037359    0.6465549732028201    0.9205621551802833     C942
    0.9587832511037359    0.9798883065361533    0.2538954885136167     C943
    0.9587832511037359    0.9798883065361533    0.5872288218469500     C944
    0.9587832511037359    0.9798883065361533    0.9205621551802833     C945
    0.4695874130300790    0.1738698703142080    0.1390103378431025     C946
    0.4695874130300790    0.1738698703142080    0.4723436711764357     C947
    0.4695874130300790    0.1738698703142080    0.8056770045097690     C948
    0.4695874130300790    0.5072032036475413    0.1390103378431025     C949
    0.4695874130300790    0.5072032036475413    0.4723436711764357     C950
    0.4695874130300790    0.5072032036475413    0.8056770045097690     C951
    0.4695874130300790    0.8405365369808746    0.1390103378431025     C952
    0.4695874130300790    0.8405365369808746    0.4723436711764357     C953
    0.4695874130300790    0.8405365369808746    0.8056770045097690     C954
    0.8029207463634124    0.1738698703142080    0.1390103378431025     C955
    0.8029207463634124    0.1738698703142080    0.4723436711764357     C956
    0.8029207463634124    0.1738698703142080    0.8056770045097690     C957
    0.8029207463634124    0.5072032036475413    0.1390103378431025     C958
    0.8029207463634124    0.5072032036475413    0.4723436711764357     C959
    0.8029207463634124    0.5072032036475413    0.8056770045097690     C960
    0.8029207463634124    0.8405365369808746    0.1390103378431025     C961
    0.8029207463634124    0.8405365369808746    0.4723436711764357     C962
    0.8029207463634124    0.8405365369808746    0.8056770045097690     C963
    0.1362540796967457    0.1738698703142080    0.1390103378431025     C964
    0.1362540796967457    0.1738698703142080    0.4723436711764357     C965
    0.1362540796967457    0.1738698703142080    0.8056770045097690     C966
    0.1362540796967457    0.5072032036475413    0.1390103378431025     C967
    0.1362540796967457    0.5072032036475413    0.4723436711764357     C968
    0.1362540796967457    0.5072032036475413    0.8056770045097690     C969
    0.1362540796967457    0.8405365369808746    0.1390103378431025     C970
    0.1362540796967457    0.8405365369808746    0.4723436711764357     C971
    0.1362540796967457    0.8405365369808746    0.8056770045097690     C972
    0.4748513000043800    0.1785152089713293    0.0884019686708979     C973
    0.4748513000043800    0.1785152089713293    0.4217353020042313     C974
    0.4748513000043800    0.1785152089713293    0.7550686353375646     C975
    0.4748513000043800    0.5118485423046626    0.0884019686708979     C976
    0.4748513000043800    0.5118485423046626    0.4217353020042313     C977
    0.4748513000043800    0.5118485423046626    0.7550686353375646     C978
    0.4748513000043800    0.8451818756379958    0.0884019686708979     C979
    0.4748513000043800    0.8451818756379958    0.4217353020042313     C980
    0.4748513000043800    0.8451818756379958    0.7550686353375646     C981
    0.8081846333377134    0.1785152089713293    0.0884019686708979     C982
    0.8081846333377134    0.1785152089713293    0.4217353020042313     C983
    0.8081846333377134    0.1785152089713293    0.7550686353375646     C984
    0.8081846333377134    0.5118485423046626    0.0884019686708979     C985
    0.8081846333377134    0.5118485423046626    0.4217353020042313     C986
    0.8081846333377134    0.5118485423046626    0.7550686353375646     C987
    0.8081846333377134    0.8451818756379958    0.0884019686708979     C988
    0.8081846333377134    0.8451818756379958    0.4217353020042313     C989
    0.8081846333377134    0.8451818756379958    0.7550686353375646     C990
    0.1415179666710467    0.1785152089713293    0.0884019686708979     C991
    0.1415179666710467    0.1785152089713293    0.4217353020042313     C992
    0.1415179666710467    0.1785152089713293    0.7550686353375646     C993
    0.1415179666710467    0.5118485423046626    0.0884019686708979     C994
    0.1415179666710467    0.5118485423046626    0.4217353020042313     C995
    0.1415179666710467    0.5118485423046626    0.7550686353375646     C996
    0.1415179666710467    0.8451818756379958    0.0884019686708979     C997
    0.1415179666710467    0.8451818756379958    0.4217353020042313     C998
    0.1415179666710467    0.8451818756379958    0.7550686353375646     C999
    0.1690790305980723    0.3780458384564980    0.3577464804309256    C1000
    0.1690790305980723    0.3780458384564980    0.6910798137642589    C1001
    0.1690790305980723    0.3780458384564980    0.0244131470975922    C1002
    0.1690790305980723    0.7113791717898312    0.3577464804309256    C1003
    0.1690790305980723    0.7113791717898312    0.6910798137642589    C1004
    0.1690790305980723    0.7113791717898312    0.0244131470975922    C1005
    0.1690790305980723    0.0447125051231646    0.3577464804309256    C1006
    0.1690790305980723    0.0447125051231646    0.6910798137642589    C1007
    0.1690790305980723    0.0447125051231646    0.0244131470975922    C1008
    0.5024123639314055    0.3780458384564980    0.3577464804309256    C1009
    0.5024123639314055    0.3780458384564980    0.6910798137642589    C1010
    0.5024123639314055    0.3780458384564980    0.0244131470975922    C1011
    0.5024123639314055    0.7113791717898312    0.3577464804309256    C1012
    0.5024123639314055    0.7113791717898312    0.6910798137642589    C1013
    0.5024123639314055    0.7113791717898312    0.0244131470975922    C1014
    0.5024123639314055    0.0447125051231646    0.3577464804309256    C1015
    0.5024123639314055    0.0447125051231646    0.6910798137642589    C1016
    0.5024123639314055    0.0447125051231646    0.0244131470975922    C1017
    0.8357456972647388    0.3780458384564980    0.3577464804309256    C1018
    0.8357456972647388    0.3780458384564980    0.6910798137642589    C1019
    0.8357456972647388    0.3780458384564980    0.0244131470975922    C1020
    0.8357456972647388    0.7113791717898312    0.3577464804309256    C1021
    0.8357456972647388    0.7113791717898312    0.6910798137642589    C1022
    0.8357456972647388    0.7113791717898312    0.0244131470975922    C1023
    0.8357456972647388    0.0447125051231646    0.3577464804309256    C1024
    0.8357456972647388    0.0447125051231646    0.6910798137642589    C1025
    0.8357456972647388    0.0447125051231646    0.0244131470975922    C1026
    0.3326914891997460    0.2415513687671360    0.4097176071429780    C1027
    0.3326914891997460    0.2415513687671360    0.7430509404763114    C1028
    0.3326914891997460    0.2415513687671360    0.0763842738096447    C1029
    0.3326914891997460    0.5748847021004693    0.4097176071429780    C1030
    0.3326914891997460    0.5748847021004693    0.7430509404763114    C1031
    0.3326914891997460    0.5748847021004693    0.0763842738096447    C1032
    0.3326914891997460    0.9082180354338025    0.4097176071429780    C1033
    0.3326914891997460    0.9082180354338025    0.7430509404763114    C1034
    0.3326914891997460    0.9082180354338025    0.0763842738096447    C1035
    0.6660248225330794    0.2415513687671360    0.4097176071429780    C1036
    0.6660248225330794    0.2415513687671360    0.7430509404763114    C1037
    0.6660248225330794    0.2415513687671360    0.0763842738096447    C1038
    0.6660248225330794    0.5748847021004693    0.4097176071429780    C1039
    0.6660248225330794    0.5748847021004693    0.7430509404763114    C1040
    0.6660248225330794    0.5748847021004693    0.0763842738096447    C1041
    0.6660248225330794    0.9082180354338025    0.4097176071429780    C1042
    0.6660248225330794    0.9082180354338025    0.7430509404763114    C1043
    0.6660248225330794    0.9082180354338025    0.0763842738096447    C1044
    0.9993581558664126    0.2415513687671360    0.4097176071429780    C1045
    0.9993581558664126    0.2415513687671360    0.7430509404763114    C1046
    0.9993581558664126    0.2415513687671360    0.0763842738096447    C1047
    0.9993581558664126    0.5748847021004693    0.4097176071429780    C1048
    0.9993581558664126    0.5748847021004693    0.7430509404763114    C1049
    0.9993581558664126    0.5748847021004693    0.0763842738096447    C1050
    0.9993581558664126    0.9082180354338025    0.4097176071429780    C1051
    0.9993581558664126    0.9082180354338025    0.7430509404763114    C1052
    0.9993581558664126    0.9082180354338025    0.0763842738096447    C1053
    0.4601303686666345    0.3225076043198245    0.0309511148012834    C1054
    0.4601303686666345    0.3225076043198245    0.3642844481346168    C1055
    0.4601303686666345    0.3225076043198245    0.6976177814679501    C1056
    0.4601303686666345    0.6558409376531578    0.0309511148012834    C1057
    0.4601303686666345    0.6558409376531578    0.3642844481346168    C1058
    0.4601303686666345    0.6558409376531578    0.6976177814679501    C1059
    0.4601303686666345    0.9891742709864911    0.0309511148012834    C1060
    0.4601303686666345    0.9891742709864911    0.3642844481346168    C1061
    0.4601303686666345    0.9891742709864911    0.6976177814679501    C1062
    0.7934637019999679    0.3225076043198245    0.0309511148012834    C1063
    0.7934637019999679    0.3225076043198245    0.3642844481346168    C1064
    0.7934637019999679    0.3225076043198245    0.6976177814679501    C1065
    0.7934637019999679    0.6558409376531578    0.0309511148012834    C1066
    0.7934637019999679    0.6558409376531578    0.3642844481346168    C1067
    0.7934637019999679    0.6558409376531578    0.6976177814679501    C1068
    0.7934637019999679    0.9891742709864911    0.0309511148012834    C1069
    0.7934637019999679    0.9891742709864911    0.3642844481346168    C1070
    0.7934637019999679    0.9891742709864911    0.6976177814679501    C1071
    0.1267970353333011    0.3225076043198245    0.0309511148012834    C1072
    0.1267970353333011    0.3225076043198245    0.3642844481346168    C1073
    0.1267970353333011    0.3225076043198245    0.6976177814679501    C1074
    0.1267970353333011    0.6558409376531578    0.0309511148012834    C1075
    0.1267970353333011    0.6558409376531578    0.3642844481346168    C1076
    0.1267970353333011    0.6558409376531578    0.6976177814679501    C1077
    0.1267970353333011    0.9891742709864911    0.0309511148012834    C1078
    0.1267970353333011    0.9891742709864911    0.3642844481346168    C1079
    0.1267970353333011    0.9891742709864911    0.6976177814679501    C1080
    0.3603668419319045    0.2023090469744794    0.3709056576148408    C1081
    0.3603668419319045    0.2023090469744794    0.7042389909481742    C1082
    0.3603668419319045    0.2023090469744794    0.0375723242815075    C1083
    0.3603668419319045    0.5356423803078127    0.3709056576148408    C1084
    0.3603668419319045    0.5356423803078127    0.7042389909481742    C1085
    0.3603668419319045    0.5356423803078127    0.0375723242815075    C1086
    0.3603668419319045    0.8689757136411460    0.3709056576148408    C1087
    0.3603668419319045    0.8689757136411460    0.7042389909481742    C1088
    0.3603668419319045    0.8689757136411460    0.0375723242815075    C1089
    0.6937001752652379    0.2023090469744794    0.3709056576148408    C1090
    0.6937001752652379    0.2023090469744794    0.7042389909481742    C1091
    0.6937001752652379    0.2023090469744794    0.0375723242815075    C1092
    0.6937001752652379    0.5356423803078127    0.3709056576148408    C1093
    0.6937001752652379    0.5356423803078127    0.7042389909481742    C1094
    0.6937001752652379    0.5356423803078127    0.0375723242815075    C1095
    0.6937001752652379    0.8689757136411460    0.3709056576148408    C1096
    0.6937001752652379    0.8689757136411460    0.7042389909481742    C1097
    0.6937001752652379    0.8689757136411460    0.0375723242815075    C1098
    0.0270335085985711    0.2023090469744794    0.3709056576148408    C1099
    0.0270335085985711    0.2023090469744794    0.7042389909481742    C1100
    0.0270335085985711    0.2023090469744794    0.0375723242815075    C1101
    0.0270335085985711    0.5356423803078127    0.3709056576148408    C1102
    0.0270335085985711    0.5356423803078127    0.7042389909481742    C1103
    0.0270335085985711    0.5356423803078127    0.0375723242815075    C1104
    0.0270335085985711    0.8689757136411460    0.3709056576148408    C1105
    0.0270335085985711    0.8689757136411460    0.7042389909481742    C1106
    0.0270335085985711    0.8689757136411460    0.0375723242815075    C1107
    0.1380942112464123    0.2671008988588564    0.2540912852829046    C1108
    0.1380942112464123    0.2671008988588564    0.5874246186162380    C1109
    0.1380942112464123    0.2671008988588564    0.9207579519495712    C1110
    0.1380942112464123    0.6004342321921897    0.2540912852829046    C1111
    0.1380942112464123    0.6004342321921897    0.5874246186162380    C1112
    0.1380942112464123    0.6004342321921897    0.9207579519495712    C1113
    0.1380942112464123    0.9337675655255230    0.2540912852829046    C1114
    0.1380942112464123    0.9337675655255230    0.5874246186162380    C1115
    0.1380942112464123    0.9337675655255230    0.9207579519495712    C1116
    0.4714275445797456    0.2671008988588564    0.2540912852829046    C1117
    0.4714275445797456    0.2671008988588564    0.5874246186162380    C1118
    0.4714275445797456    0.2671008988588564    0.9207579519495712    C1119
    0.4714275445797456    0.6004342321921897    0.2540912852829046    C1120
    0.4714275445797456    0.6004342321921897    0.5874246186162380    C1121
    0.4714275445797456    0.6004342321921897    0.9207579519495712    C1122
    0.4714275445797456    0.9337675655255230    0.2540912852829046    C1123
    0.4714275445797456    0.9337675655255230    0.5874246186162380    C1124
    0.4714275445797456    0.9337675655255230    0.9207579519495712    C1125
    0.8047608779130788    0.2671008988588564    0.2540912852829046    C1126
    0.8047608779130788    0.2671008988588564    0.5874246186162380    C1127
    0.8047608779130788    0.2671008988588564    0.9207579519495712    C1128
    0.8047608779130788    0.6004342321921897    0.2540912852829046    C1129
    0.8047608779130788    0.6004342321921897    0.5874246186162380    C1130
    0.8047608779130788    0.6004342321921897    0.9207579519495712    C1131
    0.8047608779130788    0.9337675655255230    0.2540912852829046    C1132
    0.8047608779130788    0.9337675655255230    0.5874246186162380    C1133
    0.8047608779130788    0.9337675655255230    0.9207579519495712    C1134
    0.2796101352688953    0.3276307382561381    0.3230777480898479    C1135
    0.2796101352688953    0.3276307382561381    0.6564110814231813    C1136
    0.2796101352688953    0.3276307382561381    0.9897444147565146    C1137
    0.2796101352688953    0.6609640715894715    0.3230777480898479    C1138
    0.2796101352688953    0.6609640715894715    0.6564110814231813    C1139
    0.2796101352688953    0.6609640715894715    0.9897444147565146    C1140
    0.2796101352688953    0.9942974049228047    0.3230777480898479    C1141
    0.2796101352688953    0.9942974049228047    0.6564110814231813    C1142
    0.2796101352688953    0.9942974049228047    0.9897444147565146    C1143
    0.6129434686022287    0.3276307382561381    0.3230777480898479    C1144
    0.6129434686022287    0.3276307382561381    0.6564110814231813    C1145
    0.6129434686022287    0.3276307382561381    0.9897444147565146    C1146
    0.6129434686022287    0.6609640715894715    0.3230777480898479    C1147
    0.6129434686022287    0.6609640715894715    0.6564110814231813    C1148
    0.6129434686022287    0.6609640715894715    0.9897444147565146    C1149
    0.6129434686022287    0.9942974049228047    0.3230777480898479    C1150
    0.6129434686022287    0.9942974049228047    0.6564110814231813    C1151
    0.6129434686022287    0.9942974049228047    0.9897444147565146    C1152
    0.9462768019355620    0.3276307382561381    0.3230777480898479    C1153
    0.9462768019355620    0.3276307382561381    0.6564110814231813    C1154
    0.9462768019355620    0.3276307382561381    0.9897444147565146    C1155
    0.9462768019355620    0.6609640715894715    0.3230777480898479    C1156
    0.9462768019355620    0.6609640715894715    0.6564110814231813    C1157
    0.9462768019355620    0.6609640715894715    0.9897444147565146    C1158
    0.9462768019355620    0.9942974049228047    0.3230777480898479    C1159
    0.9462768019355620    0.9942974049228047    0.6564110814231813    C1160
    0.9462768019355620    0.9942974049228047    0.9897444147565146    C1161
    0.4196808245296554    0.3367036619804662    0.0189934307215925    C1162
    0.4196808245296554    0.3367036619804662    0.3523267640549259    C1163
    0.4196808245296554    0.3367036619804662    0.6856600973882592    C1164
    0.4196808245296554    0.6700369953137996    0.0189934307215925    C1165
    0.4196808245296554    0.6700369953137996    0.3523267640549259    C1166
    0.4196808245296554    0.6700369953137996    0.6856600973882592    C1167
    0.4196808245296554    0.0033703286471329    0.0189934307215925    C1168
    0.4196808245296554    0.0033703286471329    0.3523267640549259    C1169
    0.4196808245296554    0.0033703286471329    0.6856600973882592    C1170
    0.7530141578629888    0.3367036619804662    0.0189934307215925    C1171
    0.7530141578629888    0.3367036619804662    0.3523267640549259    C1172
    0.7530141578629888    0.3367036619804662    0.6856600973882592    C1173
    0.7530141578629888    0.6700369953137996    0.0189934307215925    C1174
    0.7530141578629888    0.6700369953137996    0.3523267640549259    C1175
    0.7530141578629888    0.6700369953137996    0.6856600973882592    C1176
    0.7530141578629888    0.0033703286471329    0.0189934307215925    C1177
    0.7530141578629888    0.0033703286471329    0.3523267640549259    C1178
    0.7530141578629888    0.0033703286471329    0.6856600973882592    C1179
    0.0863474911963220    0.3367036619804662    0.0189934307215925    C1180
    0.0863474911963220    0.3367036619804662    0.3523267640549259    C1181
    0.0863474911963220    0.3367036619804662    0.6856600973882592    C1182
    0.0863474911963220    0.6700369953137996    0.0189934307215925    C1183
    0.0863474911963220    0.6700369953137996    0.3523267640549259    C1184
    0.0863474911963220    0.6700369953137996    0.6856600973882592    C1185
    0.0863474911963220    0.0033703286471329    0.0189934307215925    C1186
    0.0863474911963220    0.0033703286471329    0.3523267640549259    C1187
    0.0863474911963220    0.0033703286471329    0.6856600973882592    C1188
    0.4949771592534782    0.2928571849899536    0.1267129827576031    C1189
    0.4949771592534782    0.2928571849899536    0.4600463160909364    C1190
    0.4949771592534782    0.2928571849899536    0.7933796494242698    C1191
    0.4949771592534782    0.6261905183232870    0.1267129827576031    C1192
    0.4949771592534782    0.6261905183232870    0.4600463160909364    C1193
    0.4949771592534782    0.6261905183232870    0.7933796494242698    C1194
    0.4949771592534782    0.9595238516566202    0.1267129827576031    C1195
    0.4949771592534782    0.9595238516566202    0.4600463160909364    C1196
    0.4949771592534782    0.9595238516566202    0.7933796494242698    C1197
    0.8283104925868114    0.2928571849899536    0.1267129827576031    C1198
    0.8283104925868114    0.2928571849899536    0.4600463160909364    C1199
    0.8283104925868114    0.2928571849899536    0.7933796494242698    C1200
    0.8283104925868114    0.6261905183232870    0.1267129827576031    C1201
    0.8283104925868114    0.6261905183232870    0.4600463160909364    C1202
    0.8283104925868114    0.6261905183232870    0.7933796494242698    C1203
    0.8283104925868114    0.9595238516566202    0.1267129827576031    C1204
    0.8283104925868114    0.9595238516566202    0.4600463160909364    C1205
    0.8283104925868114    0.9595238516566202    0.7933796494242698    C1206
    0.1616438259201448    0.2928571849899536    0.1267129827576031    C1207
    0.1616438259201448    0.2928571849899536    0.4600463160909364    C1208
    0.1616438259201448    0.2928571849899536    0.7933796494242698    C1209
    0.1616438259201448    0.6261905183232870    0.1267129827576031    C1210
    0.1616438259201448    0.6261905183232870    0.4600463160909364    C1211
    0.1616438259201448    0.6261905183232870    0.7933796494242698    C1212
    0.1616438259201448    0.9595238516566202    0.1267129827576031    C1213
    0.1616438259201448    0.9595238516566202    0.4600463160909364    C1214
    0.1616438259201448    0.9595238516566202    0.7933796494242698    C1215
    0.4747722718000409    0.2959306464204290    0.0256439991365653    C1216
    0.4747722718000409    0.2959306464204290    0.3589773324698986    C1217
    0.4747722718000409    0.2959306464204290    0.6923106658032319    C1218
    0.4747722718000409    0.6292639797537624    0.0256439991365653    C1219
    0.4747722718000409    0.6292639797537624    0.3589773324698986    C1220
    0.4747722718000409    0.6292639797537624    0.6923106658032319    C1221
    0.4747722718000409    0.9625973130870957    0.0256439991365653    C1222
    0.4747722718000409    0.9625973130870957    0.3589773324698986    C1223
    0.4747722718000409    0.9625973130870957    0.6923106658032319    C1224
    0.8081056051333743    0.2959306464204290    0.0256439991365653    C1225
    0.8081056051333743    0.2959306464204290    0.3589773324698986    C1226
    0.8081056051333743    0.2959306464204290    0.6923106658032319    C1227
    0.8081056051333743    0.6292639797537624    0.0256439991365653    C1228
    0.8081056051333743    0.6292639797537624    0.3589773324698986    C1229
    0.8081056051333743    0.6292639797537624    0.6923106658032319    C1230
    0.8081056051333743    0.9625973130870957    0.0256439991365653    C1231
    0.8081056051333743    0.9625973130870957    0.3589773324698986    C1232
    0.8081056051333743    0.9625973130870957    0.6923106658032319    C1233
    0.1414389384667075    0.2959306464204290    0.0256439991365653    C1234
    0.1414389384667075    0.2959306464204290    0.3589773324698986    C1235
    0.1414389384667075    0.2959306464204290    0.6923106658032319    C1236
    0.1414389384667075    0.6292639797537624    0.0256439991365653    C1237
    0.1414389384667075    0.6292639797537624    0.3589773324698986    C1238
    0.1414389384667075    0.6292639797537624    0.6923106658032319    C1239
    0.1414389384667075    0.9625973130870957    0.0256439991365653    C1240
    0.1414389384667075    0.9625973130870957    0.3589773324698986    C1241
    0.1414389384667075    0.9625973130870957    0.6923106658032319    C1242
    0.4954479170415917    0.2079992470149798    0.0572263584014937    C1243
    0.4954479170415917    0.2079992470149798    0.3905596917348270    C1244
    0.4954479170415917    0.2079992470149798    0.7238930250681603    C1245
    0.4954479170415917    0.5413325803483132    0.0572263584014937    C1246
    0.4954479170415917    0.5413325803483132    0.3905596917348270    C1247
    0.4954479170415917    0.5413325803483132    0.7238930250681603    C1248
    0.4954479170415917    0.8746659136816466    0.0572263584014937    C1249
    0.4954479170415917    0.8746659136816466    0.3905596917348270    C1250
    0.4954479170415917    0.8746659136816466    0.7238930250681603    C1251
    0.8287812503749251    0.2079992470149798    0.0572263584014937    C1252
    0.8287812503749251    0.2079992470149798    0.3905596917348270    C1253
    0.8287812503749251    0.2079992470149798    0.7238930250681603    C1254
    0.8287812503749251    0.5413325803483132    0.0572263584014937    C1255
    0.8287812503749251    0.5413325803483132    0.3905596917348270    C1256
    0.8287812503749251    0.5413325803483132    0.7238930250681603    C1257
    0.8287812503749251    0.8746659136816466    0.0572263584014937    C1258
    0.8287812503749251    0.8746659136816466    0.3905596917348270    C1259
    0.8287812503749251    0.8746659136816466    0.7238930250681603    C1260
    0.1621145837082584    0.2079992470149798    0.0572263584014937    C1261
    0.1621145837082584    0.2079992470149798    0.3905596917348270    C1262
    0.1621145837082584    0.2079992470149798    0.7238930250681603    C1263
    0.1621145837082584    0.5413325803483132    0.0572263584014937    C1264
    0.1621145837082584    0.5413325803483132    0.3905596917348270    C1265
    0.1621145837082584    0.5413325803483132    0.7238930250681603    C1266
    0.1621145837082584    0.8746659136816466    0.0572263584014937    C1267
    0.1621145837082584    0.8746659136816466    0.3905596917348270    C1268
    0.1621145837082584    0.8746659136816466    0.7238930250681603    C1269
    0.5592892820422144    0.2324464328858976    0.0420724036406763    C1270
    0.5592892820422144    0.2324464328858976    0.3754057369740096    C1271
    0.5592892820422144    0.2324464328858976    0.7087390703073428    C1272
    0.5592892820422144    0.5657797662192310    0.0420724036406763    C1273
    0.5592892820422144    0.5657797662192310    0.3754057369740096    C1274
    0.5592892820422144    0.5657797662192310    0.7087390703073428    C1275
    0.5592892820422144    0.8991130995525642    0.0420724036406763    C1276
    0.5592892820422144    0.8991130995525642    0.3754057369740096    C1277
    0.5592892820422144    0.8991130995525642    0.7087390703073428    C1278
    0.8926226153755478    0.2324464328858976    0.0420724036406763    C1279
    0.8926226153755478    0.2324464328858976    0.3754057369740096    C1280
    0.8926226153755478    0.2324464328858976    0.7087390703073428    C1281
    0.8926226153755478    0.5657797662192310    0.0420724036406763    C1282
    0.8926226153755478    0.5657797662192310    0.3754057369740096    C1283
    0.8926226153755478    0.5657797662192310    0.7087390703073428    C1284
    0.8926226153755478    0.8991130995525642    0.0420724036406763    C1285
    0.8926226153755478    0.8991130995525642    0.3754057369740096    C1286
    0.8926226153755478    0.8991130995525642    0.7087390703073428    C1287
    0.2259559487088811    0.2324464328858976    0.0420724036406763    C1288
    0.2259559487088811    0.2324464328858976    0.3754057369740096    C1289
    0.2259559487088811    0.2324464328858976    0.7087390703073428    C1290
    0.2259559487088811    0.5657797662192310    0.0420724036406763    C1291
    0.2259559487088811    0.5657797662192310    0.3754057369740096    C1292
    0.2259559487088811    0.5657797662192310    0.7087390703073428    C1293
    0.2259559487088811    0.8991130995525642    0.0420724036406763    C1294
    0.2259559487088811    0.8991130995525642    0.3754057369740096    C1295
    0.2259559487088811    0.8991130995525642    0.7087390703073428    C1296
    0.6085911046182030    0.2351579066535703    0.0112901800588608    C1297
    0.6085911046182030    0.2351579066535703    0.3446235133921942    C1298
    0.6085911046182030    0.2351579066535703    0.6779568467255275    C1299
    0.6085911046182030    0.5684912399869035    0.0112901800588608    C1300
    0.6085911046182030    0.5684912399869035    0.3446235133921942    C1301
    0.6085911046182030    0.5684912399869035    0.6779568467255275    C1302
    0.6085911046182030    0.9018245733202369    0.0112901800588608    C1303
    0.6085911046182030    0.9018245733202369    0.3446235133921942    C1304
    0.6085911046182030    0.9018245733202369    0.6779568467255275    C1305
    0.9419244379515362    0.2351579066535703    0.0112901800588608    C1306
    0.9419244379515362    0.2351579066535703    0.3446235133921942    C1307
    0.9419244379515362    0.2351579066535703    0.6779568467255275    C1308
    0.9419244379515362    0.5684912399869035    0.0112901800588608    C1309
    0.9419244379515362    0.5684912399869035    0.3446235133921942    C1310
    0.9419244379515362    0.5684912399869035    0.6779568467255275    C1311
    0.9419244379515362    0.9018245733202369    0.0112901800588608    C1312
    0.9419244379515362    0.9018245733202369    0.3446235133921942    C1313
    0.9419244379515362    0.9018245733202369    0.6779568467255275    C1314
    0.2752577712848696    0.2351579066535703    0.0112901800588608    C1315
    0.2752577712848696    0.2351579066535703    0.3446235133921942    C1316
    0.2752577712848696    0.2351579066535703    0.6779568467255275    C1317
    0.2752577712848696    0.5684912399869035    0.0112901800588608    C1318
    0.2752577712848696    0.5684912399869035    0.3446235133921942    C1319
    0.2752577712848696    0.5684912399869035    0.6779568467255275    C1320
    0.2752577712848696    0.9018245733202369    0.0112901800588608    C1321
    0.2752577712848696    0.9018245733202369    0.3446235133921942    C1322
    0.2752577712848696    0.9018245733202369    0.6779568467255275    C1323
    0.5380732294813234    0.2741684061055250    0.1048633842285689    C1324
    0.5380732294813234    0.2741684061055250    0.4381967175619023    C1325
    0.5380732294813234    0.2741684061055250    0.7715300508952356    C1326
    0.5380732294813234    0.6075017394388582    0.1048633842285689    C1327
    0.5380732294813234    0.6075017394388582    0.4381967175619023    C1328
    0.5380732294813234    0.6075017394388582    0.7715300508952356    C1329
    0.5380732294813234    0.9408350727721916    0.1048633842285689    C1330
    0.5380732294813234    0.9408350727721916    0.4381967175619023    C1331
    0.5380732294813234    0.9408350727721916    0.7715300508952356    C1332
    0.8714065628146568    0.2741684061055250    0.1048633842285689    C1333
    0.8714065628146568    0.2741684061055250    0.4381967175619023    C1334
    0.8714065628146568    0.2741684061055250    0.7715300508952356    C1335
    0.8714065628146568    0.6075017394388582    0.1048633842285689    C1336
    0.8714065628146568    0.6075017394388582    0.4381967175619023    C1337
    0.8714065628146568    0.6075017394388582    0.7715300508952356    C1338
    0.8714065628146568    0.9408350727721916    0.1048633842285689    C1339
    0.8714065628146568    0.9408350727721916    0.4381967175619023    C1340
    0.8714065628146568    0.9408350727721916    0.7715300508952356    C1341
    0.2047398961479900    0.2741684061055250    0.1048633842285689    C1342
    0.2047398961479900    0.2741684061055250    0.4381967175619023    C1343
    0.2047398961479900    0.2741684061055250    0.7715300508952356    C1344
    0.2047398961479900    0.6075017394388582    0.1048633842285689    C1345
    0.2047398961479900    0.6075017394388582    0.4381967175619023    C1346
    0.2047398961479900    0.6075017394388582    0.7715300508952356    C1347
    0.2047398961479900    0.9408350727721916    0.1048633842285689    C1348
    0.2047398961479900    0.9408350727721916    0.4381967175619023    C1349
    0.2047398961479900    0.9408350727721916    0.7715300508952356    C1350
    0.2915633684374066    0.0733208057734311    0.4058767935422860    C1351
    0.2915633684374066    0.0733208057734311    0.7392101268756193    C1352
    0.2915633684374066    0.0733208057734311    0.0725434602089526    C1353
    0.2915633684374066    0.4066541391067644    0.4058767935422860    C1354
    0.2915633684374066    0.4066541391067644    0.7392101268756193    C1355
    0.2915633684374066    0.4066541391067644    0.0725434602089526    C1356
    0.2915633684374066    0.7399874724400977    0.4058767935422860    C1357
    0.2915633684374066    0.7399874724400977    0.7392101268756193    C1358
    0.2915633684374066    0.7399874724400977    0.0725434602089526    C1359
    0.6248967017707400    0.0733208057734311    0.4058767935422860    C1360
    0.6248967017707400    0.0733208057734311    0.7392101268756193    C1361
    0.6248967017707400    0.0733208057734311    0.0725434602089526    C1362
    0.6248967017707400    0.4066541391067644    0.4058767935422860    C1363
    0.6248967017707400    0.4066541391067644    0.7392101268756193    C1364
    0.6248967017707400    0.4066541391067644    0.0725434602089526    C1365
    0.6248967017707400    0.7399874724400977    0.4058767935422860    C1366
    0.6248967017707400    0.7399874724400977    0.7392101268756193    C1367
    0.6248967017707400    0.7399874724400977    0.0725434602089526    C1368
    0.9582300351040732    0.0733208057734311    0.4058767935422860    C1369
    0.9582300351040732    0.0733208057734311    0.7392101268756193    C1370
    0.9582300351040732    0.0733208057734311    0.0725434602089526    C1371
    0.9582300351040732    0.4066541391067644    0.4058767935422860    C1372
    0.9582300351040732    0.4066541391067644    0.7392101268756193    C1373
    0.9582300351040732    0.4066541391067644    0.0725434602089526    C1374
    0.9582300351040732    0.7399874724400977    0.4058767935422860    C1375
    0.9582300351040732    0.7399874724400977    0.7392101268756193    C1376
    0.9582300351040732    0.7399874724400977    0.0725434602089526    C1377
    0.4512783634441340    0.2869808489644672    0.1792756417781843    C1378
    0.4512783634441340    0.2869808489644672    0.5126089751115177    C1379
    0.4512783634441340    0.2869808489644672    0.8459423084448510    C1380
    0.4512783634441340    0.6203141822978006    0.1792756417781843    C1381
    0.4512783634441340    0.6203141822978006    0.5126089751115177    C1382
    0.4512783634441340    0.6203141822978006    0.8459423084448510    C1383
    0.4512783634441340    0.9536475156311338    0.1792756417781843    C1384
    0.4512783634441340    0.9536475156311338    0.5126089751115177    C1385
    0.4512783634441340    0.9536475156311338    0.8459423084448510    C1386
    0.7846116967774673    0.2869808489644672    0.1792756417781843    C1387
    0.7846116967774673    0.2869808489644672    0.5126089751115177    C1388
    0.7846116967774673    0.2869808489644672    0.8459423084448510    C1389
    0.7846116967774673    0.6203141822978006    0.1792756417781843    C1390
    0.7846116967774673    0.6203141822978006    0.5126089751115177    C1391
    0.7846116967774673    0.6203141822978006    0.8459423084448510    C1392
    0.7846116967774673    0.9536475156311338    0.1792756417781843    C1393
    0.7846116967774673    0.9536475156311338    0.5126089751115177    C1394
    0.7846116967774673    0.9536475156311338    0.8459423084448510    C1395
    0.1179450301108006    0.2869808489644672    0.1792756417781843    C1396
    0.1179450301108006    0.2869808489644672    0.5126089751115177    C1397
    0.1179450301108006    0.2869808489644672    0.8459423084448510    C1398
    0.1179450301108006    0.6203141822978006    0.1792756417781843    C1399
    0.1179450301108006    0.6203141822978006    0.5126089751115177    C1400
    0.1179450301108006    0.6203141822978006    0.8459423084448510    C1401
    0.1179450301108006    0.9536475156311338    0.1792756417781843    C1402
    0.1179450301108006    0.9536475156311338    0.5126089751115177    C1403
    0.1179450301108006    0.9536475156311338    0.8459423084448510    C1404
    0.1421754023584085    0.1498620156448351    0.2533548732645015    C1405
    0.1421754023584085    0.1498620156448351    0.5866882065978348    C1406
    0.1421754023584085    0.1498620156448351    0.9200215399311682    C1407
    0.1421754023584085    0.4831953489781684    0.2533548732645015    C1408
    0.1421754023584085    0.4831953489781684    0.5866882065978348    C1409
    0.1421754023584085    0.4831953489781684    0.9200215399311682    C1410
    0.1421754023584085    0.8165286823115018    0.2533548732645015    C1411
    0.1421754023584085    0.8165286823115018    0.5866882065978348    C1412
    0.1421754023584085    0.8165286823115018    0.9200215399311682    C1413
    0.4755087356917418    0.1498620156448351    0.2533548732645015    C1414
    0.4755087356917418    0.1498620156448351    0.5866882065978348    C1415
    0.4755087356917418    0.1498620156448351    0.9200215399311682    C1416
    0.4755087356917418    0.4831953489781684    0.2533548732645015    C1417
    0.4755087356917418    0.4831953489781684    0.5866882065978348    C1418
    0.4755087356917418    0.4831953489781684    0.9200215399311682    C1419
    0.4755087356917418    0.8165286823115018    0.2533548732645015    C1420
    0.4755087356917418    0.8165286823115018    0.5866882065978348    C1421
    0.4755087356917418    0.8165286823115018    0.9200215399311682    C1422
    0.8088420690250752    0.1498620156448351    0.2533548732645015    C1423
    0.8088420690250752    0.1498620156448351    0.5866882065978348    C1424
    0.8088420690250752    0.1498620156448351    0.9200215399311682    C1425
    0.8088420690250752    0.4831953489781684    0.2533548732645015    C1426
    0.8088420690250752    0.4831953489781684    0.5866882065978348    C1427
    0.8088420690250752    0.4831953489781684    0.9200215399311682    C1428
    0.8088420690250752    0.8165286823115018    0.2533548732645015    C1429
    0.8088420690250752    0.8165286823115018    0.5866882065978348    C1430
    0.8088420690250752    0.8165286823115018    0.9200215399311682    C1431
    0.6194366115644752    0.2399899244441441    0.9573567664588496    C1432
    0.6194366115644752    0.2399899244441441    0.2906900997921829    C1433
    0.6194366115644752    0.2399899244441441    0.6240234331255162    C1434
    0.6194366115644752    0.5733232577774774    0.9573567664588496    C1435
    0.6194366115644752    0.5733232577774774    0.2906900997921829    C1436
    0.6194366115644752    0.5733232577774774    0.6240234331255162    C1437
    0.6194366115644752    0.9066565911108107    0.9573567664588496    C1438
    0.6194366115644752    0.9066565911108107    0.2906900997921829    C1439
    0.6194366115644752    0.9066565911108107    0.6240234331255162    C1440
    0.9527699448978085    0.2399899244441441    0.9573567664588496    C1441
    0.9527699448978085    0.2399899244441441    0.2906900997921829    C1442
    0.9527699448978085    0.2399899244441441    0.6240234331255162    C1443
    0.9527699448978085    0.5733232577774774    0.9573567664588496    C1444
    0.9527699448978085    0.5733232577774774    0.2906900997921829    C1445
    0.9527699448978085    0.5733232577774774    0.6240234331255162    C1446
    0.9527699448978085    0.9066565911108107    0.9573567664588496    C1447
    0.9527699448978085    0.9066565911108107    0.2906900997921829    C1448
    0.9527699448978085    0.9066565911108107    0.6240234331255162    C1449
    0.2861032782311418    0.2399899244441441    0.9573567664588496    C1450
    0.2861032782311418    0.2399899244441441    0.2906900997921829    C1451
    0.2861032782311418    0.2399899244441441    0.6240234331255162    C1452
    0.2861032782311418    0.5733232577774774    0.9573567664588496    C1453
    0.2861032782311418    0.5733232577774774    0.2906900997921829    C1454
    0.2861032782311418    0.5733232577774774    0.6240234331255162    C1455
    0.2861032782311418    0.9066565911108107    0.9573567664588496    C1456
    0.2861032782311418    0.9066565911108107    0.2906900997921829    C1457
    0.2861032782311418    0.9066565911108107    0.6240234331255162    C1458
    0.2090812696912283    0.1560567383679647    0.2864125103587338    C1459
    0.2090812696912283    0.1560567383679647    0.6197458436920672    C1460
    0.2090812696912283    0.1560567383679647    0.9530791770254005    C1461
    0.2090812696912283    0.4893900717012980    0.2864125103587338    C1462
    0.2090812696912283    0.4893900717012980    0.6197458436920672    C1463
    0.2090812696912283    0.4893900717012980    0.9530791770254005    C1464
    0.2090812696912283    0.8227234050346313    0.2864125103587338    C1465
    0.2090812696912283    0.8227234050346313    0.6197458436920672    C1466
    0.2090812696912283    0.8227234050346313    0.9530791770254005    C1467
    0.5424146030245617    0.1560567383679647    0.2864125103587338    C1468
    0.5424146030245617    0.1560567383679647    0.6197458436920672    C1469
    0.5424146030245617    0.1560567383679647    0.9530791770254005    C1470
    0.5424146030245617    0.4893900717012980    0.2864125103587338    C1471
    0.5424146030245617    0.4893900717012980    0.6197458436920672    C1472
    0.5424146030245617    0.4893900717012980    0.9530791770254005    C1473
    0.5424146030245617    0.8227234050346313    0.2864125103587338    C1474
    0.5424146030245617    0.8227234050346313    0.6197458436920672    C1475
    0.5424146030245617    0.8227234050346313    0.9530791770254005    C1476
    0.8757479363578949    0.1560567383679647    0.2864125103587338    C1477
    0.8757479363578949    0.1560567383679647    0.6197458436920672    C1478
    0.8757479363578949    0.1560567383679647    0.9530791770254005    C1479
    0.8757479363578949    0.4893900717012980    0.2864125103587338    C1480
    0.8757479363578949    0.4893900717012980    0.6197458436920672    C1481
    0.8757479363578949    0.4893900717012980    0.9530791770254005    C1482
    0.8757479363578949    0.8227234050346313    0.2864125103587338    C1483
    0.8757479363578949    0.8227234050346313    0.6197458436920672    C1484
    0.8757479363578949    0.8227234050346313    0.9530791770254005    C1485
    0.1378410349662742    0.3361988524060242    0.8745132572184295    C1486
    0.1378410349662742    0.3361988524060242    0.2078465905517629    C1487
    0.1378410349662742    0.3361988524060242    0.5411799238850963    C1488
    0.1378410349662742    0.6695321857393575    0.8745132572184295    C1489
    0.1378410349662742    0.6695321857393575    0.2078465905517629    C1490
    0.1378410349662742    0.6695321857393575    0.5411799238850963    C1491
    0.1378410349662742    0.0028655190726908    0.8745132572184295    C1492
    0.1378410349662742    0.0028655190726908    0.2078465905517629    C1493
    0.1378410349662742    0.0028655190726908    0.5411799238850963    C1494
    0.4711743682996075    0.3361988524060242    0.8745132572184295    C1495
    0.4711743682996075    0.3361988524060242    0.2078465905517629    C1496
    0.4711743682996075    0.3361988524060242    0.5411799238850963    C1497
    0.4711743682996075    0.6695321857393575    0.8745132572184295    C1498
    0.4711743682996075    0.6695321857393575    0.2078465905517629    C1499
    0.4711743682996075    0.6695321857393575    0.5411799238850963    C1500
    0.4711743682996075    0.0028655190726908    0.8745132572184295    C1501
    0.4711743682996075    0.0028655190726908    0.2078465905517629    C1502
    0.4711743682996075    0.0028655190726908    0.5411799238850963    C1503
    0.8045077016329408    0.3361988524060242    0.8745132572184295    C1504
    0.8045077016329408    0.3361988524060242    0.2078465905517629    C1505
    0.8045077016329408    0.3361988524060242    0.5411799238850963    C1506
    0.8045077016329408    0.6695321857393575    0.8745132572184295    C1507
    0.8045077016329408    0.6695321857393575    0.2078465905517629    C1508
    0.8045077016329408    0.6695321857393575    0.5411799238850963    C1509
    0.8045077016329408    0.0028655190726908    0.8745132572184295    C1510
    0.8045077016329408    0.0028655190726908    0.2078465905517629    C1511
    0.8045077016329408    0.0028655190726908    0.5411799238850963    C1512
    0.3804438666226820    0.0391561013512648    0.1180542832160801    C1513
    0.3804438666226820    0.0391561013512648    0.4513876165494135    C1514
    0.3804438666226820    0.0391561013512648    0.7847209498827468    C1515
    0.3804438666226820    0.3724894346845982    0.1180542832160801    C1516
    0.3804438666226820    0.3724894346845982    0.4513876165494135    C1517
    0.3804438666226820    0.3724894346845982    0.7847209498827468    C1518
    0.3804438666226820    0.7058227680179314    0.1180542832160801    C1519
    0.3804438666226820    0.7058227680179314    0.4513876165494135    C1520
    0.3804438666226820    0.7058227680179314    0.7847209498827468    C1521
    0.7137771999560154    0.0391561013512648    0.1180542832160801    C1522
    0.7137771999560154    0.0391561013512648    0.4513876165494135    C1523
    0.7137771999560154    0.0391561013512648    0.7847209498827468    C1524
    0.7137771999560154    0.3724894346845982    0.1180542832160801    C1525
    0.7137771999560154    0.3724894346845982    0.4513876165494135    C1526
    0.7137771999560154    0.3724894346845982    0.7847209498827468    C1527
    0.7137771999560154    0.7058227680179314    0.1180542832160801    C1528
    0.7137771999560154    0.7058227680179314    0.4513876165494135    C1529
    0.7137771999560154    0.7058227680179314    0.7847209498827468    C1530
    0.0471105332893487    0.0391561013512648    0.1180542832160801    C1531
    0.0471105332893487    0.0391561013512648    0.4513876165494135    C1532
    0.0471105332893487    0.0391561013512648    0.7847209498827468    C1533
    0.0471105332893487    0.3724894346845982    0.1180542832160801    C1534
    0.0471105332893487    0.3724894346845982    0.4513876165494135    C1535
    0.0471105332893487    0.3724894346845982    0.7847209498827468    C1536
    0.0471105332893487    0.7058227680179314    0.1180542832160801    C1537
    0.0471105332893487    0.7058227680179314    0.4513876165494135    C1538
    0.0471105332893487    0.7058227680179314    0.7847209498827468    C1539
    0.1823967727227952    0.1327324061749977    0.2320045948923480    C1540
    0.1823967727227952    0.1327324061749977    0.5653379282256814    C1541
    0.1823967727227952    0.1327324061749977    0.8986712615590147    C1542
    0.1823967727227952    0.4660657395083310    0.2320045948923480    C1543
    0.1823967727227952    0.4660657395083310    0.5653379282256814    C1544
    0.1823967727227952    0.4660657395083310    0.8986712615590147    C1545
    0.1823967727227952    0.7993990728416642    0.2320045948923480    C1546
    0.1823967727227952    0.7993990728416642    0.5653379282256814    C1547
    0.1823967727227952    0.7993990728416642    0.8986712615590147    C1548
    0.5157301060561286    0.1327324061749977    0.2320045948923480    C1549
    0.5157301060561286    0.1327324061749977    0.5653379282256814    C1550
    0.5157301060561286    0.1327324061749977    0.8986712615590147    C1551
    0.5157301060561286    0.4660657395083310    0.2320045948923480    C1552
    0.5157301060561286    0.4660657395083310    0.5653379282256814    C1553
    0.5157301060561286    0.4660657395083310    0.8986712615590147    C1554
    0.5157301060561286    0.7993990728416642    0.2320045948923480    C1555
    0.5157301060561286    0.7993990728416642    0.5653379282256814    C1556
    0.5157301060561286    0.7993990728416642    0.8986712615590147    C1557
    0.8490634393894618    0.1327324061749977    0.2320045948923480    C1558
    0.8490634393894618    0.1327324061749977    0.5653379282256814    C1559
    0.8490634393894618    0.1327324061749977    0.8986712615590147    C1560
    0.8490634393894618    0.4660657395083310    0.2320045948923480    C1561
    0.8490634393894618    0.4660657395083310    0.5653379282256814    C1562
    0.8490634393894618    0.4660657395083310    0.8986712615590147    C1563
    0.8490634393894618    0.7993990728416642    0.2320045948923480    C1564
    0.8490634393894618    0.7993990728416642    0.5653379282256814    C1565
    0.8490634393894618    0.7993990728416642    0.8986712615590147    C1566
    0.4540585221784588    0.2509064904916322    0.0445242260952868    C1567
    0.4540585221784588    0.2509064904916322    0.3778575594286202    C1568
    0.4540585221784588    0.2509064904916322    0.7111908927619535    C1569
    0.4540585221784588    0.5842398238249654    0.0445242260952868    C1570
    0.4540585221784588    0.5842398238249654    0.3778575594286202    C1571
    0.4540585221784588    0.5842398238249654    0.7111908927619535    C1572
    0.4540585221784588    0.9175731571582987    0.0445242260952868    C1573
    0.4540585221784588    0.9175731571582987    0.3778575594286202    C1574
    0.4540585221784588    0.9175731571582987    0.7111908927619535    C1575
    0.7873918555117920    0.2509064904916322    0.0445242260952868    C1576
    0.7873918555117920    0.2509064904916322    0.3778575594286202    C1577
    0.7873918555117920    0.2509064904916322    0.7111908927619535    C1578
    0.7873918555117920    0.5842398238249654    0.0445242260952868    C1579
    0.7873918555117920    0.5842398238249654    0.3778575594286202    C1580
    0.7873918555117920    0.5842398238249654    0.7111908927619535    C1581
    0.7873918555117920    0.9175731571582987    0.0445242260952868    C1582
    0.7873918555117920    0.9175731571582987    0.3778575594286202    C1583
    0.7873918555117920    0.9175731571582987    0.7111908927619535    C1584
    0.1207251888451254    0.2509064904916322    0.0445242260952868    C1585
    0.1207251888451254    0.2509064904916322    0.3778575594286202    C1586
    0.1207251888451254    0.2509064904916322    0.7111908927619535    C1587
    0.1207251888451254    0.5842398238249654    0.0445242260952868    C1588
    0.1207251888451254    0.5842398238249654    0.3778575594286202    C1589
    0.1207251888451254    0.5842398238249654    0.7111908927619535    C1590
    0.1207251888451254    0.9175731571582987    0.0445242260952868    C1591
    0.1207251888451254    0.9175731571582987    0.3778575594286202    C1592
    0.1207251888451254    0.9175731571582987    0.7111908927619535    C1593
    0.1810575647849173    0.1027503367486967    0.2471813261177961    C1594
    0.1810575647849173    0.1027503367486967    0.5805146594511295    C1595
    0.1810575647849173    0.1027503367486967    0.9138479927844627    C1596
    0.1810575647849173    0.4360836700820301    0.2471813261177961    C1597
    0.1810575647849173    0.4360836700820301    0.5805146594511295    C1598
    0.1810575647849173    0.4360836700820301    0.9138479927844627    C1599
    0.1810575647849173    0.7694170034153633    0.2471813261177961    C1600
    0.1810575647849173    0.7694170034153633    0.5805146594511295    C1601
    0.1810575647849173    0.7694170034153633    0.9138479927844627    C1602
    0.5143908981182507    0.1027503367486967    0.2471813261177961    C1603
    0.5143908981182507    0.1027503367486967    0.5805146594511295    C1604
    0.5143908981182507    0.1027503367486967    0.9138479927844627    C1605
    0.5143908981182507    0.4360836700820301    0.2471813261177961    C1606
    0.5143908981182507    0.4360836700820301    0.5805146594511295    C1607
    0.5143908981182507    0.4360836700820301    0.9138479927844627    C1608
    0.5143908981182507    0.7694170034153633    0.2471813261177961    C1609
    0.5143908981182507    0.7694170034153633    0.5805146594511295    C1610
    0.5143908981182507    0.7694170034153633    0.9138479927844627    C1611
    0.8477242314515840    0.1027503367486967    0.2471813261177961    C1612
    0.8477242314515840    0.1027503367486967    0.5805146594511295    C1613
    0.8477242314515840    0.1027503367486967    0.9138479927844627    C1614
    0.8477242314515840    0.4360836700820301    0.2471813261177961    C1615
    0.8477242314515840    0.4360836700820301    0.5805146594511295    C1616
    0.8477242314515840    0.4360836700820301    0.9138479927844627    C1617
    0.8477242314515840    0.7694170034153633    0.2471813261177961    C1618
    0.8477242314515840    0.7694170034153633    0.5805146594511295    C1619
    0.8477242314515840    0.7694170034153633    0.9138479927844627    C1620
    0.5519735820602272    0.0447124431147892    0.4526043656616187    C1621
    0.5519735820602272    0.0447124431147892    0.7859376989949520    C1622
    0.5519735820602272    0.0447124431147892    0.1192710323282853    C1623
    0.5519735820602272    0.3780457764481224    0.4526043656616187    C1624
    0.5519735820602272    0.3780457764481224    0.7859376989949520    C1625
    0.5519735820602272    0.3780457764481224    0.1192710323282853    C1626
    0.5519735820602272    0.7113791097814558    0.4526043656616187    C1627
    0.5519735820602272    0.7113791097814558    0.7859376989949520    C1628
    0.5519735820602272    0.7113791097814558    0.1192710323282853    C1629
    0.8853069153935605    0.0447124431147892    0.4526043656616187    C1630
    0.8853069153935605    0.0447124431147892    0.7859376989949520    C1631
    0.8853069153935605    0.0447124431147892    0.1192710323282853    C1632
    0.8853069153935605    0.3780457764481224    0.4526043656616187    C1633
    0.8853069153935605    0.3780457764481224    0.7859376989949520    C1634
    0.8853069153935605    0.3780457764481224    0.1192710323282853    C1635
    0.8853069153935605    0.7113791097814558    0.4526043656616187    C1636
    0.8853069153935605    0.7113791097814558    0.7859376989949520    C1637
    0.8853069153935605    0.7113791097814558    0.1192710323282853    C1638
    0.2186402487268938    0.0447124431147892    0.4526043656616187    C1639
    0.2186402487268938    0.0447124431147892    0.7859376989949520    C1640
    0.2186402487268938    0.0447124431147892    0.1192710323282853    C1641
    0.2186402487268938    0.3780457764481224    0.4526043656616187    C1642
    0.2186402487268938    0.3780457764481224    0.7859376989949520    C1643
    0.2186402487268938    0.3780457764481224    0.1192710323282853    C1644
    0.2186402487268938    0.7113791097814558    0.4526043656616187    C1645
    0.2186402487268938    0.7113791097814558    0.7859376989949520    C1646
    0.2186402487268938    0.7113791097814558    0.1192710323282853    C1647
    0.0883232406456659    0.0879018094879076    0.3043315375100772    C1648
    0.0883232406456659    0.0879018094879076    0.6376648708434106    C1649
    0.0883232406456659    0.0879018094879076    0.9709982041767440    C1650
    0.0883232406456659    0.4212351428212409    0.3043315375100772    C1651
    0.0883232406456659    0.4212351428212409    0.6376648708434106    C1652
    0.0883232406456659    0.4212351428212409    0.9709982041767440    C1653
    0.0883232406456659    0.7545684761545741    0.3043315375100772    C1654
    0.0883232406456659    0.7545684761545741    0.6376648708434106    C1655
    0.0883232406456659    0.7545684761545741    0.9709982041767440    C1656
    0.4216565739789992    0.0879018094879076    0.3043315375100772    C1657
    0.4216565739789992    0.0879018094879076    0.6376648708434106    C1658
    0.4216565739789992    0.0879018094879076    0.9709982041767440    C1659
    0.4216565739789992    0.4212351428212409    0.3043315375100772    C1660
    0.4216565739789992    0.4212351428212409    0.6376648708434106    C1661
    0.4216565739789992    0.4212351428212409    0.9709982041767440    C1662
    0.4216565739789992    0.7545684761545741    0.3043315375100772    C1663
    0.4216565739789992    0.7545684761545741    0.6376648708434106    C1664
    0.4216565739789992    0.7545684761545741    0.9709982041767440    C1665
    0.7549899073123325    0.0879018094879076    0.3043315375100772    C1666
    0.7549899073123325    0.0879018094879076    0.6376648708434106    C1667
    0.7549899073123325    0.0879018094879076    0.9709982041767440    C1668
    0.7549899073123325    0.4212351428212409    0.3043315375100772    C1669
    0.7549899073123325    0.4212351428212409    0.6376648708434106    C1670
    0.7549899073123325    0.4212351428212409    0.9709982041767440    C1671
    0.7549899073123325    0.7545684761545741    0.3043315375100772    C1672
    0.7549899073123325    0.7545684761545741    0.6376648708434106    C1673
    0.7549899073123325    0.7545684761545741    0.9709982041767440    C1674
    0.3257611932519424    0.1507424610013446    0.2464152844038197    C1675
    0.3257611932519424    0.1507424610013446    0.5797486177371529    C1676
    0.3257611932519424    0.1507424610013446    0.9130819510704863    C1677
    0.3257611932519424    0.4840757943346778    0.2464152844038197    C1678
    0.3257611932519424    0.4840757943346778    0.5797486177371529    C1679
    0.3257611932519424    0.4840757943346778    0.9130819510704863    C1680
    0.3257611932519424    0.8174091276680112    0.2464152844038197    C1681
    0.3257611932519424    0.8174091276680112    0.5797486177371529    C1682
    0.3257611932519424    0.8174091276680112    0.9130819510704863    C1683
    0.6590945265852758    0.1507424610013446    0.2464152844038197    C1684
    0.6590945265852758    0.1507424610013446    0.5797486177371529    C1685
    0.6590945265852758    0.1507424610013446    0.9130819510704863    C1686
    0.6590945265852758    0.4840757943346778    0.2464152844038197    C1687
    0.6590945265852758    0.4840757943346778    0.5797486177371529    C1688
    0.6590945265852758    0.4840757943346778    0.9130819510704863    C1689
    0.6590945265852758    0.8174091276680112    0.2464152844038197    C1690
    0.6590945265852758    0.8174091276680112    0.5797486177371529    C1691
    0.6590945265852758    0.8174091276680112    0.9130819510704863    C1692
    0.9924278599186090    0.1507424610013446    0.2464152844038197    C1693
    0.9924278599186090    0.1507424610013446    0.5797486177371529    C1694
    0.9924278599186090    0.1507424610013446    0.9130819510704863    C1695
    0.9924278599186090    0.4840757943346778    0.2464152844038197    C1696
    0.9924278599186090    0.4840757943346778    0.5797486177371529    C1697
    0.9924278599186090    0.4840757943346778    0.9130819510704863    C1698
    0.9924278599186090    0.8174091276680112    0.2464152844038197    C1699
    0.9924278599186090    0.8174091276680112    0.5797486177371529    C1700
    0.9924278599186090    0.8174091276680112    0.9130819510704863    C1701
    0.2867432076454336    0.1721392851973758    0.2589543578349981    C1702
    0.2867432076454336    0.1721392851973758    0.5922876911683315    C1703
    0.2867432076454336    0.1721392851973758    0.9256210245016647    C1704
    0.2867432076454336    0.5054726185307090    0.2589543578349981    C1705
    0.2867432076454336    0.5054726185307090    0.5922876911683315    C1706
    0.2867432076454336    0.5054726185307090    0.9256210245016647    C1707
    0.2867432076454336    0.8388059518640424    0.2589543578349981    C1708
    0.2867432076454336    0.8388059518640424    0.5922876911683315    C1709
    0.2867432076454336    0.8388059518640424    0.9256210245016647    C1710
    0.6200765409787670    0.1721392851973758    0.2589543578349981    C1711
    0.6200765409787670    0.1721392851973758    0.5922876911683315    C1712
    0.6200765409787670    0.1721392851973758    0.9256210245016647    C1713
    0.6200765409787670    0.5054726185307090    0.2589543578349981    C1714
    0.6200765409787670    0.5054726185307090    0.5922876911683315    C1715
    0.6200765409787670    0.5054726185307090    0.9256210245016647    C1716
    0.6200765409787670    0.8388059518640424    0.2589543578349981    C1717
    0.6200765409787670    0.8388059518640424    0.5922876911683315    C1718
    0.6200765409787670    0.8388059518640424    0.9256210245016647    C1719
    0.9534098743121002    0.1721392851973758    0.2589543578349981    C1720
    0.9534098743121002    0.1721392851973758    0.5922876911683315    C1721
    0.9534098743121002    0.1721392851973758    0.9256210245016647    C1722
    0.9534098743121002    0.5054726185307090    0.2589543578349981    C1723
    0.9534098743121002    0.5054726185307090    0.5922876911683315    C1724
    0.9534098743121002    0.5054726185307090    0.9256210245016647    C1725
    0.9534098743121002    0.8388059518640424    0.2589543578349981    C1726
    0.9534098743121002    0.8388059518640424    0.5922876911683315    C1727
    0.9534098743121002    0.8388059518640424    0.9256210245016647    C1728
    0.2436444900256598    0.1089397480064925    0.3666405514320484    C1729
    0.2436444900256598    0.1089397480064925    0.6999738847653818    C1730
    0.2436444900256598    0.1089397480064925    0.0333072180987151    C1731
    0.2436444900256598    0.4422730813398259    0.3666405514320484    C1732
    0.2436444900256598    0.4422730813398259    0.6999738847653818    C1733
    0.2436444900256598    0.4422730813398259    0.0333072180987151    C1734
    0.2436444900256598    0.7756064146731592    0.3666405514320484    C1735
    0.2436444900256598    0.7756064146731592    0.6999738847653818    C1736
    0.2436444900256598    0.7756064146731592    0.0333072180987151    C1737
    0.5769778233589931    0.1089397480064925    0.3666405514320484    C1738
    0.5769778233589931    0.1089397480064925    0.6999738847653818    C1739
    0.5769778233589931    0.1089397480064925    0.0333072180987151    C1740
    0.5769778233589931    0.4422730813398259    0.3666405514320484    C1741
    0.5769778233589931    0.4422730813398259    0.6999738847653818    C1742
    0.5769778233589931    0.4422730813398259    0.0333072180987151    C1743
    0.5769778233589931    0.7756064146731592    0.3666405514320484    C1744
    0.5769778233589931    0.7756064146731592    0.6999738847653818    C1745
    0.5769778233589931    0.7756064146731592    0.0333072180987151    C1746
    0.9103111566923264    0.1089397480064925    0.3666405514320484    C1747
    0.9103111566923264    0.1089397480064925    0.6999738847653818    C1748
    0.9103111566923264    0.1089397480064925    0.0333072180987151    C1749
    0.9103111566923264    0.4422730813398259    0.3666405514320484    C1750
    0.9103111566923264    0.4422730813398259    0.6999738847653818    C1751
    0.9103111566923264    0.4422730813398259    0.0333072180987151    C1752
    0.9103111566923264    0.7756064146731592    0.3666405514320484    C1753
    0.9103111566923264    0.7756064146731592    0.6999738847653818    C1754
    0.9103111566923264    0.7756064146731592    0.0333072180987151    C1755
    0.3724465841930317    0.1245449833001117    0.1821753082570282    C1756
    0.3724465841930317    0.1245449833001117    0.5155086415903616    C1757
    0.3724465841930317    0.1245449833001117    0.8488419749236948    C1758
    0.3724465841930317    0.4578783166334450    0.1821753082570282    C1759
    0.3724465841930317    0.4578783166334450    0.5155086415903616    C1760
    0.3724465841930317    0.4578783166334450    0.8488419749236948    C1761
    0.3724465841930317    0.7912116499667784    0.1821753082570282    C1762
    0.3724465841930317    0.7912116499667784    0.5155086415903616    C1763
    0.3724465841930317    0.7912116499667784    0.8488419749236948    C1764
    0.7057799175263650    0.1245449833001117    0.1821753082570282    C1765
    0.7057799175263650    0.1245449833001117    0.5155086415903616    C1766
    0.7057799175263650    0.1245449833001117    0.8488419749236948    C1767
    0.7057799175263650    0.4578783166334450    0.1821753082570282    C1768
    0.7057799175263650    0.4578783166334450    0.5155086415903616    C1769
    0.7057799175263650    0.4578783166334450    0.8488419749236948    C1770
    0.7057799175263650    0.7912116499667784    0.1821753082570282    C1771
    0.7057799175263650    0.7912116499667784    0.5155086415903616    C1772
    0.7057799175263650    0.7912116499667784    0.8488419749236948    C1773
    0.0391132508596983    0.1245449833001117    0.1821753082570282    C1774
    0.0391132508596983    0.1245449833001117    0.5155086415903616    C1775
    0.0391132508596983    0.1245449833001117    0.8488419749236948    C1776
    0.0391132508596983    0.4578783166334450    0.1821753082570282    C1777
    0.0391132508596983    0.4578783166334450    0.5155086415903616    C1778
    0.0391132508596983    0.4578783166334450    0.8488419749236948    C1779
    0.0391132508596983    0.7912116499667784    0.1821753082570282    C1780
    0.0391132508596983    0.7912116499667784    0.5155086415903616    C1781
    0.0391132508596983    0.7912116499667784    0.8488419749236948    C1782
    0.2460165718657764    0.0644544396616173    0.4563223414630495    C1783
    0.2460165718657764    0.0644544396616173    0.7896556747963828    C1784
    0.2460165718657764    0.0644544396616173    0.1229890081297161    C1785
    0.2460165718657764    0.3977877729949507    0.4563223414630495    C1786
    0.2460165718657764    0.3977877729949507    0.7896556747963828    C1787
    0.2460165718657764    0.3977877729949507    0.1229890081297161    C1788
    0.2460165718657764    0.7311211063282841    0.4563223414630495    C1789
    0.2460165718657764    0.7311211063282841    0.7896556747963828    C1790
    0.2460165718657764    0.7311211063282841    0.1229890081297161    C1791
    0.5793499051991098    0.0644544396616173    0.4563223414630495    C1792
    0.5793499051991098    0.0644544396616173    0.7896556747963828    C1793
    0.5793499051991098    0.0644544396616173    0.1229890081297161    C1794
    0.5793499051991098    0.3977877729949507    0.4563223414630495    C1795
    0.5793499051991098    0.3977877729949507    0.7896556747963828    C1796
    0.5793499051991098    0.3977877729949507    0.1229890081297161    C1797
    0.5793499051991098    0.7311211063282841    0.4563223414630495    C1798
    0.5793499051991098    0.7311211063282841    0.7896556747963828    C1799
    0.5793499051991098    0.7311211063282841    0.1229890081297161    C1800
    0.9126832385324430    0.0644544396616173    0.4563223414630495    C1801
    0.9126832385324430    0.0644544396616173    0.7896556747963828    C1802
    0.9126832385324430    0.0644544396616173    0.1229890081297161    C1803
    0.9126832385324430    0.3977877729949507    0.4563223414630495    C1804
    0.9126832385324430    0.3977877729949507    0.7896556747963828    C1805
    0.9126832385324430    0.3977877729949507    0.1229890081297161    C1806
    0.9126832385324430    0.7311211063282841    0.4563223414630495    C1807
    0.9126832385324430    0.7311211063282841    0.7896556747963828    C1808
    0.9126832385324430    0.7311211063282841    0.1229890081297161    C1809
    0.5172335422257228    0.2496850452799064    0.1203252510731171    C1810
    0.5172335422257228    0.2496850452799064    0.4536585844064503    C1811
    0.5172335422257228    0.2496850452799064    0.7869919177397837    C1812
    0.5172335422257228    0.5830183786132398    0.1203252510731171    C1813
    0.5172335422257228    0.5830183786132398    0.4536585844064503    C1814
    0.5172335422257228    0.5830183786132398    0.7869919177397837    C1815
    0.5172335422257228    0.9163517119465732    0.1203252510731171    C1816
    0.5172335422257228    0.9163517119465732    0.4536585844064503    C1817
    0.5172335422257228    0.9163517119465732    0.7869919177397837    C1818
    0.8505668755590561    0.2496850452799064    0.1203252510731171    C1819
    0.8505668755590561    0.2496850452799064    0.4536585844064503    C1820
    0.8505668755590561    0.2496850452799064    0.7869919177397837    C1821
    0.8505668755590561    0.5830183786132398    0.1203252510731171    C1822
    0.8505668755590561    0.5830183786132398    0.4536585844064503    C1823
    0.8505668755590561    0.5830183786132398    0.7869919177397837    C1824
    0.8505668755590561    0.9163517119465732    0.1203252510731171    C1825
    0.8505668755590561    0.9163517119465732    0.4536585844064503    C1826
    0.8505668755590561    0.9163517119465732    0.7869919177397837    C1827
    0.1839002088923894    0.2496850452799064    0.1203252510731171    C1828
    0.1839002088923894    0.2496850452799064    0.4536585844064503    C1829
    0.1839002088923894    0.2496850452799064    0.7869919177397837    C1830
    0.1839002088923894    0.5830183786132398    0.1203252510731171    C1831
    0.1839002088923894    0.5830183786132398    0.4536585844064503    C1832
    0.1839002088923894    0.5830183786132398    0.7869919177397837    C1833
    0.1839002088923894    0.9163517119465732    0.1203252510731171    C1834
    0.1839002088923894    0.9163517119465732    0.4536585844064503    C1835
    0.1839002088923894    0.9163517119465732    0.7869919177397837    C1836
    0.2752946023935665    0.0833116926176682    0.3641381299734221    C1837
    0.2752946023935665    0.0833116926176682    0.6974714633067554    C1838
    0.2752946023935665    0.0833116926176682    0.0308047966400887    C1839
    0.2752946023935665    0.4166450259510016    0.3641381299734221    C1840
    0.2752946023935665    0.4166450259510016    0.6974714633067554    C1841
    0.2752946023935665    0.4166450259510016    0.0308047966400887    C1842
    0.2752946023935665    0.7499783592843350    0.3641381299734221    C1843
    0.2752946023935665    0.7499783592843350    0.6974714633067554    C1844
    0.2752946023935665    0.7499783592843350    0.0308047966400887    C1845
    0.6086279357268998    0.0833116926176682    0.3641381299734221    C1846
    0.6086279357268998    0.0833116926176682    0.6974714633067554    C1847
    0.6086279357268998    0.0833116926176682    0.0308047966400887    C1848
    0.6086279357268998    0.4166450259510016    0.3641381299734221    C1849
    0.6086279357268998    0.4166450259510016    0.6974714633067554    C1850
    0.6086279357268998    0.4166450259510016    0.0308047966400887    C1851
    0.6086279357268998    0.7499783592843350    0.3641381299734221    C1852
    0.6086279357268998    0.7499783592843350    0.6974714633067554    C1853
    0.6086279357268998    0.7499783592843350    0.0308047966400887    C1854
    0.9419612690602330    0.0833116926176682    0.3641381299734221    C1855
    0.9419612690602330    0.0833116926176682    0.6974714633067554    C1856
    0.9419612690602330    0.0833116926176682    0.0308047966400887    C1857
    0.9419612690602330    0.4166450259510016    0.3641381299734221    C1858
    0.9419612690602330    0.4166450259510016    0.6974714633067554    C1859
    0.9419612690602330    0.4166450259510016    0.0308047966400887    C1860
    0.9419612690602330    0.7499783592843350    0.3641381299734221    C1861
    0.9419612690602330    0.7499783592843350    0.6974714633067554    C1862
    0.9419612690602330    0.7499783592843350    0.0308047966400887    C1863
    0.2362135951473564    0.1674611682116462    0.3021199296555939    C1864
    0.2362135951473564    0.1674611682116462    0.6354532629889271    C1865
    0.2362135951473564    0.1674611682116462    0.9687865963222604    C1866
    0.2362135951473564    0.5007945015449796    0.3021199296555939    C1867
    0.2362135951473564    0.5007945015449796    0.6354532629889271    C1868
    0.2362135951473564    0.5007945015449796    0.9687865963222604    C1869
    0.2362135951473564    0.8341278348783130    0.3021199296555939    C1870
    0.2362135951473564    0.8341278348783130    0.6354532629889271    C1871
    0.2362135951473564    0.8341278348783130    0.9687865963222604    C1872
    0.5695469284806898    0.1674611682116462    0.3021199296555939    C1873
    0.5695469284806898    0.1674611682116462    0.6354532629889271    C1874
    0.5695469284806898    0.1674611682116462    0.9687865963222604    C1875
    0.5695469284806898    0.5007945015449796    0.3021199296555939    C1876
    0.5695469284806898    0.5007945015449796    0.6354532629889271    C1877
    0.5695469284806898    0.5007945015449796    0.9687865963222604    C1878
    0.5695469284806898    0.8341278348783130    0.3021199296555939    C1879
    0.5695469284806898    0.8341278348783130    0.6354532629889271    C1880
    0.5695469284806898    0.8341278348783130    0.9687865963222604    C1881
    0.9028802618140230    0.1674611682116462    0.3021199296555939    C1882
    0.9028802618140230    0.1674611682116462    0.6354532629889271    C1883
    0.9028802618140230    0.1674611682116462    0.9687865963222604    C1884
    0.9028802618140230    0.5007945015449796    0.3021199296555939    C1885
    0.9028802618140230    0.5007945015449796    0.6354532629889271    C1886
    0.9028802618140230    0.5007945015449796    0.9687865963222604    C1887
    0.9028802618140230    0.8341278348783130    0.3021199296555939    C1888
    0.9028802618140230    0.8341278348783130    0.6354532629889271    C1889
    0.9028802618140230    0.8341278348783130    0.9687865963222604    C1890
    0.3070834525556843    0.8292411743011687    0.4003462411523846    C1891
    0.3070834525556843    0.8292411743011687    0.7336795744857180    C1892
    0.3070834525556843    0.8292411743011687    0.0670129078190513    C1893
    0.3070834525556843    0.1625745076345020    0.4003462411523846    C1894
    0.3070834525556843    0.1625745076345020    0.7336795744857180    C1895
    0.3070834525556843    0.1625745076345020    0.0670129078190513    C1896
    0.3070834525556843    0.4959078409678352    0.4003462411523846    C1897
    0.3070834525556843    0.4959078409678352    0.7336795744857180    C1898
    0.3070834525556843    0.4959078409678352    0.0670129078190513    C1899
    0.6404167858890175    0.8292411743011687    0.4003462411523846    C1900
    0.6404167858890175    0.8292411743011687    0.7336795744857180    C1901
    0.6404167858890175    0.8292411743011687    0.0670129078190513    C1902
    0.6404167858890175    0.1625745076345020    0.4003462411523846    C1903
    0.6404167858890175    0.1625745076345020    0.7336795744857180    C1904
    0.6404167858890175    0.1625745076345020    0.0670129078190513    C1905
    0.6404167858890175    0.4959078409678352    0.4003462411523846    C1906
    0.6404167858890175    0.4959078409678352    0.7336795744857180    C1907
    0.6404167858890175    0.4959078409678352    0.0670129078190513    C1908
    0.9737501192223509    0.8292411743011687    0.4003462411523846    C1909
    0.9737501192223509    0.8292411743011687    0.7336795744857180    C1910
    0.9737501192223509    0.8292411743011687    0.0670129078190513    C1911
    0.9737501192223509    0.1625745076345020    0.4003462411523846    C1912
    0.9737501192223509    0.1625745076345020    0.7336795744857180    C1913
    0.9737501192223509    0.1625745076345020    0.0670129078190513    C1914
    0.9737501192223509    0.4959078409678352    0.4003462411523846    C1915
    0.9737501192223509    0.4959078409678352    0.7336795744857180    C1916
    0.9737501192223509    0.4959078409678352    0.0670129078190513    C1917
    0.2631753901440630    0.1322409720299182    0.3610994115942683    C1918
    0.2631753901440630    0.1322409720299182    0.6944327449276017    C1919
    0.2631753901440630    0.1322409720299182    0.0277660782609349    C1920
    0.2631753901440630    0.4655743053632515    0.3610994115942683    C1921
    0.2631753901440630    0.4655743053632515    0.6944327449276017    C1922
    0.2631753901440630    0.4655743053632515    0.0277660782609349    C1923
    0.2631753901440630    0.7989076386965849    0.3610994115942683    C1924
    0.2631753901440630    0.7989076386965849    0.6944327449276017    C1925
    0.2631753901440630    0.7989076386965849    0.0277660782609349    C1926
    0.5965087234773964    0.1322409720299182    0.3610994115942683    C1927
    0.5965087234773964    0.1322409720299182    0.6944327449276017    C1928
    0.5965087234773964    0.1322409720299182    0.0277660782609349    C1929
    0.5965087234773964    0.4655743053632515    0.3610994115942683    C1930
    0.5965087234773964    0.4655743053632515    0.6944327449276017    C1931
    0.5965087234773964    0.4655743053632515    0.0277660782609349    C1932
    0.5965087234773964    0.7989076386965849    0.3610994115942683    C1933
    0.5965087234773964    0.7989076386965849    0.6944327449276017    C1934
    0.5965087234773964    0.7989076386965849    0.0277660782609349    C1935
    0.9298420568107296    0.1322409720299182    0.3610994115942683    C1936
    0.9298420568107296    0.1322409720299182    0.6944327449276017    C1937
    0.9298420568107296    0.1322409720299182    0.0277660782609349    C1938
    0.9298420568107296    0.4655743053632515    0.3610994115942683    C1939
    0.9298420568107296    0.4655743053632515    0.6944327449276017    C1940
    0.9298420568107296    0.4655743053632515    0.0277660782609349    C1941
    0.9298420568107296    0.7989076386965849    0.3610994115942683    C1942
    0.9298420568107296    0.7989076386965849    0.6944327449276017    C1943
    0.9298420568107296    0.7989076386965849    0.0277660782609349    C1944
    0.4809416044685547    0.2529446982898864    0.0074567834668100     H001
    0.4809416044685547    0.2529446982898864    0.3407901168001434     H002
    0.4809416044685547    0.2529446982898864    0.6741234501334766     H003
    0.4809416044685547    0.5862780316232197    0.0074567834668100     H004
    0.4809416044685547    0.5862780316232197    0.3407901168001434     H005
    0.4809416044685547    0.5862780316232197    0.6741234501334766     H006
    0.4809416044685547    0.9196113649565529    0.0074567834668100     H007
    0.4809416044685547    0.9196113649565529    0.3407901168001434     H008
    0.4809416044685547    0.9196113649565529    0.6741234501334766     H009
    0.8142749378018881    0.2529446982898864    0.0074567834668100     H010
    0.8142749378018881    0.2529446982898864    0.3407901168001434     H011
    0.8142749378018881    0.2529446982898864    0.6741234501334766     H012
    0.8142749378018881    0.5862780316232197    0.0074567834668100     H013
    0.8142749378018881    0.5862780316232197    0.3407901168001434     H014
    0.8142749378018881    0.5862780316232197    0.6741234501334766     H015
    0.8142749378018881    0.9196113649565529    0.0074567834668100     H016
    0.8142749378018881    0.9196113649565529    0.3407901168001434     H017
    0.8142749378018881    0.9196113649565529    0.6741234501334766     H018
    0.1476082711352213    0.2529446982898864    0.0074567834668100     H019
    0.1476082711352213    0.2529446982898864    0.3407901168001434     H020
    0.1476082711352213    0.2529446982898864    0.6741234501334766     H021
    0.1476082711352213    0.5862780316232197    0.0074567834668100     H022
    0.1476082711352213    0.5862780316232197    0.3407901168001434     H023
    0.1476082711352213    0.5862780316232197    0.6741234501334766     H024
    0.1476082711352213    0.9196113649565529    0.0074567834668100     H025
    0.1476082711352213    0.9196113649565529    0.3407901168001434     H026
    0.1476082711352213    0.9196113649565529    0.6741234501334766     H027
    0.3436009058406229    0.0768818770493577    0.4616983756675989     H028
    0.3436009058406229    0.0768818770493577    0.7950317090009322     H029
    0.3436009058406229    0.0768818770493577    0.1283650423342655     H030
    0.3436009058406229    0.4102152103826910    0.4616983756675989     H031
    0.3436009058406229    0.4102152103826910    0.7950317090009322     H032
    0.3436009058406229    0.4102152103826910    0.1283650423342655     H033
    0.3436009058406229    0.7435485437160244    0.4616983756675989     H034
    0.3436009058406229    0.7435485437160244    0.7950317090009322     H035
    0.3436009058406229    0.7435485437160244    0.1283650423342655     H036
    0.6769342391739561    0.0768818770493577    0.4616983756675989     H037
    0.6769342391739561    0.0768818770493577    0.7950317090009322     H038
    0.6769342391739561    0.0768818770493577    0.1283650423342655     H039
    0.6769342391739561    0.4102152103826910    0.4616983756675989     H040
    0.6769342391739561    0.4102152103826910    0.7950317090009322     H041
    0.6769342391739561    0.4102152103826910    0.1283650423342655     H042
    0.6769342391739561    0.7435485437160244    0.4616983756675989     H043
    0.6769342391739561    0.7435485437160244    0.7950317090009322     H044
    0.6769342391739561    0.7435485437160244    0.1283650423342655     H045
    0.0102675725072895    0.0768818770493577    0.4616983756675989     H046
    0.0102675725072895    0.0768818770493577    0.7950317090009322     H047
    0.0102675725072895    0.0768818770493577    0.1283650423342655     H048
    0.0102675725072895    0.4102152103826910    0.4616983756675989     H049
    0.0102675725072895    0.4102152103826910    0.7950317090009322     H050
    0.0102675725072895    0.4102152103826910    0.1283650423342655     H051
    0.0102675725072895    0.7435485437160244    0.4616983756675989     H052
    0.0102675725072895    0.7435485437160244    0.7950317090009322     H053
    0.0102675725072895    0.7435485437160244    0.1283650423342655     H054
    0.4434807116235597    0.0181319675949161    0.4631881798036033     H055
    0.4434807116235597    0.0181319675949161    0.7965215131369365     H056
    0.4434807116235597    0.0181319675949161    0.1298548464702698     H057
    0.4434807116235597    0.3514653009282493    0.4631881798036033     H058
    0.4434807116235597    0.3514653009282493    0.7965215131369365     H059
    0.4434807116235597    0.3514653009282493    0.1298548464702698     H060
    0.4434807116235597    0.6847986342615827    0.4631881798036033     H061
    0.4434807116235597    0.6847986342615827    0.7965215131369365     H062
    0.4434807116235597    0.6847986342615827    0.1298548464702698     H063
    0.7768140449568930    0.0181319675949161    0.4631881798036033     H064
    0.7768140449568930    0.0181319675949161    0.7965215131369365     H065
    0.7768140449568930    0.0181319675949161    0.1298548464702698     H066
    0.7768140449568930    0.3514653009282493    0.4631881798036033     H067
    0.7768140449568930    0.3514653009282493    0.7965215131369365     H068
    0.7768140449568930    0.3514653009282493    0.1298548464702698     H069
    0.7768140449568930    0.6847986342615827    0.4631881798036033     H070
    0.7768140449568930    0.6847986342615827    0.7965215131369365     H071
    0.7768140449568930    0.6847986342615827    0.1298548464702698     H072
    0.1101473782902263    0.0181319675949161    0.4631881798036033     H073
    0.1101473782902263    0.0181319675949161    0.7965215131369365     H074
    0.1101473782902263    0.0181319675949161    0.1298548464702698     H075
    0.1101473782902263    0.3514653009282493    0.4631881798036033     H076
    0.1101473782902263    0.3514653009282493    0.7965215131369365     H077
    0.1101473782902263    0.3514653009282493    0.1298548464702698     H078
    0.1101473782902263    0.6847986342615827    0.4631881798036033     H079
    0.1101473782902263    0.6847986342615827    0.7965215131369365     H080
    0.1101473782902263    0.6847986342615827    0.1298548464702698     H081
    0.5724527881754717    0.9848678936522268    0.5098880837494963     H082
    0.5724527881754717    0.9848678936522268    0.8432214170828297     H083
    0.5724527881754717    0.9848678936522268    0.1765547504161630     H084
    0.5724527881754717    0.3182012269855601    0.5098880837494963     H085
    0.5724527881754717    0.3182012269855601    0.8432214170828297     H086
    0.5724527881754717    0.3182012269855601    0.1765547504161630     H087
    0.5724527881754717    0.6515345603188933    0.5098880837494963     H088
    0.5724527881754717    0.6515345603188933    0.8432214170828297     H089
    0.5724527881754717    0.6515345603188933    0.1765547504161630     H090
    0.9057861215088050    0.9848678936522268    0.5098880837494963     H091
    0.9057861215088050    0.9848678936522268    0.8432214170828297     H092
    0.9057861215088050    0.9848678936522268    0.1765547504161630     H093
    0.9057861215088050    0.3182012269855601    0.5098880837494963     H094
    0.9057861215088050    0.3182012269855601    0.8432214170828297     H095
    0.9057861215088050    0.3182012269855601    0.1765547504161630     H096
    0.9057861215088050    0.6515345603188933    0.5098880837494963     H097
    0.9057861215088050    0.6515345603188933    0.8432214170828297     H098
    0.9057861215088050    0.6515345603188933    0.1765547504161630     H099
    0.2391194548421383    0.9848678936522268    0.5098880837494963     H100
    0.2391194548421383    0.9848678936522268    0.8432214170828297     H101
    0.2391194548421383    0.9848678936522268    0.1765547504161630     H102
    0.2391194548421383    0.3182012269855601    0.5098880837494963     H103
    0.2391194548421383    0.3182012269855601    0.8432214170828297     H104
    0.2391194548421383    0.3182012269855601    0.1765547504161630     H105
    0.2391194548421383    0.6515345603188933    0.5098880837494963     H106
    0.2391194548421383    0.6515345603188933    0.8432214170828297     H107
    0.2391194548421383    0.6515345603188933    0.1765547504161630     H108
    0.4221009940760874    0.2862510361501726    0.1747676025301057     H109
    0.4221009940760874    0.2862510361501726    0.5081009358634390     H110
    0.4221009940760874    0.2862510361501726    0.8414342691967722     H111
    0.4221009940760874    0.6195843694835059    0.1747676025301057     H112
    0.4221009940760874    0.6195843694835059    0.5081009358634390     H113
    0.4221009940760874    0.6195843694835059    0.8414342691967722     H114
    0.4221009940760874    0.9529177028168392    0.1747676025301057     H115
    0.4221009940760874    0.9529177028168392    0.5081009358634390     H116
    0.4221009940760874    0.9529177028168392    0.8414342691967722     H117
    0.7554343274094206    0.2862510361501726    0.1747676025301057     H118
    0.7554343274094206    0.2862510361501726    0.5081009358634390     H119
    0.7554343274094206    0.2862510361501726    0.8414342691967722     H120
    0.7554343274094206    0.6195843694835059    0.1747676025301057     H121
    0.7554343274094206    0.6195843694835059    0.5081009358634390     H122
    0.7554343274094206    0.6195843694835059    0.8414342691967722     H123
    0.7554343274094206    0.9529177028168392    0.1747676025301057     H124
    0.7554343274094206    0.9529177028168392    0.5081009358634390     H125
    0.7554343274094206    0.9529177028168392    0.8414342691967722     H126
    0.0887676607427540    0.2862510361501726    0.1747676025301057     H127
    0.0887676607427540    0.2862510361501726    0.5081009358634390     H128
    0.0887676607427540    0.2862510361501726    0.8414342691967722     H129
    0.0887676607427540    0.6195843694835059    0.1747676025301057     H130
    0.0887676607427540    0.6195843694835059    0.5081009358634390     H131
    0.0887676607427540    0.6195843694835059    0.8414342691967722     H132
    0.0887676607427540    0.9529177028168392    0.1747676025301057     H133
    0.0887676607427540    0.9529177028168392    0.5081009358634390     H134
    0.0887676607427540    0.9529177028168392    0.8414342691967722     H135
    0.5932502368632706    0.0129617547126893    0.5046591897554495     H136
    0.5932502368632706    0.0129617547126893    0.8379925230887829     H137
    0.5932502368632706    0.0129617547126893    0.1713258564221162     H138
    0.5932502368632706    0.3462950880460227    0.5046591897554495     H139
    0.5932502368632706    0.3462950880460227    0.8379925230887829     H140
    0.5932502368632706    0.3462950880460227    0.1713258564221162     H141
    0.5932502368632706    0.6796284213793560    0.5046591897554495     H142
    0.5932502368632706    0.6796284213793560    0.8379925230887829     H143
    0.5932502368632706    0.6796284213793560    0.1713258564221162     H144
    0.9265835701966040    0.0129617547126893    0.5046591897554495     H145
    0.9265835701966040    0.0129617547126893    0.8379925230887829     H146
    0.9265835701966040    0.0129617547126893    0.1713258564221162     H147
    0.9265835701966040    0.3462950880460227    0.5046591897554495     H148
    0.9265835701966040    0.3462950880460227    0.8379925230887829     H149
    0.9265835701966040    0.3462950880460227    0.1713258564221162     H150
    0.9265835701966040    0.6796284213793560    0.5046591897554495     H151
    0.9265835701966040    0.6796284213793560    0.8379925230887829     H152
    0.9265835701966040    0.6796284213793560    0.1713258564221162     H153
    0.2599169035299372    0.0129617547126893    0.5046591897554495     H154
    0.2599169035299372    0.0129617547126893    0.8379925230887829     H155
    0.2599169035299372    0.0129617547126893    0.1713258564221162     H156
    0.2599169035299372    0.3462950880460227    0.5046591897554495     H157
    0.2599169035299372    0.3462950880460227    0.8379925230887829     H158
    0.2599169035299372    0.3462950880460227    0.1713258564221162     H159
    0.2599169035299372    0.6796284213793560    0.5046591897554495     H160
    0.2599169035299372    0.6796284213793560    0.8379925230887829     H161
    0.2599169035299372    0.6796284213793560    0.1713258564221162     H162
    0.6088181360001631    0.0247116205647397    0.4065368373873605     H163
    0.6088181360001631    0.0247116205647397    0.7398701707206938     H164
    0.6088181360001631    0.0247116205647397    0.0732035040540271     H165
    0.6088181360001631    0.3580449538980730    0.4065368373873605     H166
    0.6088181360001631    0.3580449538980730    0.7398701707206938     H167
    0.6088181360001631    0.3580449538980730    0.0732035040540271     H168
    0.6088181360001631    0.6913782872314064    0.4065368373873605     H169
    0.6088181360001631    0.6913782872314064    0.7398701707206938     H170
    0.6088181360001631    0.6913782872314064    0.0732035040540271     H171
    0.9421514693334964    0.0247116205647397    0.4065368373873605     H172
    0.9421514693334964    0.0247116205647397    0.7398701707206938     H173
    0.9421514693334964    0.0247116205647397    0.0732035040540271     H174
    0.9421514693334964    0.3580449538980730    0.4065368373873605     H175
    0.9421514693334964    0.3580449538980730    0.7398701707206938     H176
    0.9421514693334964    0.3580449538980730    0.0732035040540271     H177
    0.9421514693334964    0.6913782872314064    0.4065368373873605     H178
    0.9421514693334964    0.6913782872314064    0.7398701707206938     H179
    0.9421514693334964    0.6913782872314064    0.0732035040540271     H180
    0.2754848026668297    0.0247116205647397    0.4065368373873605     H181
    0.2754848026668297    0.0247116205647397    0.7398701707206938     H182
    0.2754848026668297    0.0247116205647397    0.0732035040540271     H183
    0.2754848026668297    0.3580449538980730    0.4065368373873605     H184
    0.2754848026668297    0.3580449538980730    0.7398701707206938     H185
    0.2754848026668297    0.3580449538980730    0.0732035040540271     H186
    0.2754848026668297    0.6913782872314064    0.4065368373873605     H187
    0.2754848026668297    0.6913782872314064    0.7398701707206938     H188
    0.2754848026668297    0.6913782872314064    0.0732035040540271     H189
    0.5246954117915285    0.0358162412497992    0.4902804964843133     H190
    0.5246954117915285    0.0358162412497992    0.8236138298176466     H191
    0.5246954117915285    0.0358162412497992    0.1569471631509799     H192
    0.5246954117915285    0.3691495745831326    0.4902804964843133     H193
    0.5246954117915285    0.3691495745831326    0.8236138298176466     H194
    0.5246954117915285    0.3691495745831326    0.1569471631509799     H195
    0.5246954117915285    0.7024829079164659    0.4902804964843133     H196
    0.5246954117915285    0.7024829079164659    0.8236138298176466     H197
    0.5246954117915285    0.7024829079164659    0.1569471631509799     H198
    0.8580287451248618    0.0358162412497992    0.4902804964843133     H199
    0.8580287451248618    0.0358162412497992    0.8236138298176466     H200
    0.8580287451248618    0.0358162412497992    0.1569471631509799     H201
    0.8580287451248618    0.3691495745831326    0.4902804964843133     H202
    0.8580287451248618    0.3691495745831326    0.8236138298176466     H203
    0.8580287451248618    0.3691495745831326    0.1569471631509799     H204
    0.8580287451248618    0.7024829079164659    0.4902804964843133     H205
    0.8580287451248618    0.7024829079164659    0.8236138298176466     H206
    0.8580287451248618    0.7024829079164659    0.1569471631509799     H207
    0.1913620784581951    0.0358162412497992    0.4902804964843133     H208
    0.1913620784581951    0.0358162412497992    0.8236138298176466     H209
    0.1913620784581951    0.0358162412497992    0.1569471631509799     H210
    0.1913620784581951    0.3691495745831326    0.4902804964843133     H211
    0.1913620784581951    0.3691495745831326    0.8236138298176466     H212
    0.1913620784581951    0.3691495745831326    0.1569471631509799     H213
    0.1913620784581951    0.7024829079164659    0.4902804964843133     H214
    0.1913620784581951    0.7024829079164659    0.8236138298176466     H215
    0.1913620784581951    0.7024829079164659    0.1569471631509799     H216
    0.6545011153396176    0.2354571225655929    0.9394536421199280     H217
    0.6545011153396176    0.2354571225655929    0.2727869754532612     H218
    0.6545011153396176    0.2354571225655929    0.6061203087865946     H219
    0.6545011153396176    0.5687904558989262    0.9394536421199280     H220
    0.6545011153396176    0.5687904558989262    0.2727869754532612     H221
    0.6545011153396176    0.5687904558989262    0.6061203087865946     H222
    0.6545011153396176    0.9021237892322594    0.9394536421199280     H223
    0.6545011153396176    0.9021237892322594    0.2727869754532612     H224
    0.6545011153396176    0.9021237892322594    0.6061203087865946     H225
    0.9878344486729510    0.2354571225655929    0.9394536421199280     H226
    0.9878344486729510    0.2354571225655929    0.2727869754532612     H227
    0.9878344486729510    0.2354571225655929    0.6061203087865946     H228
    0.9878344486729510    0.5687904558989262    0.9394536421199280     H229
    0.9878344486729510    0.5687904558989262    0.2727869754532612     H230
    0.9878344486729510    0.5687904558989262    0.6061203087865946     H231
    0.9878344486729510    0.9021237892322594    0.9394536421199280     H232
    0.9878344486729510    0.9021237892322594    0.2727869754532612     H233
    0.9878344486729510    0.9021237892322594    0.6061203087865946     H234
    0.3211677820062843    0.2354571225655929    0.9394536421199280     H235
    0.3211677820062843    0.2354571225655929    0.2727869754532612     H236
    0.3211677820062843    0.2354571225655929    0.6061203087865946     H237
    0.3211677820062843    0.5687904558989262    0.9394536421199280     H238
    0.3211677820062843    0.5687904558989262    0.2727869754532612     H239
    0.3211677820062843    0.5687904558989262    0.6061203087865946     H240
    0.3211677820062843    0.9021237892322594    0.9394536421199280     H241
    0.3211677820062843    0.9021237892322594    0.2727869754532612     H242
    0.3211677820062843    0.9021237892322594    0.6061203087865946     H243
    0.5483918977575222    0.1922341840064296    0.0813151003577024     H244
    0.5483918977575222    0.1922341840064296    0.4146484336910357     H245
    0.5483918977575222    0.1922341840064296    0.7479817670243690     H246
    0.5483918977575222    0.5255675173397629    0.0813151003577024     H247
    0.5483918977575222    0.5255675173397629    0.4146484336910357     H248
    0.5483918977575222    0.5255675173397629    0.7479817670243690     H249
    0.5483918977575222    0.8589008506730962    0.0813151003577024     H250
    0.5483918977575222    0.8589008506730962    0.4146484336910357     H251
    0.5483918977575222    0.8589008506730962    0.7479817670243690     H252
    0.8817252310908555    0.1922341840064296    0.0813151003577024     H253
    0.8817252310908555    0.1922341840064296    0.4146484336910357     H254
    0.8817252310908555    0.1922341840064296    0.7479817670243690     H255
    0.8817252310908555    0.5255675173397629    0.0813151003577024     H256
    0.8817252310908555    0.5255675173397629    0.4146484336910357     H257
    0.8817252310908555    0.5255675173397629    0.7479817670243690     H258
    0.8817252310908555    0.8589008506730962    0.0813151003577024     H259
    0.8817252310908555    0.8589008506730962    0.4146484336910357     H260
    0.8817252310908555    0.8589008506730962    0.7479817670243690     H261
    0.2150585644241888    0.1922341840064296    0.0813151003577024     H262
    0.2150585644241888    0.1922341840064296    0.4146484336910357     H263
    0.2150585644241888    0.1922341840064296    0.7479817670243690     H264
    0.2150585644241888    0.5255675173397629    0.0813151003577024     H265
    0.2150585644241888    0.5255675173397629    0.4146484336910357     H266
    0.2150585644241888    0.5255675173397629    0.7479817670243690     H267
    0.2150585644241888    0.8589008506730962    0.0813151003577024     H268
    0.2150585644241888    0.8589008506730962    0.4146484336910357     H269
    0.2150585644241888    0.8589008506730962    0.7479817670243690     H270
    0.2339951712188091    0.1732176524479507    0.1758179036443197     H271
    0.2339951712188091    0.1732176524479507    0.5091512369776532     H272
    0.2339951712188091    0.1732176524479507    0.8424845703109864     H273
    0.2339951712188091    0.5065509857812840    0.1758179036443197     H274
    0.2339951712188091    0.5065509857812840    0.5091512369776532     H275
    0.2339951712188091    0.5065509857812840    0.8424845703109864     H276
    0.2339951712188091    0.8398843191146174    0.1758179036443197     H277
    0.2339951712188091    0.8398843191146174    0.5091512369776532     H278
    0.2339951712188091    0.8398843191146174    0.8424845703109864     H279
    0.5673285045521426    0.1732176524479507    0.1758179036443197     H280
    0.5673285045521426    0.1732176524479507    0.5091512369776532     H281
    0.5673285045521426    0.1732176524479507    0.8424845703109864     H282
    0.5673285045521426    0.5065509857812840    0.1758179036443197     H283
    0.5673285045521426    0.5065509857812840    0.5091512369776532     H284
    0.5673285045521426    0.5065509857812840    0.8424845703109864     H285
    0.5673285045521426    0.8398843191146174    0.1758179036443197     H286
    0.5673285045521426    0.8398843191146174    0.5091512369776532     H287
    0.5673285045521426    0.8398843191146174    0.8424845703109864     H288
    0.9006618378854758    0.1732176524479507    0.1758179036443197     H289
    0.9006618378854758    0.1732176524479507    0.5091512369776532     H290
    0.9006618378854758    0.1732176524479507    0.8424845703109864     H291
    0.9006618378854758    0.5065509857812840    0.1758179036443197     H292
    0.9006618378854758    0.5065509857812840    0.5091512369776532     H293
    0.9006618378854758    0.5065509857812840    0.8424845703109864     H294
    0.9006618378854758    0.8398843191146174    0.1758179036443197     H295
    0.9006618378854758    0.8398843191146174    0.5091512369776532     H296
    0.9006618378854758    0.8398843191146174    0.8424845703109864     H297
    0.5557865166074111    0.0048569283619291    0.4451360204468363     H298
    0.5557865166074111    0.0048569283619291    0.7784693537801697     H299
    0.5557865166074111    0.0048569283619291    0.1118026871135029     H300
    0.5557865166074111    0.3381902616952623    0.4451360204468363     H301
    0.5557865166074111    0.3381902616952623    0.7784693537801697     H302
    0.5557865166074111    0.3381902616952623    0.1118026871135029     H303
    0.5557865166074111    0.6715235950285957    0.4451360204468363     H304
    0.5557865166074111    0.6715235950285957    0.7784693537801697     H305
    0.5557865166074111    0.6715235950285957    0.1118026871135029     H306
    0.8891198499407443    0.0048569283619291    0.4451360204468363     H307
    0.8891198499407443    0.0048569283619291    0.7784693537801697     H308
    0.8891198499407443    0.0048569283619291    0.1118026871135029     H309
    0.8891198499407443    0.3381902616952623    0.4451360204468363     H310
    0.8891198499407443    0.3381902616952623    0.7784693537801697     H311
    0.8891198499407443    0.3381902616952623    0.1118026871135029     H312
    0.8891198499407443    0.6715235950285957    0.4451360204468363     H313
    0.8891198499407443    0.6715235950285957    0.7784693537801697     H314
    0.8891198499407443    0.6715235950285957    0.1118026871135029     H315
    0.2224531832740777    0.0048569283619291    0.4451360204468363     H316
    0.2224531832740777    0.0048569283619291    0.7784693537801697     H317
    0.2224531832740777    0.0048569283619291    0.1118026871135029     H318
    0.2224531832740777    0.3381902616952623    0.4451360204468363     H319
    0.2224531832740777    0.3381902616952623    0.7784693537801697     H320
    0.2224531832740777    0.3381902616952623    0.1118026871135029     H321
    0.2224531832740777    0.6715235950285957    0.4451360204468363     H322
    0.2224531832740777    0.6715235950285957    0.7784693537801697     H323
    0.2224531832740777    0.6715235950285957    0.1118026871135029     H324
    0.5399301792823693    0.2496374402706960    0.0302189113858463     H325
    0.5399301792823693    0.2496374402706960    0.3635522447191797     H326
    0.5399301792823693    0.2496374402706960    0.6968855780525129     H327
    0.5399301792823693    0.5829707736040293    0.0302189113858463     H328
    0.5399301792823693    0.5829707736040293    0.3635522447191797     H329
    0.5399301792823693    0.5829707736040293    0.6968855780525129     H330
    0.5399301792823693    0.9163041069373626    0.0302189113858463     H331
    0.5399301792823693    0.9163041069373626    0.3635522447191797     H332
    0.5399301792823693    0.9163041069373626    0.6968855780525129     H333
    0.8732635126157027    0.2496374402706960    0.0302189113858463     H334
    0.8732635126157027    0.2496374402706960    0.3635522447191797     H335
    0.8732635126157027    0.2496374402706960    0.6968855780525129     H336
    0.8732635126157027    0.5829707736040293    0.0302189113858463     H337
    0.8732635126157027    0.5829707736040293    0.3635522447191797     H338
    0.8732635126157027    0.5829707736040293    0.6968855780525129     H339
    0.8732635126157027    0.9163041069373626    0.0302189113858463     H340
    0.8732635126157027    0.9163041069373626    0.3635522447191797     H341
    0.8732635126157027    0.9163041069373626    0.6968855780525129     H342
    0.2065968459490359    0.2496374402706960    0.0302189113858463     H343
    0.2065968459490359    0.2496374402706960    0.3635522447191797     H344
    0.2065968459490359    0.2496374402706960    0.6968855780525129     H345
    0.2065968459490359    0.5829707736040293    0.0302189113858463     H346
    0.2065968459490359    0.5829707736040293    0.3635522447191797     H347
    0.2065968459490359    0.5829707736040293    0.6968855780525129     H348
    0.2065968459490359    0.9163041069373626    0.0302189113858463     H349
    0.2065968459490359    0.9163041069373626    0.3635522447191797     H350
    0.2065968459490359    0.9163041069373626    0.6968855780525129     H351
    0.3508970573501654    0.3195584409314531    0.5957779697640453     H352
    0.3508970573501654    0.3195584409314531    0.9291113030973785     H353
    0.3508970573501654    0.3195584409314531    0.2624446364307119     H354
    0.3508970573501654    0.6528917742647864    0.5957779697640453     H355
    0.3508970573501654    0.6528917742647864    0.9291113030973785     H356
    0.3508970573501654    0.6528917742647864    0.2624446364307119     H357
    0.3508970573501654    0.9862251075981198    0.5957779697640453     H358
    0.3508970573501654    0.9862251075981198    0.9291113030973785     H359
    0.3508970573501654    0.9862251075981198    0.2624446364307119     H360
    0.6842303906834988    0.3195584409314531    0.5957779697640453     H361
    0.6842303906834988    0.3195584409314531    0.9291113030973785     H362
    0.6842303906834988    0.3195584409314531    0.2624446364307119     H363
    0.6842303906834988    0.6528917742647864    0.5957779697640453     H364
    0.6842303906834988    0.6528917742647864    0.9291113030973785     H365
    0.6842303906834988    0.6528917742647864    0.2624446364307119     H366
    0.6842303906834988    0.9862251075981198    0.5957779697640453     H367
    0.6842303906834988    0.9862251075981198    0.9291113030973785     H368
    0.6842303906834988    0.9862251075981198    0.2624446364307119     H369
    0.0175637240168320    0.3195584409314531    0.5957779697640453     H370
    0.0175637240168320    0.3195584409314531    0.9291113030973785     H371
    0.0175637240168320    0.3195584409314531    0.2624446364307119     H372
    0.0175637240168320    0.6528917742647864    0.5957779697640453     H373
    0.0175637240168320    0.6528917742647864    0.9291113030973785     H374
    0.0175637240168320    0.6528917742647864    0.2624446364307119     H375
    0.0175637240168320    0.9862251075981198    0.5957779697640453     H376
    0.0175637240168320    0.9862251075981198    0.9291113030973785     H377
    0.0175637240168320    0.9862251075981198    0.2624446364307119     H378
    0.2126841854190812    0.2042728917034180    0.1783050369250636     H379
    0.2126841854190812    0.2042728917034180    0.5116383702583969     H380
    0.2126841854190812    0.2042728917034180    0.8449717035917301     H381
    0.2126841854190812    0.5376062250367514    0.1783050369250636     H382
    0.2126841854190812    0.5376062250367514    0.5116383702583969     H383
    0.2126841854190812    0.5376062250367514    0.8449717035917301     H384
    0.2126841854190812    0.8709395583700847    0.1783050369250636     H385
    0.2126841854190812    0.8709395583700847    0.5116383702583969     H386
    0.2126841854190812    0.8709395583700847    0.8449717035917301     H387
    0.5460175187524146    0.2042728917034180    0.1783050369250636     H388
    0.5460175187524146    0.2042728917034180    0.5116383702583969     H389
    0.5460175187524146    0.2042728917034180    0.8449717035917301     H390
    0.5460175187524146    0.5376062250367514    0.1783050369250636     H391
    0.5460175187524146    0.5376062250367514    0.5116383702583969     H392
    0.5460175187524146    0.5376062250367514    0.8449717035917301     H393
    0.5460175187524146    0.8709395583700847    0.1783050369250636     H394
    0.5460175187524146    0.8709395583700847    0.5116383702583969     H395
    0.5460175187524146    0.8709395583700847    0.8449717035917301     H396
    0.8793508520857478    0.2042728917034180    0.1783050369250636     H397
    0.8793508520857478    0.2042728917034180    0.5116383702583969     H398
    0.8793508520857478    0.2042728917034180    0.8449717035917301     H399
    0.8793508520857478    0.5376062250367514    0.1783050369250636     H400
    0.8793508520857478    0.5376062250367514    0.5116383702583969     H401
    0.8793508520857478    0.5376062250367514    0.8449717035917301     H402
    0.8793508520857478    0.8709395583700847    0.1783050369250636     H403
    0.8793508520857478    0.8709395583700847    0.5116383702583969     H404
    0.8793508520857478    0.8709395583700847    0.8449717035917301     H405
    0.6294997121303421    0.9952738540599302    0.4678358525443953     H406
    0.6294997121303421    0.9952738540599302    0.8011691858777287     H407
    0.6294997121303421    0.9952738540599302    0.1345025192110620     H408
    0.6294997121303421    0.3286071873932634    0.4678358525443953     H409
    0.6294997121303421    0.3286071873932634    0.8011691858777287     H410
    0.6294997121303421    0.3286071873932634    0.1345025192110620     H411
    0.6294997121303421    0.6619405207265968    0.4678358525443953     H412
    0.6294997121303421    0.6619405207265968    0.8011691858777287     H413
    0.6294997121303421    0.6619405207265968    0.1345025192110620     H414
    0.9628330454636753    0.9952738540599302    0.4678358525443953     H415
    0.9628330454636753    0.9952738540599302    0.8011691858777287     H416
    0.9628330454636753    0.9952738540599302    0.1345025192110620     H417
    0.9628330454636753    0.3286071873932634    0.4678358525443953     H418
    0.9628330454636753    0.3286071873932634    0.8011691858777287     H419
    0.9628330454636753    0.3286071873932634    0.1345025192110620     H420
    0.9628330454636753    0.6619405207265968    0.4678358525443953     H421
    0.9628330454636753    0.6619405207265968    0.8011691858777287     H422
    0.9628330454636753    0.6619405207265968    0.1345025192110620     H423
    0.2961663787970086    0.9952738540599302    0.4678358525443953     H424
    0.2961663787970086    0.9952738540599302    0.8011691858777287     H425
    0.2961663787970086    0.9952738540599302    0.1345025192110620     H426
    0.2961663787970086    0.3286071873932634    0.4678358525443953     H427
    0.2961663787970086    0.3286071873932634    0.8011691858777287     H428
    0.2961663787970086    0.3286071873932634    0.1345025192110620     H429
    0.2961663787970086    0.6619405207265968    0.4678358525443953     H430
    0.2961663787970086    0.6619405207265968    0.8011691858777287     H431
    0.2961663787970086    0.6619405207265968    0.1345025192110620     H432
    0.2302728842672636    0.1448086577824743    0.2624160320074027     H433
    0.2302728842672636    0.1448086577824743    0.5957493653407360     H434
    0.2302728842672636    0.1448086577824743    0.9290826986740693     H435
    0.2302728842672636    0.4781419911158076    0.2624160320074027     H436
    0.2302728842672636    0.4781419911158076    0.5957493653407360     H437
    0.2302728842672636    0.4781419911158076    0.9290826986740693     H438
    0.2302728842672636    0.8114753244491409    0.2624160320074027     H439
    0.2302728842672636    0.8114753244491409    0.5957493653407360     H440
    0.2302728842672636    0.8114753244491409    0.9290826986740693     H441
    0.5636062176005968    0.1448086577824743    0.2624160320074027     H442
    0.5636062176005968    0.1448086577824743    0.5957493653407360     H443
    0.5636062176005968    0.1448086577824743    0.9290826986740693     H444
    0.5636062176005968    0.4781419911158076    0.2624160320074027     H445
    0.5636062176005968    0.4781419911158076    0.5957493653407360     H446
    0.5636062176005968    0.4781419911158076    0.9290826986740693     H447
    0.5636062176005968    0.8114753244491409    0.2624160320074027     H448
    0.5636062176005968    0.8114753244491409    0.5957493653407360     H449
    0.5636062176005968    0.8114753244491409    0.9290826986740693     H450
    0.8969395509339301    0.1448086577824743    0.2624160320074027     H451
    0.8969395509339301    0.1448086577824743    0.5957493653407360     H452
    0.8969395509339301    0.1448086577824743    0.9290826986740693     H453
    0.8969395509339301    0.4781419911158076    0.2624160320074027     H454
    0.8969395509339301    0.4781419911158076    0.5957493653407360     H455
    0.8969395509339301    0.4781419911158076    0.9290826986740693     H456
    0.8969395509339301    0.8114753244491409    0.2624160320074027     H457
    0.8969395509339301    0.8114753244491409    0.5957493653407360     H458
    0.8969395509339301    0.8114753244491409    0.9290826986740693     H459
    0.4268613762119190    0.2433659260123875    0.0459288392016414     H460
    0.4268613762119190    0.2433659260123875    0.3792621725349747     H461
    0.4268613762119190    0.2433659260123875    0.7125955058683081     H462
    0.4268613762119190    0.5766992593457209    0.0459288392016414     H463
    0.4268613762119190    0.5766992593457209    0.3792621725349747     H464
    0.4268613762119190    0.5766992593457209    0.7125955058683081     H465
    0.4268613762119190    0.9100325926790542    0.0459288392016414     H466
    0.4268613762119190    0.9100325926790542    0.3792621725349747     H467
    0.4268613762119190    0.9100325926790542    0.7125955058683081     H468
    0.7601947095452524    0.2433659260123875    0.0459288392016414     H469
    0.7601947095452524    0.2433659260123875    0.3792621725349747     H470
    0.7601947095452524    0.2433659260123875    0.7125955058683081     H471
    0.7601947095452524    0.5766992593457209    0.0459288392016414     H472
    0.7601947095452524    0.5766992593457209    0.3792621725349747     H473
    0.7601947095452524    0.5766992593457209    0.7125955058683081     H474
    0.7601947095452524    0.9100325926790542    0.0459288392016414     H475
    0.7601947095452524    0.9100325926790542    0.3792621725349747     H476
    0.7601947095452524    0.9100325926790542    0.7125955058683081     H477
    0.0935280428785856    0.2433659260123875    0.0459288392016414     H478
    0.0935280428785856    0.2433659260123875    0.3792621725349747     H479
    0.0935280428785856    0.2433659260123875    0.7125955058683081     H480
    0.0935280428785856    0.5766992593457209    0.0459288392016414     H481
    0.0935280428785856    0.5766992593457209    0.3792621725349747     H482
    0.0935280428785856    0.5766992593457209    0.7125955058683081     H483
    0.0935280428785856    0.9100325926790542    0.0459288392016414     H484
    0.0935280428785856    0.9100325926790542    0.3792621725349747     H485
    0.0935280428785856    0.9100325926790542    0.7125955058683081     H486
    0.6109670981890382    0.2239321208824857    0.9518857104696736     H487
    0.6109670981890382    0.2239321208824857    0.2852190438030070     H488
    0.6109670981890382    0.2239321208824857    0.6185523771363404     H489
    0.6109670981890382    0.5572654542158191    0.9518857104696736     H490
    0.6109670981890382    0.5572654542158191    0.2852190438030070     H491
    0.6109670981890382    0.5572654542158191    0.6185523771363404     H492
    0.6109670981890382    0.8905987875491523    0.9518857104696736     H493
    0.6109670981890382    0.8905987875491523    0.2852190438030070     H494
    0.6109670981890382    0.8905987875491523    0.6185523771363404     H495
    0.9443004315223714    0.2239321208824857    0.9518857104696736     H496
    0.9443004315223714    0.2239321208824857    0.2852190438030070     H497
    0.9443004315223714    0.2239321208824857    0.6185523771363404     H498
    0.9443004315223714    0.5572654542158191    0.9518857104696736     H499
    0.9443004315223714    0.5572654542158191    0.2852190438030070     H500
    0.9443004315223714    0.5572654542158191    0.6185523771363404     H501
    0.9443004315223714    0.8905987875491523    0.9518857104696736     H502
    0.9443004315223714    0.8905987875491523    0.2852190438030070     H503
    0.9443004315223714    0.8905987875491523    0.6185523771363404     H504
    0.2776337648557048    0.2239321208824857    0.9518857104696736     H505
    0.2776337648557048    0.2239321208824857    0.2852190438030070     H506
    0.2776337648557048    0.2239321208824857    0.6185523771363404     H507
    0.2776337648557048    0.5572654542158191    0.9518857104696736     H508
    0.2776337648557048    0.5572654542158191    0.2852190438030070     H509
    0.2776337648557048    0.5572654542158191    0.6185523771363404     H510
    0.2776337648557048    0.8905987875491523    0.9518857104696736     H511
    0.2776337648557048    0.8905987875491523    0.2852190438030070     H512
    0.2776337648557048    0.8905987875491523    0.6185523771363404     H513
    0.1945038522054481    0.0053850290051035    0.3775850969640331     H514
    0.1945038522054481    0.0053850290051035    0.7109184302973665     H515
    0.1945038522054481    0.0053850290051035    0.0442517636306997     H516
    0.1945038522054481    0.3387183623384369    0.3775850969640331     H517
    0.1945038522054481    0.3387183623384369    0.7109184302973665     H518
    0.1945038522054481    0.3387183623384369    0.0442517636306997     H519
    0.1945038522054481    0.6720516956717701    0.3775850969640331     H520
    0.1945038522054481    0.6720516956717701    0.7109184302973665     H521
    0.1945038522054481    0.6720516956717701    0.0442517636306997     H522
    0.5278371855387815    0.0053850290051035    0.3775850969640331     H523
    0.5278371855387815    0.0053850290051035    0.7109184302973665     H524
    0.5278371855387815    0.0053850290051035    0.0442517636306997     H525
    0.5278371855387815    0.3387183623384369    0.3775850969640331     H526
    0.5278371855387815    0.3387183623384369    0.7109184302973665     H527
    0.5278371855387815    0.3387183623384369    0.0442517636306997     H528
    0.5278371855387815    0.6720516956717701    0.3775850969640331     H529
    0.5278371855387815    0.6720516956717701    0.7109184302973665     H530
    0.5278371855387815    0.6720516956717701    0.0442517636306997     H531
    0.8611705188721148    0.0053850290051035    0.3775850969640331     H532
    0.8611705188721148    0.0053850290051035    0.7109184302973665     H533
    0.8611705188721148    0.0053850290051035    0.0442517636306997     H534
    0.8611705188721148    0.3387183623384369    0.3775850969640331     H535
    0.8611705188721148    0.3387183623384369    0.7109184302973665     H536
    0.8611705188721148    0.3387183623384369    0.0442517636306997     H537
    0.8611705188721148    0.6720516956717701    0.3775850969640331     H538
    0.8611705188721148    0.6720516956717701    0.7109184302973665     H539
    0.8611705188721148    0.6720516956717701    0.0442517636306997     H540
    0.2173485538913010    0.0278464274642952    0.3849120874449308     H541
    0.2173485538913010    0.0278464274642952    0.7182454207782640     H542
    0.2173485538913010    0.0278464274642952    0.0515787541115974     H543
    0.2173485538913010    0.3611797607976286    0.3849120874449308     H544
    0.2173485538913010    0.3611797607976286    0.7182454207782640     H545
    0.2173485538913010    0.3611797607976286    0.0515787541115974     H546
    0.2173485538913010    0.6945130941309618    0.3849120874449308     H547
    0.2173485538913010    0.6945130941309618    0.7182454207782640     H548
    0.2173485538913010    0.6945130941309618    0.0515787541115974     H549
    0.5506818872246344    0.0278464274642952    0.3849120874449308     H550
    0.5506818872246344    0.0278464274642952    0.7182454207782640     H551
    0.5506818872246344    0.0278464274642952    0.0515787541115974     H552
    0.5506818872246344    0.3611797607976286    0.3849120874449308     H553
    0.5506818872246344    0.3611797607976286    0.7182454207782640     H554
    0.5506818872246344    0.3611797607976286    0.0515787541115974     H555
    0.5506818872246344    0.6945130941309618    0.3849120874449308     H556
    0.5506818872246344    0.6945130941309618    0.7182454207782640     H557
    0.5506818872246344    0.6945130941309618    0.0515787541115974     H558
    0.8840152205579677    0.0278464274642952    0.3849120874449308     H559
    0.8840152205579677    0.0278464274642952    0.7182454207782640     H560
    0.8840152205579677    0.0278464274642952    0.0515787541115974     H561
    0.8840152205579677    0.3611797607976286    0.3849120874449308     H562
    0.8840152205579677    0.3611797607976286    0.7182454207782640     H563
    0.8840152205579677    0.3611797607976286    0.0515787541115974     H564
    0.8840152205579677    0.6945130941309618    0.3849120874449308     H565
    0.8840152205579677    0.6945130941309618    0.7182454207782640     H566
    0.8840152205579677    0.6945130941309618    0.0515787541115974     H567
    0.4524352044208867    0.0598153972317851    0.1660461315865884     H568
    0.4524352044208867    0.0598153972317851    0.4993794649199219     H569
    0.4524352044208867    0.0598153972317851    0.8327127982532552     H570
    0.4524352044208867    0.3931487305651185    0.1660461315865884     H571
    0.4524352044208867    0.3931487305651185    0.4993794649199219     H572
    0.4524352044208867    0.3931487305651185    0.8327127982532552     H573
    0.4524352044208867    0.7264820638984518    0.1660461315865884     H574
    0.4524352044208867    0.7264820638984518    0.4993794649199219     H575
    0.4524352044208867    0.7264820638984518    0.8327127982532552     H576
    0.7857685377542201    0.0598153972317851    0.1660461315865884     H577
    0.7857685377542201    0.0598153972317851    0.4993794649199219     H578
    0.7857685377542201    0.0598153972317851    0.8327127982532552     H579
    0.7857685377542201    0.3931487305651185    0.1660461315865884     H580
    0.7857685377542201    0.3931487305651185    0.4993794649199219     H581
    0.7857685377542201    0.3931487305651185    0.8327127982532552     H582
    0.7857685377542201    0.7264820638984518    0.1660461315865884     H583
    0.7857685377542201    0.7264820638984518    0.4993794649199219     H584
    0.7857685377542201    0.7264820638984518    0.8327127982532552     H585
    0.1191018710875533    0.0598153972317851    0.1660461315865884     H586
    0.1191018710875533    0.0598153972317851    0.4993794649199219     H587
    0.1191018710875533    0.0598153972317851    0.8327127982532552     H588
    0.1191018710875533    0.3931487305651185    0.1660461315865884     H589
    0.1191018710875533    0.3931487305651185    0.4993794649199219     H590
    0.1191018710875533    0.3931487305651185    0.8327127982532552     H591
    0.1191018710875533    0.7264820638984518    0.1660461315865884     H592
    0.1191018710875533    0.7264820638984518    0.4993794649199219     H593
    0.1191018710875533    0.7264820638984518    0.8327127982532552     H594
    0.3316414566129471    0.1451714739062238    0.3887781870086628     H595
    0.3316414566129471    0.1451714739062238    0.7221115203419961     H596
    0.3316414566129471    0.1451714739062238    0.0554448536753294     H597
    0.3316414566129471    0.4785048072395570    0.3887781870086628     H598
    0.3316414566129471    0.4785048072395570    0.7221115203419961     H599
    0.3316414566129471    0.4785048072395570    0.0554448536753294     H600
    0.3316414566129471    0.8118381405728904    0.3887781870086628     H601
    0.3316414566129471    0.8118381405728904    0.7221115203419961     H602
    0.3316414566129471    0.8118381405728904    0.0554448536753294     H603
    0.6649747899462803    0.1451714739062238    0.3887781870086628     H604
    0.6649747899462803    0.1451714739062238    0.7221115203419961     H605
    0.6649747899462803    0.1451714739062238    0.0554448536753294     H606
    0.6649747899462803    0.4785048072395570    0.3887781870086628     H607
    0.6649747899462803    0.4785048072395570    0.7221115203419961     H608
    0.6649747899462803    0.4785048072395570    0.0554448536753294     H609
    0.6649747899462803    0.8118381405728904    0.3887781870086628     H610
    0.6649747899462803    0.8118381405728904    0.7221115203419961     H611
    0.6649747899462803    0.8118381405728904    0.0554448536753294     H612
    0.9983081232796137    0.1451714739062238    0.3887781870086628     H613
    0.9983081232796137    0.1451714739062238    0.7221115203419961     H614
    0.9983081232796137    0.1451714739062238    0.0554448536753294     H615
    0.9983081232796137    0.4785048072395570    0.3887781870086628     H616
    0.9983081232796137    0.4785048072395570    0.7221115203419961     H617
    0.9983081232796137    0.4785048072395570    0.0554448536753294     H618
    0.9983081232796137    0.8118381405728904    0.3887781870086628     H619
    0.9983081232796137    0.8118381405728904    0.7221115203419961     H620
    0.9983081232796137    0.8118381405728904    0.0554448536753294     H621
    0.3841503783107444    0.0630134381624889    0.2559136392866005     H622
    0.3841503783107444    0.0630134381624889    0.5892469726199339     H623
    0.3841503783107444    0.0630134381624889    0.9225803059532671     H624
    0.3841503783107444    0.3963467714958223    0.2559136392866005     H625
    0.3841503783107444    0.3963467714958223    0.5892469726199339     H626
    0.3841503783107444    0.3963467714958223    0.9225803059532671     H627
    0.3841503783107444    0.7296801048291557    0.2559136392866005     H628
    0.3841503783107444    0.7296801048291557    0.5892469726199339     H629
    0.3841503783107444    0.7296801048291557    0.9225803059532671     H630
    0.7174837116440778    0.0630134381624889    0.2559136392866005     H631
    0.7174837116440778    0.0630134381624889    0.5892469726199339     H632
    0.7174837116440778    0.0630134381624889    0.9225803059532671     H633
    0.7174837116440778    0.3963467714958223    0.2559136392866005     H634
    0.7174837116440778    0.3963467714958223    0.5892469726199339     H635
    0.7174837116440778    0.3963467714958223    0.9225803059532671     H636
    0.7174837116440778    0.7296801048291557    0.2559136392866005     H637
    0.7174837116440778    0.7296801048291557    0.5892469726199339     H638
    0.7174837116440778    0.7296801048291557    0.9225803059532671     H639
    0.0508170449774110    0.0630134381624889    0.2559136392866005     H640
    0.0508170449774110    0.0630134381624889    0.5892469726199339     H641
    0.0508170449774110    0.0630134381624889    0.9225803059532671     H642
    0.0508170449774110    0.3963467714958223    0.2559136392866005     H643
    0.0508170449774110    0.3963467714958223    0.5892469726199339     H644
    0.0508170449774110    0.3963467714958223    0.9225803059532671     H645
    0.0508170449774110    0.7296801048291557    0.2559136392866005     H646
    0.0508170449774110    0.7296801048291557    0.5892469726199339     H647
    0.0508170449774110    0.7296801048291557    0.9225803059532671     H648
    0.3438696609341396    0.0770008367829842    0.2231659527649884     H649
    0.3438696609341396    0.0770008367829842    0.5564992860983218     H650
    0.3438696609341396    0.0770008367829842    0.8898326194316550     H651
    0.3438696609341396    0.4103341701163177    0.2231659527649884     H652
    0.3438696609341396    0.4103341701163177    0.5564992860983218     H653
    0.3438696609341396    0.4103341701163177    0.8898326194316550     H654
    0.3438696609341396    0.7436675034496509    0.2231659527649884     H655
    0.3438696609341396    0.7436675034496509    0.5564992860983218     H656
    0.3438696609341396    0.7436675034496509    0.8898326194316550     H657
    0.6772029942674730    0.0770008367829842    0.2231659527649884     H658
    0.6772029942674730    0.0770008367829842    0.5564992860983218     H659
    0.6772029942674730    0.0770008367829842    0.8898326194316550     H660
    0.6772029942674730    0.4103341701163177    0.2231659527649884     H661
    0.6772029942674730    0.4103341701163177    0.5564992860983218     H662
    0.6772029942674730    0.4103341701163177    0.8898326194316550     H663
    0.6772029942674730    0.7436675034496509    0.2231659527649884     H664
    0.6772029942674730    0.7436675034496509    0.5564992860983218     H665
    0.6772029942674730    0.7436675034496509    0.8898326194316550     H666
    0.0105363276008063    0.0770008367829842    0.2231659527649884     H667
    0.0105363276008063    0.0770008367829842    0.5564992860983218     H668
    0.0105363276008063    0.0770008367829842    0.8898326194316550     H669
    0.0105363276008063    0.4103341701163177    0.2231659527649884     H670
    0.0105363276008063    0.4103341701163177    0.5564992860983218     H671
    0.0105363276008063    0.4103341701163177    0.8898326194316550     H672
    0.0105363276008063    0.7436675034496509    0.2231659527649884     H673
    0.0105363276008063    0.7436675034496509    0.5564992860983218     H674
    0.0105363276008063    0.7436675034496509    0.8898326194316550     H675
    0.2535887346338490    0.9792628847398681    0.6902715253093066     H676
    0.2535887346338490    0.9792628847398681    0.0236048586426398     H677
    0.2535887346338490    0.9792628847398681    0.3569381919759732     H678
    0.2535887346338490    0.3125962180732014    0.6902715253093066     H679
    0.2535887346338490    0.3125962180732014    0.0236048586426398     H680
    0.2535887346338490    0.3125962180732014    0.3569381919759732     H681
    0.2535887346338490    0.6459295514065347    0.6902715253093066     H682
    0.2535887346338490    0.6459295514065347    0.0236048586426398     H683
    0.2535887346338490    0.6459295514065347    0.3569381919759732     H684
    0.5869220679671824    0.9792628847398681    0.6902715253093066     H685
    0.5869220679671824    0.9792628847398681    0.0236048586426398     H686
    0.5869220679671824    0.9792628847398681    0.3569381919759732     H687
    0.5869220679671824    0.3125962180732014    0.6902715253093066     H688
    0.5869220679671824    0.3125962180732014    0.0236048586426398     H689
    0.5869220679671824    0.3125962180732014    0.3569381919759732     H690
    0.5869220679671824    0.6459295514065347    0.6902715253093066     H691
    0.5869220679671824    0.6459295514065347    0.0236048586426398     H692
    0.5869220679671824    0.6459295514065347    0.3569381919759732     H693
    0.9202554013005158    0.9792628847398681    0.6902715253093066     H694
    0.9202554013005158    0.9792628847398681    0.0236048586426398     H695
    0.9202554013005158    0.9792628847398681    0.3569381919759732     H696
    0.9202554013005158    0.3125962180732014    0.6902715253093066     H697
    0.9202554013005158    0.3125962180732014    0.0236048586426398     H698
    0.9202554013005158    0.3125962180732014    0.3569381919759732     H699
    0.9202554013005158    0.6459295514065347    0.6902715253093066     H700
    0.9202554013005158    0.6459295514065347    0.0236048586426398     H701
    0.9202554013005158    0.6459295514065347    0.3569381919759732     H702
    0.1817096095232910    0.3977830227514231    0.3512899437540208     H703
    0.1817096095232910    0.3977830227514231    0.6846232770873542     H704
    0.1817096095232910    0.3977830227514231    0.0179566104206874     H705
    0.1817096095232910    0.7311163560847564    0.3512899437540208     H706
    0.1817096095232910    0.7311163560847564    0.6846232770873542     H707
    0.1817096095232910    0.7311163560847564    0.0179566104206874     H708
    0.1817096095232910    0.0644496894180897    0.3512899437540208     H709
    0.1817096095232910    0.0644496894180897    0.6846232770873542     H710
    0.1817096095232910    0.0644496894180897    0.0179566104206874     H711
    0.5150429428566243    0.3977830227514231    0.3512899437540208     H712
    0.5150429428566243    0.3977830227514231    0.6846232770873542     H713
    0.5150429428566243    0.3977830227514231    0.0179566104206874     H714
    0.5150429428566243    0.7311163560847564    0.3512899437540208     H715
    0.5150429428566243    0.7311163560847564    0.6846232770873542     H716
    0.5150429428566243    0.7311163560847564    0.0179566104206874     H717
    0.5150429428566243    0.0644496894180897    0.3512899437540208     H718
    0.5150429428566243    0.0644496894180897    0.6846232770873542     H719
    0.5150429428566243    0.0644496894180897    0.0179566104206874     H720
    0.8483762761899576    0.3977830227514231    0.3512899437540208     H721
    0.8483762761899576    0.3977830227514231    0.6846232770873542     H722
    0.8483762761899576    0.3977830227514231    0.0179566104206874     H723
    0.8483762761899576    0.7311163560847564    0.3512899437540208     H724
    0.8483762761899576    0.7311163560847564    0.6846232770873542     H725
    0.8483762761899576    0.7311163560847564    0.0179566104206874     H726
    0.8483762761899576    0.0644496894180897    0.3512899437540208     H727
    0.8483762761899576    0.0644496894180897    0.6846232770873542     H728
    0.8483762761899576    0.0644496894180897    0.0179566104206874     H729
    0.5040920030664229    0.2393619995164536    0.1605212839166679     H730
    0.5040920030664229    0.2393619995164536    0.4938546172500011     H731
    0.5040920030664229    0.2393619995164536    0.8271879505833344     H732
    0.5040920030664229    0.5726953328497870    0.1605212839166679     H733
    0.5040920030664229    0.5726953328497870    0.4938546172500011     H734
    0.5040920030664229    0.5726953328497870    0.8271879505833344     H735
    0.5040920030664229    0.9060286661831203    0.1605212839166679     H736
    0.5040920030664229    0.9060286661831203    0.4938546172500011     H737
    0.5040920030664229    0.9060286661831203    0.8271879505833344     H738
    0.8374253363997562    0.2393619995164536    0.1605212839166679     H739
    0.8374253363997562    0.2393619995164536    0.4938546172500011     H740
    0.8374253363997562    0.2393619995164536    0.8271879505833344     H741
    0.8374253363997562    0.5726953328497870    0.1605212839166679     H742
    0.8374253363997562    0.5726953328497870    0.4938546172500011     H743
    0.8374253363997562    0.5726953328497870    0.8271879505833344     H744
    0.8374253363997562    0.9060286661831203    0.1605212839166679     H745
    0.8374253363997562    0.9060286661831203    0.4938546172500011     H746
    0.8374253363997562    0.9060286661831203    0.8271879505833344     H747
    0.1707586697330895    0.2393619995164536    0.1605212839166679     H748
    0.1707586697330895    0.2393619995164536    0.4938546172500011     H749
    0.1707586697330895    0.2393619995164536    0.8271879505833344     H750
    0.1707586697330895    0.5726953328497870    0.1605212839166679     H751
    0.1707586697330895    0.5726953328497870    0.4938546172500011     H752
    0.1707586697330895    0.5726953328497870    0.8271879505833344     H753
    0.1707586697330895    0.9060286661831203    0.1605212839166679     H754
    0.1707586697330895    0.9060286661831203    0.4938546172500011     H755
    0.1707586697330895    0.9060286661831203    0.8271879505833344     H756
    0.3724702435876384    0.4548539178997905    0.4145171742248116     H757
    0.3724702435876384    0.4548539178997905    0.7478505075581450     H758
    0.3724702435876384    0.4548539178997905    0.0811838408914782     H759
    0.3724702435876384    0.7881872512331238    0.4145171742248116     H760
    0.3724702435876384    0.7881872512331238    0.7478505075581450     H761
    0.3724702435876384    0.7881872512331238    0.0811838408914782     H762
    0.3724702435876384    0.1215205845664571    0.4145171742248116     H763
    0.3724702435876384    0.1215205845664571    0.7478505075581450     H764
    0.3724702435876384    0.1215205845664571    0.0811838408914782     H765
    0.7058035769209717    0.4548539178997905    0.4145171742248116     H766
    0.7058035769209717    0.4548539178997905    0.7478505075581450     H767
    0.7058035769209717    0.4548539178997905    0.0811838408914782     H768
    0.7058035769209717    0.7881872512331238    0.4145171742248116     H769
    0.7058035769209717    0.7881872512331238    0.7478505075581450     H770
    0.7058035769209717    0.7881872512331238    0.0811838408914782     H771
    0.7058035769209717    0.1215205845664571    0.4145171742248116     H772
    0.7058035769209717    0.1215205845664571    0.7478505075581450     H773
    0.7058035769209717    0.1215205845664571    0.0811838408914782     H774
    0.0391369102543050    0.4548539178997905    0.4145171742248116     H775
    0.0391369102543050    0.4548539178997905    0.7478505075581450     H776
    0.0391369102543050    0.4548539178997905    0.0811838408914782     H777
    0.0391369102543050    0.7881872512331238    0.4145171742248116     H778
    0.0391369102543050    0.7881872512331238    0.7478505075581450     H779
    0.0391369102543050    0.7881872512331238    0.0811838408914782     H780
    0.0391369102543050    0.1215205845664571    0.4145171742248116     H781
    0.0391369102543050    0.1215205845664571    0.7478505075581450     H782
    0.0391369102543050    0.1215205845664571    0.0811838408914782     H783
    0.5036153184209070    0.2941993975719872    0.0327621122025665     H784
    0.5036153184209070    0.2941993975719872    0.3660954455358998     H785
    0.5036153184209070    0.2941993975719872    0.6994287788692330     H786
    0.5036153184209070    0.6275327309053206    0.0327621122025665     H787
    0.5036153184209070    0.6275327309053206    0.3660954455358998     H788
    0.5036153184209070    0.6275327309053206    0.6994287788692330     H789
    0.5036153184209070    0.9608660642386538    0.0327621122025665     H790
    0.5036153184209070    0.9608660642386538    0.3660954455358998     H791
    0.5036153184209070    0.9608660642386538    0.6994287788692330     H792
    0.8369486517542404    0.2941993975719872    0.0327621122025665     H793
    0.8369486517542404    0.2941993975719872    0.3660954455358998     H794
    0.8369486517542404    0.2941993975719872    0.6994287788692330     H795
    0.8369486517542404    0.6275327309053206    0.0327621122025665     H796
    0.8369486517542404    0.6275327309053206    0.3660954455358998     H797
    0.8369486517542404    0.6275327309053206    0.6994287788692330     H798
    0.8369486517542404    0.9608660642386538    0.0327621122025665     H799
    0.8369486517542404    0.9608660642386538    0.3660954455358998     H800
    0.8369486517542404    0.9608660642386538    0.6994287788692330     H801
    0.1702819850875736    0.2941993975719872    0.0327621122025665     H802
    0.1702819850875736    0.2941993975719872    0.3660954455358998     H803
    0.1702819850875736    0.2941993975719872    0.6994287788692330     H804
    0.1702819850875736    0.6275327309053206    0.0327621122025665     H805
    0.1702819850875736    0.6275327309053206    0.3660954455358998     H806
    0.1702819850875736    0.6275327309053206    0.6994287788692330     H807
    0.1702819850875736    0.9608660642386538    0.0327621122025665     H808
    0.1702819850875736    0.9608660642386538    0.3660954455358998     H809
    0.1702819850875736    0.9608660642386538    0.6994287788692330     H810
    0.4874083499083217    0.2984547970574594    0.9868398385046981     H811
    0.4874083499083217    0.2984547970574594    0.3201731718380314     H812
    0.4874083499083217    0.2984547970574594    0.6535065051713649     H813
    0.4874083499083217    0.6317881303907926    0.9868398385046981     H814
    0.4874083499083217    0.6317881303907926    0.3201731718380314     H815
    0.4874083499083217    0.6317881303907926    0.6535065051713649     H816
    0.4874083499083217    0.9651214637241259    0.9868398385046981     H817
    0.4874083499083217    0.9651214637241259    0.3201731718380314     H818
    0.4874083499083217    0.9651214637241259    0.6535065051713649     H819
    0.8207416832416550    0.2984547970574594    0.9868398385046981     H820
    0.8207416832416550    0.2984547970574594    0.3201731718380314     H821
    0.8207416832416550    0.2984547970574594    0.6535065051713649     H822
    0.8207416832416550    0.6317881303907926    0.9868398385046981     H823
    0.8207416832416550    0.6317881303907926    0.3201731718380314     H824
    0.8207416832416550    0.6317881303907926    0.6535065051713649     H825
    0.8207416832416550    0.9651214637241259    0.9868398385046981     H826
    0.8207416832416550    0.9651214637241259    0.3201731718380314     H827
    0.8207416832416550    0.9651214637241259    0.6535065051713649     H828
    0.1540750165749883    0.2984547970574594    0.9868398385046981     H829
    0.1540750165749883    0.2984547970574594    0.3201731718380314     H830
    0.1540750165749883    0.2984547970574594    0.6535065051713649     H831
    0.1540750165749883    0.6317881303907926    0.9868398385046981     H832
    0.1540750165749883    0.6317881303907926    0.3201731718380314     H833
    0.1540750165749883    0.6317881303907926    0.6535065051713649     H834
    0.1540750165749883    0.9651214637241259    0.9868398385046981     H835
    0.1540750165749883    0.9651214637241259    0.3201731718380314     H836
    0.1540750165749883    0.9651214637241259    0.6535065051713649     H837
    0.3584083922963530    0.4467054041411918    0.3218598102004749     H838
    0.3584083922963530    0.4467054041411918    0.6551931435338083     H839
    0.3584083922963530    0.4467054041411918    0.9885264768671416     H840
    0.3584083922963530    0.7800387374745250    0.3218598102004749     H841
    0.3584083922963530    0.7800387374745250    0.6551931435338083     H842
    0.3584083922963530    0.7800387374745250    0.9885264768671416     H843
    0.3584083922963530    0.1133720708078583    0.3218598102004749     H844
    0.3584083922963530    0.1133720708078583    0.6551931435338083     H845
    0.3584083922963530    0.1133720708078583    0.9885264768671416     H846
    0.6917417256296864    0.4467054041411918    0.3218598102004749     H847
    0.6917417256296864    0.4467054041411918    0.6551931435338083     H848
    0.6917417256296864    0.4467054041411918    0.9885264768671416     H849
    0.6917417256296864    0.7800387374745250    0.3218598102004749     H850
    0.6917417256296864    0.7800387374745250    0.6551931435338083     H851
    0.6917417256296864    0.7800387374745250    0.9885264768671416     H852
    0.6917417256296864    0.1133720708078583    0.3218598102004749     H853
    0.6917417256296864    0.1133720708078583    0.6551931435338083     H854
    0.6917417256296864    0.1133720708078583    0.9885264768671416     H855
    0.0250750589630197    0.4467054041411918    0.3218598102004749     H856
    0.0250750589630197    0.4467054041411918    0.6551931435338083     H857
    0.0250750589630197    0.4467054041411918    0.9885264768671416     H858
    0.0250750589630197    0.7800387374745250    0.3218598102004749     H859
    0.0250750589630197    0.7800387374745250    0.6551931435338083     H860
    0.0250750589630197    0.7800387374745250    0.9885264768671416     H861
    0.0250750589630197    0.1133720708078583    0.3218598102004749     H862
    0.0250750589630197    0.1133720708078583    0.6551931435338083     H863
    0.0250750589630197    0.1133720708078583    0.9885264768671416     H864
    0.3533566100075435    0.1136049177752207    0.1735520298011073     H865
    0.3533566100075435    0.1136049177752207    0.5068853631344407     H866
    0.3533566100075435    0.1136049177752207    0.8402186964677740     H867
    0.3533566100075435    0.4469382511085540    0.1735520298011073     H868
    0.3533566100075435    0.4469382511085540    0.5068853631344407     H869
    0.3533566100075435    0.4469382511085540    0.8402186964677740     H870
    0.3533566100075435    0.7802715844418874    0.1735520298011073     H871
    0.3533566100075435    0.7802715844418874    0.5068853631344407     H872
    0.3533566100075435    0.7802715844418874    0.8402186964677740     H873
    0.6866899433408769    0.1136049177752207    0.1735520298011073     H874
    0.6866899433408769    0.1136049177752207    0.5068853631344407     H875
    0.6866899433408769    0.1136049177752207    0.8402186964677740     H876
    0.6866899433408769    0.4469382511085540    0.1735520298011073     H877
    0.6866899433408769    0.4469382511085540    0.5068853631344407     H878
    0.6866899433408769    0.4469382511085540    0.8402186964677740     H879
    0.6866899433408769    0.7802715844418874    0.1735520298011073     H880
    0.6866899433408769    0.7802715844418874    0.5068853631344407     H881
    0.6866899433408769    0.7802715844418874    0.8402186964677740     H882
    0.0200232766742101    0.1136049177752207    0.1735520298011073     H883
    0.0200232766742101    0.1136049177752207    0.5068853631344407     H884
    0.0200232766742101    0.1136049177752207    0.8402186964677740     H885
    0.0200232766742101    0.4469382511085540    0.1735520298011073     H886
    0.0200232766742101    0.4469382511085540    0.5068853631344407     H887
    0.0200232766742101    0.4469382511085540    0.8402186964677740     H888
    0.0200232766742101    0.7802715844418874    0.1735520298011073     H889
    0.0200232766742101    0.7802715844418874    0.5068853631344407     H890
    0.0200232766742101    0.7802715844418874    0.8402186964677740     H891
    0.1453415497523127    0.3768079787641130    0.3961499919737993     H892
    0.1453415497523127    0.3768079787641130    0.7294833253071327     H893
    0.1453415497523127    0.3768079787641130    0.0628166586404659     H894
    0.1453415497523127    0.7101413120974464    0.3961499919737993     H895
    0.1453415497523127    0.7101413120974464    0.7294833253071327     H896
    0.1453415497523127    0.7101413120974464    0.0628166586404659     H897
    0.1453415497523127    0.0434746454307796    0.3961499919737993     H898
    0.1453415497523127    0.0434746454307796    0.7294833253071327     H899
    0.1453415497523127    0.0434746454307796    0.0628166586404659     H900
    0.4786748830856460    0.3768079787641130    0.3961499919737993     H901
    0.4786748830856460    0.3768079787641130    0.7294833253071327     H902
    0.4786748830856460    0.3768079787641130    0.0628166586404659     H903
    0.4786748830856460    0.7101413120974464    0.3961499919737993     H904
    0.4786748830856460    0.7101413120974464    0.7294833253071327     H905
    0.4786748830856460    0.7101413120974464    0.0628166586404659     H906
    0.4786748830856460    0.0434746454307796    0.3961499919737993     H907
    0.4786748830856460    0.0434746454307796    0.7294833253071327     H908
    0.4786748830856460    0.0434746454307796    0.0628166586404659     H909
    0.8120082164189794    0.3768079787641130    0.3961499919737993     H910
    0.8120082164189794    0.3768079787641130    0.7294833253071327     H911
    0.8120082164189794    0.3768079787641130    0.0628166586404659     H912
    0.8120082164189794    0.7101413120974464    0.3961499919737993     H913
    0.8120082164189794    0.7101413120974464    0.7294833253071327     H914
    0.8120082164189794    0.7101413120974464    0.0628166586404659     H915
    0.8120082164189794    0.0434746454307796    0.3961499919737993     H916
    0.8120082164189794    0.0434746454307796    0.7294833253071327     H917
    0.8120082164189794    0.0434746454307796    0.0628166586404659     H918
    0.4194315535828117    0.3588956099272393    0.0095802418750566     H919
    0.4194315535828117    0.3588956099272393    0.3429135752083898     H920
    0.4194315535828117    0.3588956099272393    0.6762469085417232     H921
    0.4194315535828117    0.6922289432605726    0.0095802418750566     H922
    0.4194315535828117    0.6922289432605726    0.3429135752083898     H923
    0.4194315535828117    0.6922289432605726    0.6762469085417232     H924
    0.4194315535828117    0.0255622765939059    0.0095802418750566     H925
    0.4194315535828117    0.0255622765939059    0.3429135752083898     H926
    0.4194315535828117    0.0255622765939059    0.6762469085417232     H927
    0.7527648869161450    0.3588956099272393    0.0095802418750566     H928
    0.7527648869161450    0.3588956099272393    0.3429135752083898     H929
    0.7527648869161450    0.3588956099272393    0.6762469085417232     H930
    0.7527648869161450    0.6922289432605726    0.0095802418750566     H931
    0.7527648869161450    0.6922289432605726    0.3429135752083898     H932
    0.7527648869161450    0.6922289432605726    0.6762469085417232     H933
    0.7527648869161450    0.0255622765939059    0.0095802418750566     H934
    0.7527648869161450    0.0255622765939059    0.3429135752083898     H935
    0.7527648869161450    0.0255622765939059    0.6762469085417232     H936
    0.0860982202494783    0.3588956099272393    0.0095802418750566     H937
    0.0860982202494783    0.3588956099272393    0.3429135752083898     H938
    0.0860982202494783    0.3588956099272393    0.6762469085417232     H939
    0.0860982202494783    0.6922289432605726    0.0095802418750566     H940
    0.0860982202494783    0.6922289432605726    0.3429135752083898     H941
    0.0860982202494783    0.6922289432605726    0.6762469085417232     H942
    0.0860982202494783    0.0255622765939059    0.0095802418750566     H943
    0.0860982202494783    0.0255622765939059    0.3429135752083898     H944
    0.0860982202494783    0.0255622765939059    0.6762469085417232     H945
    0.2681489439517056    0.3702781749638829    0.2852407791152098     H946
    0.2681489439517056    0.3702781749638829    0.6185741124485431     H947
    0.2681489439517056    0.3702781749638829    0.9519074457818765     H948
    0.2681489439517056    0.7036115082972163    0.2852407791152098     H949
    0.2681489439517056    0.7036115082972163    0.6185741124485431     H950
    0.2681489439517056    0.7036115082972163    0.9519074457818765     H951
    0.2681489439517056    0.0369448416305496    0.2852407791152098     H952
    0.2681489439517056    0.0369448416305496    0.6185741124485431     H953
    0.2681489439517056    0.0369448416305496    0.9519074457818765     H954
    0.6014822772850390    0.3702781749638829    0.2852407791152098     H955
    0.6014822772850390    0.3702781749638829    0.6185741124485431     H956
    0.6014822772850390    0.3702781749638829    0.9519074457818765     H957
    0.6014822772850390    0.7036115082972163    0.2852407791152098     H958
    0.6014822772850390    0.7036115082972163    0.6185741124485431     H959
    0.6014822772850390    0.7036115082972163    0.9519074457818765     H960
    0.6014822772850390    0.0369448416305496    0.2852407791152098     H961
    0.6014822772850390    0.0369448416305496    0.6185741124485431     H962
    0.6014822772850390    0.0369448416305496    0.9519074457818765     H963
    0.9348156106183723    0.3702781749638829    0.2852407791152098     H964
    0.9348156106183723    0.3702781749638829    0.6185741124485431     H965
    0.9348156106183723    0.3702781749638829    0.9519074457818765     H966
    0.9348156106183723    0.7036115082972163    0.2852407791152098     H967
    0.9348156106183723    0.7036115082972163    0.6185741124485431     H968
    0.9348156106183723    0.7036115082972163    0.9519074457818765     H969
    0.9348156106183723    0.0369448416305496    0.2852407791152098     H970
    0.9348156106183723    0.0369448416305496    0.6185741124485431     H971
    0.9348156106183723    0.0369448416305496    0.9519074457818765     H972
    0.3169723690066144    0.2938210668288608    0.6398063745297273     H973
    0.3169723690066144    0.2938210668288608    0.9731397078630606     H974
    0.3169723690066144    0.2938210668288608    0.3064730411963939     H975
    0.3169723690066144    0.6271544001621940    0.6398063745297273     H976
    0.3169723690066144    0.6271544001621940    0.9731397078630606     H977
    0.3169723690066144    0.6271544001621940    0.3064730411963939     H978
    0.3169723690066144    0.9604877334955274    0.6398063745297273     H979
    0.3169723690066144    0.9604877334955274    0.9731397078630606     H980
    0.3169723690066144    0.9604877334955274    0.3064730411963939     H981
    0.6503057023399478    0.2938210668288608    0.6398063745297273     H982
    0.6503057023399478    0.2938210668288608    0.9731397078630606     H983
    0.6503057023399478    0.2938210668288608    0.3064730411963939     H984
    0.6503057023399478    0.6271544001621940    0.6398063745297273     H985
    0.6503057023399478    0.6271544001621940    0.9731397078630606     H986
    0.6503057023399478    0.6271544001621940    0.3064730411963939     H987
    0.6503057023399478    0.9604877334955274    0.6398063745297273     H988
    0.6503057023399478    0.9604877334955274    0.9731397078630606     H989
    0.6503057023399478    0.9604877334955274    0.3064730411963939     H990
    0.9836390356732810    0.2938210668288608    0.6398063745297273     H991
    0.9836390356732810    0.2938210668288608    0.9731397078630606     H992
    0.9836390356732810    0.2938210668288608    0.3064730411963939     H993
    0.9836390356732810    0.6271544001621940    0.6398063745297273     H994
    0.9836390356732810    0.6271544001621940    0.9731397078630606     H995
    0.9836390356732810    0.6271544001621940    0.3064730411963939     H996
    0.9836390356732810    0.9604877334955274    0.6398063745297273     H997
    0.9836390356732810    0.9604877334955274    0.9731397078630606     H998
    0.9836390356732810    0.9604877334955274    0.3064730411963939     H999
    0.4844611370326370    0.2556011464726886    0.1144535542132263    H1000
    0.4844611370326370    0.2556011464726886    0.4477868875465597    H1001
    0.4844611370326370    0.2556011464726886    0.7811202208798931    H1002
    0.4844611370326370    0.5889344798060219    0.1144535542132263    H1003
    0.4844611370326370    0.5889344798060219    0.4477868875465597    H1004
    0.4844611370326370    0.5889344798060219    0.7811202208798931    H1005
    0.4844611370326370    0.9222678131393552    0.1144535542132263    H1006
    0.4844611370326370    0.9222678131393552    0.4477868875465597    H1007
    0.4844611370326370    0.9222678131393552    0.7811202208798931    H1008
    0.8177944703659704    0.2556011464726886    0.1144535542132263    H1009
    0.8177944703659704    0.2556011464726886    0.4477868875465597    H1010
    0.8177944703659704    0.2556011464726886    0.7811202208798931    H1011
    0.8177944703659704    0.5889344798060219    0.1144535542132263    H1012
    0.8177944703659704    0.5889344798060219    0.4477868875465597    H1013
    0.8177944703659704    0.5889344798060219    0.7811202208798931    H1014
    0.8177944703659704    0.9222678131393552    0.1144535542132263    H1015
    0.8177944703659704    0.9222678131393552    0.4477868875465597    H1016
    0.8177944703659704    0.9222678131393552    0.7811202208798931    H1017
    0.1511278036993037    0.2556011464726886    0.1144535542132263    H1018
    0.1511278036993037    0.2556011464726886    0.4477868875465597    H1019
    0.1511278036993037    0.2556011464726886    0.7811202208798931    H1020
    0.1511278036993037    0.5889344798060219    0.1144535542132263    H1021
    0.1511278036993037    0.5889344798060219    0.4477868875465597    H1022
    0.1511278036993037    0.5889344798060219    0.7811202208798931    H1023
    0.1511278036993037    0.9222678131393552    0.1144535542132263    H1024
    0.1511278036993037    0.9222678131393552    0.4477868875465597    H1025
    0.1511278036993037    0.9222678131393552    0.7811202208798931    H1026
    0.2839291742794007    0.3353237604425976    0.2373992281772986    H1027
    0.2839291742794007    0.3353237604425976    0.5707325615106320    H1028
    0.2839291742794007    0.3353237604425976    0.9040658948439653    H1029
    0.2839291742794007    0.6686570937759309    0.2373992281772986    H1030
    0.2839291742794007    0.6686570937759309    0.5707325615106320    H1031
    0.2839291742794007    0.6686570937759309    0.9040658948439653    H1032
    0.2839291742794007    0.0019904271092642    0.2373992281772986    H1033
    0.2839291742794007    0.0019904271092642    0.5707325615106320    H1034
    0.2839291742794007    0.0019904271092642    0.9040658948439653    H1035
    0.6172625076127340    0.3353237604425976    0.2373992281772986    H1036
    0.6172625076127340    0.3353237604425976    0.5707325615106320    H1037
    0.6172625076127340    0.3353237604425976    0.9040658948439653    H1038
    0.6172625076127340    0.6686570937759309    0.2373992281772986    H1039
    0.6172625076127340    0.6686570937759309    0.5707325615106320    H1040
    0.6172625076127340    0.6686570937759309    0.9040658948439653    H1041
    0.6172625076127340    0.0019904271092642    0.2373992281772986    H1042
    0.6172625076127340    0.0019904271092642    0.5707325615106320    H1043
    0.6172625076127340    0.0019904271092642    0.9040658948439653    H1044
    0.9505958409460673    0.3353237604425976    0.2373992281772986    H1045
    0.9505958409460673    0.3353237604425976    0.5707325615106320    H1046
    0.9505958409460673    0.3353237604425976    0.9040658948439653    H1047
    0.9505958409460673    0.6686570937759309    0.2373992281772986    H1048
    0.9505958409460673    0.6686570937759309    0.5707325615106320    H1049
    0.9505958409460673    0.6686570937759309    0.9040658948439653    H1050
    0.9505958409460673    0.0019904271092642    0.2373992281772986    H1051
    0.9505958409460673    0.0019904271092642    0.5707325615106320    H1052
    0.9505958409460673    0.0019904271092642    0.9040658948439653    H1053
    0.2622447400212475    0.3039581133183419    0.2757940510579968    H1054
    0.2622447400212475    0.3039581133183419    0.6091273843913302    H1055
    0.2622447400212475    0.3039581133183419    0.9424607177246636    H1056
    0.2622447400212475    0.6372914466516753    0.2757940510579968    H1057
    0.2622447400212475    0.6372914466516753    0.6091273843913302    H1058
    0.2622447400212475    0.6372914466516753    0.9424607177246636    H1059
    0.2622447400212475    0.9706247799850085    0.2757940510579968    H1060
    0.2622447400212475    0.9706247799850085    0.6091273843913302    H1061
    0.2622447400212475    0.9706247799850085    0.9424607177246636    H1062
    0.5955780733545808    0.3039581133183419    0.2757940510579968    H1063
    0.5955780733545808    0.3039581133183419    0.6091273843913302    H1064
    0.5955780733545808    0.3039581133183419    0.9424607177246636    H1065
    0.5955780733545808    0.6372914466516753    0.2757940510579968    H1066
    0.5955780733545808    0.6372914466516753    0.6091273843913302    H1067
    0.5955780733545808    0.6372914466516753    0.9424607177246636    H1068
    0.5955780733545808    0.9706247799850085    0.2757940510579968    H1069
    0.5955780733545808    0.9706247799850085    0.6091273843913302    H1070
    0.5955780733545808    0.9706247799850085    0.9424607177246636    H1071
    0.9289114066879142    0.3039581133183419    0.2757940510579968    H1072
    0.9289114066879142    0.3039581133183419    0.6091273843913302    H1073
    0.9289114066879142    0.3039581133183419    0.9424607177246636    H1074
    0.9289114066879142    0.6372914466516753    0.2757940510579968    H1075
    0.9289114066879142    0.6372914466516753    0.6091273843913302    H1076
    0.9289114066879142    0.6372914466516753    0.9424607177246636    H1077
    0.9289114066879142    0.9706247799850085    0.2757940510579968    H1078
    0.9289114066879142    0.9706247799850085    0.6091273843913302    H1079
    0.9289114066879142    0.9706247799850085    0.9424607177246636    H1080
    0.3949369056209570    0.3293183680153645    0.0539696144470313    H1081
    0.3949369056209570    0.3293183680153645    0.3873029477803647    H1082
    0.3949369056209570    0.3293183680153645    0.7206362811136979    H1083
    0.3949369056209570    0.6626517013486979    0.0539696144470313    H1084
    0.3949369056209570    0.6626517013486979    0.3873029477803647    H1085
    0.3949369056209570    0.6626517013486979    0.7206362811136979    H1086
    0.3949369056209570    0.9959850346820311    0.0539696144470313    H1087
    0.3949369056209570    0.9959850346820311    0.3873029477803647    H1088
    0.3949369056209570    0.9959850346820311    0.7206362811136979    H1089
    0.7282702389542903    0.3293183680153645    0.0539696144470313    H1090
    0.7282702389542903    0.3293183680153645    0.3873029477803647    H1091
    0.7282702389542903    0.3293183680153645    0.7206362811136979    H1092
    0.7282702389542903    0.6626517013486979    0.0539696144470313    H1093
    0.7282702389542903    0.6626517013486979    0.3873029477803647    H1094
    0.7282702389542903    0.6626517013486979    0.7206362811136979    H1095
    0.7282702389542903    0.9959850346820311    0.0539696144470313    H1096
    0.7282702389542903    0.9959850346820311    0.3873029477803647    H1097
    0.7282702389542903    0.9959850346820311    0.7206362811136979    H1098
    0.0616035722876236    0.3293183680153645    0.0539696144470313    H1099
    0.0616035722876236    0.3293183680153645    0.3873029477803647    H1100
    0.0616035722876236    0.3293183680153645    0.7206362811136979    H1101
    0.0616035722876236    0.6626517013486979    0.0539696144470313    H1102
    0.0616035722876236    0.6626517013486979    0.3873029477803647    H1103
    0.0616035722876236    0.6626517013486979    0.7206362811136979    H1104
    0.0616035722876236    0.9959850346820311    0.0539696144470313    H1105
    0.0616035722876236    0.9959850346820311    0.3873029477803647    H1106
    0.0616035722876236    0.9959850346820311    0.7206362811136979    H1107
    0.4098726703641253    0.2844968495778319    0.0445595281754967    H1108
    0.4098726703641253    0.2844968495778319    0.3778928615088302    H1109
    0.4098726703641253    0.2844968495778319    0.7112261948421634    H1110
    0.4098726703641253    0.6178301829111653    0.0445595281754967    H1111
    0.4098726703641253    0.6178301829111653    0.3778928615088302    H1112
    0.4098726703641253    0.6178301829111653    0.7112261948421634    H1113
    0.4098726703641253    0.9511635162444987    0.0445595281754967    H1114
    0.4098726703641253    0.9511635162444987    0.3778928615088302    H1115
    0.4098726703641253    0.9511635162444987    0.7112261948421634    H1116
    0.7432060036974586    0.2844968495778319    0.0445595281754967    H1117
    0.7432060036974586    0.2844968495778319    0.3778928615088302    H1118
    0.7432060036974586    0.2844968495778319    0.7112261948421634    H1119
    0.7432060036974586    0.6178301829111653    0.0445595281754967    H1120
    0.7432060036974586    0.6178301829111653    0.3778928615088302    H1121
    0.7432060036974586    0.6178301829111653    0.7112261948421634    H1122
    0.7432060036974586    0.9511635162444987    0.0445595281754967    H1123
    0.7432060036974586    0.9511635162444987    0.3778928615088302    H1124
    0.7432060036974586    0.9511635162444987    0.7112261948421634    H1125
    0.0765393370307919    0.2844968495778319    0.0445595281754967    H1126
    0.0765393370307919    0.2844968495778319    0.3778928615088302    H1127
    0.0765393370307919    0.2844968495778319    0.7112261948421634    H1128
    0.0765393370307919    0.6178301829111653    0.0445595281754967    H1129
    0.0765393370307919    0.6178301829111653    0.3778928615088302    H1130
    0.0765393370307919    0.6178301829111653    0.7112261948421634    H1131
    0.0765393370307919    0.9511635162444987    0.0445595281754967    H1132
    0.0765393370307919    0.9511635162444987    0.3778928615088302    H1133
    0.0765393370307919    0.9511635162444987    0.7112261948421634    H1134
    0.5666103464718182    0.1952516526511294    0.0165386517700811    H1135
    0.5666103464718182    0.1952516526511294    0.3498719851034144    H1136
    0.5666103464718182    0.1952516526511294    0.6832053184367477    H1137
    0.5666103464718182    0.5285849859844628    0.0165386517700811    H1138
    0.5666103464718182    0.5285849859844628    0.3498719851034144    H1139
    0.5666103464718182    0.5285849859844628    0.6832053184367477    H1140
    0.5666103464718182    0.8619183193177962    0.0165386517700811    H1141
    0.5666103464718182    0.8619183193177962    0.3498719851034144    H1142
    0.5666103464718182    0.8619183193177962    0.6832053184367477    H1143
    0.8999436798051516    0.1952516526511294    0.0165386517700811    H1144
    0.8999436798051516    0.1952516526511294    0.3498719851034144    H1145
    0.8999436798051516    0.1952516526511294    0.6832053184367477    H1146
    0.8999436798051516    0.5285849859844628    0.0165386517700811    H1147
    0.8999436798051516    0.5285849859844628    0.3498719851034144    H1148
    0.8999436798051516    0.5285849859844628    0.6832053184367477    H1149
    0.8999436798051516    0.8619183193177962    0.0165386517700811    H1150
    0.8999436798051516    0.8619183193177962    0.3498719851034144    H1151
    0.8999436798051516    0.8619183193177962    0.6832053184367477    H1152
    0.2332770131384848    0.1952516526511294    0.0165386517700811    H1153
    0.2332770131384848    0.1952516526511294    0.3498719851034144    H1154
    0.2332770131384848    0.1952516526511294    0.6832053184367477    H1155
    0.2332770131384848    0.5285849859844628    0.0165386517700811    H1156
    0.2332770131384848    0.5285849859844628    0.3498719851034144    H1157
    0.2332770131384848    0.5285849859844628    0.6832053184367477    H1158
    0.2332770131384848    0.8619183193177962    0.0165386517700811    H1159
    0.2332770131384848    0.8619183193177962    0.3498719851034144    H1160
    0.2332770131384848    0.8619183193177962    0.6832053184367477    H1161
    0.5002396752772874    0.1639141736994171    0.0684153497746169    H1162
    0.5002396752772874    0.1639141736994171    0.4017486831079502    H1163
    0.5002396752772874    0.1639141736994171    0.7350820164412835    H1164
    0.5002396752772874    0.4972475070327504    0.0684153497746169    H1165
    0.5002396752772874    0.4972475070327504    0.4017486831079502    H1166
    0.5002396752772874    0.4972475070327504    0.7350820164412835    H1167
    0.5002396752772874    0.8305808403660838    0.0684153497746169    H1168
    0.5002396752772874    0.8305808403660838    0.4017486831079502    H1169
    0.5002396752772874    0.8305808403660838    0.7350820164412835    H1170
    0.8335730086106208    0.1639141736994171    0.0684153497746169    H1171
    0.8335730086106208    0.1639141736994171    0.4017486831079502    H1172
    0.8335730086106208    0.1639141736994171    0.7350820164412835    H1173
    0.8335730086106208    0.4972475070327504    0.0684153497746169    H1174
    0.8335730086106208    0.4972475070327504    0.4017486831079502    H1175
    0.8335730086106208    0.4972475070327504    0.7350820164412835    H1176
    0.8335730086106208    0.8305808403660838    0.0684153497746169    H1177
    0.8335730086106208    0.8305808403660838    0.4017486831079502    H1178
    0.8335730086106208    0.8305808403660838    0.7350820164412835    H1179
    0.1669063419439540    0.1639141736994171    0.0684153497746169    H1180
    0.1669063419439540    0.1639141736994171    0.4017486831079502    H1181
    0.1669063419439540    0.1639141736994171    0.7350820164412835    H1182
    0.1669063419439540    0.4972475070327504    0.0684153497746169    H1183
    0.1669063419439540    0.4972475070327504    0.4017486831079502    H1184
    0.1669063419439540    0.4972475070327504    0.7350820164412835    H1185
    0.1669063419439540    0.8305808403660838    0.0684153497746169    H1186
    0.1669063419439540    0.8305808403660838    0.4017486831079502    H1187
    0.1669063419439540    0.8305808403660838    0.7350820164412835    H1188
    0.4348445748353053    0.3051720889398236    0.1863970739914034    H1189
    0.4348445748353053    0.3051720889398236    0.5197304073247366    H1190
    0.4348445748353053    0.3051720889398236    0.8530637406580699    H1191
    0.4348445748353053    0.6385054222731570    0.1863970739914034    H1192
    0.4348445748353053    0.6385054222731570    0.5197304073247366    H1193
    0.4348445748353053    0.6385054222731570    0.8530637406580699    H1194
    0.4348445748353053    0.9718387556064904    0.1863970739914034    H1195
    0.4348445748353053    0.9718387556064904    0.5197304073247366    H1196
    0.4348445748353053    0.9718387556064904    0.8530637406580699    H1197
    0.7681779081686386    0.3051720889398236    0.1863970739914034    H1198
    0.7681779081686386    0.3051720889398236    0.5197304073247366    H1199
    0.7681779081686386    0.3051720889398236    0.8530637406580699    H1200
    0.7681779081686386    0.6385054222731570    0.1863970739914034    H1201
    0.7681779081686386    0.6385054222731570    0.5197304073247366    H1202
    0.7681779081686386    0.6385054222731570    0.8530637406580699    H1203
    0.7681779081686386    0.9718387556064904    0.1863970739914034    H1204
    0.7681779081686386    0.9718387556064904    0.5197304073247366    H1205
    0.7681779081686386    0.9718387556064904    0.8530637406580699    H1206
    0.1015112415019719    0.3051720889398236    0.1863970739914034    H1207
    0.1015112415019719    0.3051720889398236    0.5197304073247366    H1208
    0.1015112415019719    0.3051720889398236    0.8530637406580699    H1209
    0.1015112415019719    0.6385054222731570    0.1863970739914034    H1210
    0.1015112415019719    0.6385054222731570    0.5197304073247366    H1211
    0.1015112415019719    0.6385054222731570    0.8530637406580699    H1212
    0.1015112415019719    0.9718387556064904    0.1863970739914034    H1213
    0.1015112415019719    0.9718387556064904    0.5197304073247366    H1214
    0.1015112415019719    0.9718387556064904    0.8530637406580699    H1215
    0.4895123304081210    0.3340683430297711    0.0201295114926987    H1216
    0.4895123304081210    0.3340683430297711    0.3534628448260322    H1217
    0.4895123304081210    0.3340683430297711    0.6867961781593654    H1218
    0.4895123304081210    0.6674016763631043    0.0201295114926987    H1219
    0.4895123304081210    0.6674016763631043    0.3534628448260322    H1220
    0.4895123304081210    0.6674016763631043    0.6867961781593654    H1221
    0.4895123304081210    0.0007350096964377    0.0201295114926987    H1222
    0.4895123304081210    0.0007350096964377    0.3534628448260322    H1223
    0.4895123304081210    0.0007350096964377    0.6867961781593654    H1224
    0.8228456637414543    0.3340683430297711    0.0201295114926987    H1225
    0.8228456637414543    0.3340683430297711    0.3534628448260322    H1226
    0.8228456637414543    0.3340683430297711    0.6867961781593654    H1227
    0.8228456637414543    0.6674016763631043    0.0201295114926987    H1228
    0.8228456637414543    0.6674016763631043    0.3534628448260322    H1229
    0.8228456637414543    0.6674016763631043    0.6867961781593654    H1230
    0.8228456637414543    0.0007350096964377    0.0201295114926987    H1231
    0.8228456637414543    0.0007350096964377    0.3534628448260322    H1232
    0.8228456637414543    0.0007350096964377    0.6867961781593654    H1233
    0.1561789970747876    0.3340683430297711    0.0201295114926987    H1234
    0.1561789970747876    0.3340683430297711    0.3534628448260322    H1235
    0.1561789970747876    0.3340683430297711    0.6867961781593654    H1236
    0.1561789970747876    0.6674016763631043    0.0201295114926987    H1237
    0.1561789970747876    0.6674016763631043    0.3534628448260322    H1238
    0.1561789970747876    0.6674016763631043    0.6867961781593654    H1239
    0.1561789970747876    0.0007350096964377    0.0201295114926987    H1240
    0.1561789970747876    0.0007350096964377    0.3534628448260322    H1241
    0.1561789970747876    0.0007350096964377    0.6867961781593654    H1242
    0.4446667309771939    0.3194980385047214    0.0701013676501214    H1243
    0.4446667309771939    0.3194980385047214    0.4034347009834547    H1244
    0.4446667309771939    0.3194980385047214    0.7367680343167879    H1245
    0.4446667309771939    0.6528313718380547    0.0701013676501214    H1246
    0.4446667309771939    0.6528313718380547    0.4034347009834547    H1247
    0.4446667309771939    0.6528313718380547    0.7367680343167879    H1248
    0.4446667309771939    0.9861647051713880    0.0701013676501214    H1249
    0.4446667309771939    0.9861647051713880    0.4034347009834547    H1250
    0.4446667309771939    0.9861647051713880    0.7367680343167879    H1251
    0.7780000643105273    0.3194980385047214    0.0701013676501214    H1252
    0.7780000643105273    0.3194980385047214    0.4034347009834547    H1253
    0.7780000643105273    0.3194980385047214    0.7367680343167879    H1254
    0.7780000643105273    0.6528313718380547    0.0701013676501214    H1255
    0.7780000643105273    0.6528313718380547    0.4034347009834547    H1256
    0.7780000643105273    0.6528313718380547    0.7367680343167879    H1257
    0.7780000643105273    0.9861647051713880    0.0701013676501214    H1258
    0.7780000643105273    0.9861647051713880    0.4034347009834547    H1259
    0.7780000643105273    0.9861647051713880    0.7367680343167879    H1260
    0.1113333976438605    0.3194980385047214    0.0701013676501214    H1261
    0.1113333976438605    0.3194980385047214    0.4034347009834547    H1262
    0.1113333976438605    0.3194980385047214    0.7367680343167879    H1263
    0.1113333976438605    0.6528313718380547    0.0701013676501214    H1264
    0.1113333976438605    0.6528313718380547    0.4034347009834547    H1265
    0.1113333976438605    0.6528313718380547    0.7367680343167879    H1266
    0.1113333976438605    0.9861647051713880    0.0701013676501214    H1267
    0.1113333976438605    0.9861647051713880    0.4034347009834547    H1268
    0.1113333976438605    0.9861647051713880    0.7367680343167879    H1269
    0.3471811365296298    0.3083063160868437    0.1762651066372709    H1270
    0.3471811365296298    0.3083063160868437    0.5095984399706043    H1271
    0.3471811365296298    0.3083063160868437    0.8429317733039376    H1272
    0.3471811365296298    0.6416396494201770    0.1762651066372709    H1273
    0.3471811365296298    0.6416396494201770    0.5095984399706043    H1274
    0.3471811365296298    0.6416396494201770    0.8429317733039376    H1275
    0.3471811365296298    0.9749729827535103    0.1762651066372709    H1276
    0.3471811365296298    0.9749729827535103    0.5095984399706043    H1277
    0.3471811365296298    0.9749729827535103    0.8429317733039376    H1278
    0.6805144698629632    0.3083063160868437    0.1762651066372709    H1279
    0.6805144698629632    0.3083063160868437    0.5095984399706043    H1280
    0.6805144698629632    0.3083063160868437    0.8429317733039376    H1281
    0.6805144698629632    0.6416396494201770    0.1762651066372709    H1282
    0.6805144698629632    0.6416396494201770    0.5095984399706043    H1283
    0.6805144698629632    0.6416396494201770    0.8429317733039376    H1284
    0.6805144698629632    0.9749729827535103    0.1762651066372709    H1285
    0.6805144698629632    0.9749729827535103    0.5095984399706043    H1286
    0.6805144698629632    0.9749729827535103    0.8429317733039376    H1287
    0.0138478031962965    0.3083063160868437    0.1762651066372709    H1288
    0.0138478031962965    0.3083063160868437    0.5095984399706043    H1289
    0.0138478031962965    0.3083063160868437    0.8429317733039376    H1290
    0.0138478031962965    0.6416396494201770    0.1762651066372709    H1291
    0.0138478031962965    0.6416396494201770    0.5095984399706043    H1292
    0.0138478031962965    0.6416396494201770    0.8429317733039376    H1293
    0.0138478031962965    0.9749729827535103    0.1762651066372709    H1294
    0.0138478031962965    0.9749729827535103    0.5095984399706043    H1295
    0.0138478031962965    0.9749729827535103    0.8429317733039376    H1296
    0.4048444749765141    0.4782916484756592    0.3940621351486803    H1297
    0.4048444749765141    0.4782916484756592    0.7273954684820136    H1298
    0.4048444749765141    0.4782916484756592    0.0607288018153469    H1299
    0.4048444749765141    0.8116249818089926    0.3940621351486803    H1300
    0.4048444749765141    0.8116249818089926    0.7273954684820136    H1301
    0.4048444749765141    0.8116249818089926    0.0607288018153469    H1302
    0.4048444749765141    0.1449583151423258    0.3940621351486803    H1303
    0.4048444749765141    0.1449583151423258    0.7273954684820136    H1304
    0.4048444749765141    0.1449583151423258    0.0607288018153469    H1305
    0.7381778083098475    0.4782916484756592    0.3940621351486803    H1306
    0.7381778083098475    0.4782916484756592    0.7273954684820136    H1307
    0.7381778083098475    0.4782916484756592    0.0607288018153469    H1308
    0.7381778083098475    0.8116249818089926    0.3940621351486803    H1309
    0.7381778083098475    0.8116249818089926    0.7273954684820136    H1310
    0.7381778083098475    0.8116249818089926    0.0607288018153469    H1311
    0.7381778083098475    0.1449583151423258    0.3940621351486803    H1312
    0.7381778083098475    0.1449583151423258    0.7273954684820136    H1313
    0.7381778083098475    0.1449583151423258    0.0607288018153469    H1314
    0.0715111416431808    0.4782916484756592    0.3940621351486803    H1315
    0.0715111416431808    0.4782916484756592    0.7273954684820136    H1316
    0.0715111416431808    0.4782916484756592    0.0607288018153469    H1317
    0.0715111416431808    0.8116249818089926    0.3940621351486803    H1318
    0.0715111416431808    0.8116249818089926    0.7273954684820136    H1319
    0.0715111416431808    0.8116249818089926    0.0607288018153469    H1320
    0.0715111416431808    0.1449583151423258    0.3940621351486803    H1321
    0.0715111416431808    0.1449583151423258    0.7273954684820136    H1322
    0.0715111416431808    0.1449583151423258    0.0607288018153469    H1323
    0.5635174693239198    0.2803705245001730    0.0643496889836976    H1324
    0.5635174693239198    0.2803705245001730    0.3976830223170309    H1325
    0.5635174693239198    0.2803705245001730    0.7310163556503643    H1326
    0.5635174693239198    0.6137038578335063    0.0643496889836976    H1327
    0.5635174693239198    0.6137038578335063    0.3976830223170309    H1328
    0.5635174693239198    0.6137038578335063    0.7310163556503643    H1329
    0.5635174693239198    0.9470371911668397    0.0643496889836976    H1330
    0.5635174693239198    0.9470371911668397    0.3976830223170309    H1331
    0.5635174693239198    0.9470371911668397    0.7310163556503643    H1332
    0.8968508026572530    0.2803705245001730    0.0643496889836976    H1333
    0.8968508026572530    0.2803705245001730    0.3976830223170309    H1334
    0.8968508026572530    0.2803705245001730    0.7310163556503643    H1335
    0.8968508026572530    0.6137038578335063    0.0643496889836976    H1336
    0.8968508026572530    0.6137038578335063    0.3976830223170309    H1337
    0.8968508026572530    0.6137038578335063    0.7310163556503643    H1338
    0.8968508026572530    0.9470371911668397    0.0643496889836976    H1339
    0.8968508026572530    0.9470371911668397    0.3976830223170309    H1340
    0.8968508026572530    0.9470371911668397    0.7310163556503643    H1341
    0.2301841359905863    0.2803705245001730    0.0643496889836976    H1342
    0.2301841359905863    0.2803705245001730    0.3976830223170309    H1343
    0.2301841359905863    0.2803705245001730    0.7310163556503643    H1344
    0.2301841359905863    0.6137038578335063    0.0643496889836976    H1345
    0.2301841359905863    0.6137038578335063    0.3976830223170309    H1346
    0.2301841359905863    0.6137038578335063    0.7310163556503643    H1347
    0.2301841359905863    0.9470371911668397    0.0643496889836976    H1348
    0.2301841359905863    0.9470371911668397    0.3976830223170309    H1349
    0.2301841359905863    0.9470371911668397    0.7310163556503643    H1350
    0.4763116125580140    0.2967297430242847    0.1049323679310799    H1351
    0.4763116125580140    0.2967297430242847    0.4382657012644131    H1352
    0.4763116125580140    0.2967297430242847    0.7715990345977465    H1353
    0.4763116125580140    0.6300630763576180    0.1049323679310799    H1354
    0.4763116125580140    0.6300630763576180    0.4382657012644131    H1355
    0.4763116125580140    0.6300630763576180    0.7715990345977465    H1356
    0.4763116125580140    0.9633964096909513    0.1049323679310799    H1357
    0.4763116125580140    0.9633964096909513    0.4382657012644131    H1358
    0.4763116125580140    0.9633964096909513    0.7715990345977465    H1359
    0.8096449458913473    0.2967297430242847    0.1049323679310799    H1360
    0.8096449458913473    0.2967297430242847    0.4382657012644131    H1361
    0.8096449458913473    0.2967297430242847    0.7715990345977465    H1362
    0.8096449458913473    0.6300630763576180    0.1049323679310799    H1363
    0.8096449458913473    0.6300630763576180    0.4382657012644131    H1364
    0.8096449458913473    0.6300630763576180    0.7715990345977465    H1365
    0.8096449458913473    0.9633964096909513    0.1049323679310799    H1366
    0.8096449458913473    0.9633964096909513    0.4382657012644131    H1367
    0.8096449458913473    0.9633964096909513    0.7715990345977465    H1368
    0.1429782792246806    0.2967297430242847    0.1049323679310799    H1369
    0.1429782792246806    0.2967297430242847    0.4382657012644131    H1370
    0.1429782792246806    0.2967297430242847    0.7715990345977465    H1371
    0.1429782792246806    0.6300630763576180    0.1049323679310799    H1372
    0.1429782792246806    0.6300630763576180    0.4382657012644131    H1373
    0.1429782792246806    0.6300630763576180    0.7715990345977465    H1374
    0.1429782792246806    0.9633964096909513    0.1049323679310799    H1375
    0.1429782792246806    0.9633964096909513    0.4382657012644131    H1376
    0.1429782792246806    0.9633964096909513    0.7715990345977465    H1377
    0.5018517016100420    0.2171631302803507    0.0161509450379891    H1378
    0.5018517016100420    0.2171631302803507    0.3494842783713223    H1379
    0.5018517016100420    0.2171631302803507    0.6828176117046557    H1380
    0.5018517016100420    0.5504964636136841    0.0161509450379891    H1381
    0.5018517016100420    0.5504964636136841    0.3494842783713223    H1382
    0.5018517016100420    0.5504964636136841    0.6828176117046557    H1383
    0.5018517016100420    0.8838297969470175    0.0161509450379891    H1384
    0.5018517016100420    0.8838297969470175    0.3494842783713223    H1385
    0.5018517016100420    0.8838297969470175    0.6828176117046557    H1386
    0.8351850349433754    0.2171631302803507    0.0161509450379891    H1387
    0.8351850349433754    0.2171631302803507    0.3494842783713223    H1388
    0.8351850349433754    0.2171631302803507    0.6828176117046557    H1389
    0.8351850349433754    0.5504964636136841    0.0161509450379891    H1390
    0.8351850349433754    0.5504964636136841    0.3494842783713223    H1391
    0.8351850349433754    0.5504964636136841    0.6828176117046557    H1392
    0.8351850349433754    0.8838297969470175    0.0161509450379891    H1393
    0.8351850349433754    0.8838297969470175    0.3494842783713223    H1394
    0.8351850349433754    0.8838297969470175    0.6828176117046557    H1395
    0.1685183682767086    0.2171631302803507    0.0161509450379891    H1396
    0.1685183682767086    0.2171631302803507    0.3494842783713223    H1397
    0.1685183682767086    0.2171631302803507    0.6828176117046557    H1398
    0.1685183682767086    0.5504964636136841    0.0161509450379891    H1399
    0.1685183682767086    0.5504964636136841    0.3494842783713223    H1400
    0.1685183682767086    0.5504964636136841    0.6828176117046557    H1401
    0.1685183682767086    0.8838297969470175    0.0161509450379891    H1402
    0.1685183682767086    0.8838297969470175    0.3494842783713223    H1403
    0.1685183682767086    0.8838297969470175    0.6828176117046557    H1404
    0.5670059118046269    0.2722992191014487    0.1143826749059220    H1405
    0.5670059118046269    0.2722992191014487    0.4477160082392553    H1406
    0.5670059118046269    0.2722992191014487    0.7810493415725885    H1407
    0.5670059118046269    0.6056325524347821    0.1143826749059220    H1408
    0.5670059118046269    0.6056325524347821    0.4477160082392553    H1409
    0.5670059118046269    0.6056325524347821    0.7810493415725885    H1410
    0.5670059118046269    0.9389658857681153    0.1143826749059220    H1411
    0.5670059118046269    0.9389658857681153    0.4477160082392553    H1412
    0.5670059118046269    0.9389658857681153    0.7810493415725885    H1413
    0.9003392451379602    0.2722992191014487    0.1143826749059220    H1414
    0.9003392451379602    0.2722992191014487    0.4477160082392553    H1415
    0.9003392451379602    0.2722992191014487    0.7810493415725885    H1416
    0.9003392451379602    0.6056325524347821    0.1143826749059220    H1417
    0.9003392451379602    0.6056325524347821    0.4477160082392553    H1418
    0.9003392451379602    0.6056325524347821    0.7810493415725885    H1419
    0.9003392451379602    0.9389658857681153    0.1143826749059220    H1420
    0.9003392451379602    0.9389658857681153    0.4477160082392553    H1421
    0.9003392451379602    0.9389658857681153    0.7810493415725885    H1422
    0.2336725784712935    0.2722992191014487    0.1143826749059220    H1423
    0.2336725784712935    0.2722992191014487    0.4477160082392553    H1424
    0.2336725784712935    0.2722992191014487    0.7810493415725885    H1425
    0.2336725784712935    0.6056325524347821    0.1143826749059220    H1426
    0.2336725784712935    0.6056325524347821    0.4477160082392553    H1427
    0.2336725784712935    0.6056325524347821    0.7810493415725885    H1428
    0.2336725784712935    0.9389658857681153    0.1143826749059220    H1429
    0.2336725784712935    0.9389658857681153    0.4477160082392553    H1430
    0.2336725784712935    0.9389658857681153    0.7810493415725885    H1431
    0.4208293048429979    0.3148676107077419    0.9759058627597113    H1432
    0.4208293048429979    0.3148676107077419    0.3092391960930445    H1433
    0.4208293048429979    0.3148676107077419    0.6425725294263778    H1434
    0.4208293048429979    0.6482009440410752    0.9759058627597113    H1435
    0.4208293048429979    0.6482009440410752    0.3092391960930445    H1436
    0.4208293048429979    0.6482009440410752    0.6425725294263778    H1437
    0.4208293048429979    0.9815342773744086    0.9759058627597113    H1438
    0.4208293048429979    0.9815342773744086    0.3092391960930445    H1439
    0.4208293048429979    0.9815342773744086    0.6425725294263778    H1440
    0.7541626381763312    0.3148676107077419    0.9759058627597113    H1441
    0.7541626381763312    0.3148676107077419    0.3092391960930445    H1442
    0.7541626381763312    0.3148676107077419    0.6425725294263778    H1443
    0.7541626381763312    0.6482009440410752    0.9759058627597113    H1444
    0.7541626381763312    0.6482009440410752    0.3092391960930445    H1445
    0.7541626381763312    0.6482009440410752    0.6425725294263778    H1446
    0.7541626381763312    0.9815342773744086    0.9759058627597113    H1447
    0.7541626381763312    0.9815342773744086    0.3092391960930445    H1448
    0.7541626381763312    0.9815342773744086    0.6425725294263778    H1449
    0.0874959715096645    0.3148676107077419    0.9759058627597113    H1450
    0.0874959715096645    0.3148676107077419    0.3092391960930445    H1451
    0.0874959715096645    0.3148676107077419    0.6425725294263778    H1452
    0.0874959715096645    0.6482009440410752    0.9759058627597113    H1453
    0.0874959715096645    0.6482009440410752    0.3092391960930445    H1454
    0.0874959715096645    0.6482009440410752    0.6425725294263778    H1455
    0.0874959715096645    0.9815342773744086    0.9759058627597113    H1456
    0.0874959715096645    0.9815342773744086    0.3092391960930445    H1457
    0.0874959715096645    0.9815342773744086    0.6425725294263778    H1458
    0.2385859467380338    0.3464562057494143    0.2914246876588020    H1459
    0.2385859467380338    0.3464562057494143    0.6247580209921354    H1460
    0.2385859467380338    0.3464562057494143    0.9580913543254688    H1461
    0.2385859467380338    0.6797895390827476    0.2914246876588020    H1462
    0.2385859467380338    0.6797895390827476    0.6247580209921354    H1463
    0.2385859467380338    0.6797895390827476    0.9580913543254688    H1464
    0.2385859467380338    0.0131228724160809    0.2914246876588020    H1465
    0.2385859467380338    0.0131228724160809    0.6247580209921354    H1466
    0.2385859467380338    0.0131228724160809    0.9580913543254688    H1467
    0.5719192800713672    0.3464562057494143    0.2914246876588020    H1468
    0.5719192800713672    0.3464562057494143    0.6247580209921354    H1469
    0.5719192800713672    0.3464562057494143    0.9580913543254688    H1470
    0.5719192800713672    0.6797895390827476    0.2914246876588020    H1471
    0.5719192800713672    0.6797895390827476    0.6247580209921354    H1472
    0.5719192800713672    0.6797895390827476    0.9580913543254688    H1473
    0.5719192800713672    0.0131228724160809    0.2914246876588020    H1474
    0.5719192800713672    0.0131228724160809    0.6247580209921354    H1475
    0.5719192800713672    0.0131228724160809    0.9580913543254688    H1476
    0.9052526134047004    0.3464562057494143    0.2914246876588020    H1477
    0.9052526134047004    0.3464562057494143    0.6247580209921354    H1478
    0.9052526134047004    0.3464562057494143    0.9580913543254688    H1479
    0.9052526134047004    0.6797895390827476    0.2914246876588020    H1480
    0.9052526134047004    0.6797895390827476    0.6247580209921354    H1481
    0.9052526134047004    0.6797895390827476    0.9580913543254688    H1482
    0.9052526134047004    0.0131228724160809    0.2914246876588020    H1483
    0.9052526134047004    0.0131228724160809    0.6247580209921354    H1484
    0.9052526134047004    0.0131228724160809    0.9580913543254688    H1485
    0.5045015929240730    0.1756253733668611    0.1354209618364014    H1486
    0.5045015929240730    0.1756253733668611    0.4687542951697348    H1487
    0.5045015929240730    0.1756253733668611    0.8020876285030680    H1488
    0.5045015929240730    0.5089587067001944    0.1354209618364014    H1489
    0.5045015929240730    0.5089587067001944    0.4687542951697348    H1490
    0.5045015929240730    0.5089587067001944    0.8020876285030680    H1491
    0.5045015929240730    0.8422920400335278    0.1354209618364014    H1492
    0.5045015929240730    0.8422920400335278    0.4687542951697348    H1493
    0.5045015929240730    0.8422920400335278    0.8020876285030680    H1494
    0.8378349262574064    0.1756253733668611    0.1354209618364014    H1495
    0.8378349262574064    0.1756253733668611    0.4687542951697348    H1496
    0.8378349262574064    0.1756253733668611    0.8020876285030680    H1497
    0.8378349262574064    0.5089587067001944    0.1354209618364014    H1498
    0.8378349262574064    0.5089587067001944    0.4687542951697348    H1499
    0.8378349262574064    0.5089587067001944    0.8020876285030680    H1500
    0.8378349262574064    0.8422920400335278    0.1354209618364014    H1501
    0.8378349262574064    0.8422920400335278    0.4687542951697348    H1502
    0.8378349262574064    0.8422920400335278    0.8020876285030680    H1503
    0.1711682595907397    0.1756253733668611    0.1354209618364014    H1504
    0.1711682595907397    0.1756253733668611    0.4687542951697348    H1505
    0.1711682595907397    0.1756253733668611    0.8020876285030680    H1506
    0.1711682595907397    0.5089587067001944    0.1354209618364014    H1507
    0.1711682595907397    0.5089587067001944    0.4687542951697348    H1508
    0.1711682595907397    0.5089587067001944    0.8020876285030680    H1509
    0.1711682595907397    0.8422920400335278    0.1354209618364014    H1510
    0.1711682595907397    0.8422920400335278    0.4687542951697348    H1511
    0.1711682595907397    0.8422920400335278    0.8020876285030680    H1512
    0.4255709182919203    0.2749314874335549    0.0955659675740477    H1513
    0.4255709182919203    0.2749314874335549    0.4288993009073810    H1514
    0.4255709182919203    0.2749314874335549    0.7622326342407144    H1515
    0.4255709182919203    0.6082648207668883    0.0955659675740477    H1516
    0.4255709182919203    0.6082648207668883    0.4288993009073810    H1517
    0.4255709182919203    0.6082648207668883    0.7622326342407144    H1518
    0.4255709182919203    0.9415981541002215    0.0955659675740477    H1519
    0.4255709182919203    0.9415981541002215    0.4288993009073810    H1520
    0.4255709182919203    0.9415981541002215    0.7622326342407144    H1521
    0.7589042516252535    0.2749314874335549    0.0955659675740477    H1522
    0.7589042516252535    0.2749314874335549    0.4288993009073810    H1523
    0.7589042516252535    0.2749314874335549    0.7622326342407144    H1524
    0.7589042516252535    0.6082648207668883    0.0955659675740477    H1525
    0.7589042516252535    0.6082648207668883    0.4288993009073810    H1526
    0.7589042516252535    0.6082648207668883    0.7622326342407144    H1527
    0.7589042516252535    0.9415981541002215    0.0955659675740477    H1528
    0.7589042516252535    0.9415981541002215    0.4288993009073810    H1529
    0.7589042516252535    0.9415981541002215    0.7622326342407144    H1530
    0.0922375849585869    0.2749314874335549    0.0955659675740477    H1531
    0.0922375849585869    0.2749314874335549    0.4288993009073810    H1532
    0.0922375849585869    0.2749314874335549    0.7622326342407144    H1533
    0.0922375849585869    0.6082648207668883    0.0955659675740477    H1534
    0.0922375849585869    0.6082648207668883    0.4288993009073810    H1535
    0.0922375849585869    0.6082648207668883    0.7622326342407144    H1536
    0.0922375849585869    0.9415981541002215    0.0955659675740477    H1537
    0.0922375849585869    0.9415981541002215    0.4288993009073810    H1538
    0.0922375849585869    0.9415981541002215    0.7622326342407144    H1539
    0.5133045544313188    0.3087451820344533    0.1208190651560636    H1540
    0.5133045544313188    0.3087451820344533    0.4541523984893968    H1541
    0.5133045544313188    0.3087451820344533    0.7874857318227302    H1542
    0.5133045544313188    0.6420785153677866    0.1208190651560636    H1543
    0.5133045544313188    0.6420785153677866    0.4541523984893968    H1544
    0.5133045544313188    0.6420785153677866    0.7874857318227302    H1545
    0.5133045544313188    0.9754118487011200    0.1208190651560636    H1546
    0.5133045544313188    0.9754118487011200    0.4541523984893968    H1547
    0.5133045544313188    0.9754118487011200    0.7874857318227302    H1548
    0.8466378877646521    0.3087451820344533    0.1208190651560636    H1549
    0.8466378877646521    0.3087451820344533    0.4541523984893968    H1550
    0.8466378877646521    0.3087451820344533    0.7874857318227302    H1551
    0.8466378877646521    0.6420785153677866    0.1208190651560636    H1552
    0.8466378877646521    0.6420785153677866    0.4541523984893968    H1553
    0.8466378877646521    0.6420785153677866    0.7874857318227302    H1554
    0.8466378877646521    0.9754118487011200    0.1208190651560636    H1555
    0.8466378877646521    0.9754118487011200    0.4541523984893968    H1556
    0.8466378877646521    0.9754118487011200    0.7874857318227302    H1557
    0.1799712210979854    0.3087451820344533    0.1208190651560636    H1558
    0.1799712210979854    0.3087451820344533    0.4541523984893968    H1559
    0.1799712210979854    0.3087451820344533    0.7874857318227302    H1560
    0.1799712210979854    0.6420785153677866    0.1208190651560636    H1561
    0.1799712210979854    0.6420785153677866    0.4541523984893968    H1562
    0.1799712210979854    0.6420785153677866    0.7874857318227302    H1563
    0.1799712210979854    0.9754118487011200    0.1208190651560636    H1564
    0.1799712210979854    0.9754118487011200    0.4541523984893968    H1565
    0.1799712210979854    0.9754118487011200    0.7874857318227302    H1566
    0.3471216784706719    0.0318845632229980    0.1206595995404474    H1567
    0.3471216784706719    0.0318845632229980    0.4539929328737807    H1568
    0.3471216784706719    0.0318845632229980    0.7873262662071141    H1569
    0.3471216784706719    0.3652178965563314    0.1206595995404474    H1570
    0.3471216784706719    0.3652178965563314    0.4539929328737807    H1571
    0.3471216784706719    0.3652178965563314    0.7873262662071141    H1572
    0.3471216784706719    0.6985512298896648    0.1206595995404474    H1573
    0.3471216784706719    0.6985512298896648    0.4539929328737807    H1574
    0.3471216784706719    0.6985512298896648    0.7873262662071141    H1575
    0.6804550118040051    0.0318845632229980    0.1206595995404474    H1576
    0.6804550118040051    0.0318845632229980    0.4539929328737807    H1577
    0.6804550118040051    0.0318845632229980    0.7873262662071141    H1578
    0.6804550118040051    0.3652178965563314    0.1206595995404474    H1579
    0.6804550118040051    0.3652178965563314    0.4539929328737807    H1580
    0.6804550118040051    0.3652178965563314    0.7873262662071141    H1581
    0.6804550118040051    0.6985512298896648    0.1206595995404474    H1582
    0.6804550118040051    0.6985512298896648    0.4539929328737807    H1583
    0.6804550118040051    0.6985512298896648    0.7873262662071141    H1584
    0.0137883451373385    0.0318845632229980    0.1206595995404474    H1585
    0.0137883451373385    0.0318845632229980    0.4539929328737807    H1586
    0.0137883451373385    0.0318845632229980    0.7873262662071141    H1587
    0.0137883451373385    0.3652178965563314    0.1206595995404474    H1588
    0.0137883451373385    0.3652178965563314    0.4539929328737807    H1589
    0.0137883451373385    0.3652178965563314    0.7873262662071141    H1590
    0.0137883451373385    0.6985512298896648    0.1206595995404474    H1591
    0.0137883451373385    0.6985512298896648    0.4539929328737807    H1592
    0.0137883451373385    0.6985512298896648    0.7873262662071141    H1593
    0.3669353518846823    0.1061104310948421    0.2554880982021406    H1594
    0.3669353518846823    0.1061104310948421    0.5888214315354738    H1595
    0.3669353518846823    0.1061104310948421    0.9221547648688072    H1596
    0.3669353518846823    0.4394437644281755    0.2554880982021406    H1597
    0.3669353518846823    0.4394437644281755    0.5888214315354738    H1598
    0.3669353518846823    0.4394437644281755    0.9221547648688072    H1599
    0.3669353518846823    0.7727770977615087    0.2554880982021406    H1600
    0.3669353518846823    0.7727770977615087    0.5888214315354738    H1601
    0.3669353518846823    0.7727770977615087    0.9221547648688072    H1602
    0.7002686852180157    0.1061104310948421    0.2554880982021406    H1603
    0.7002686852180157    0.1061104310948421    0.5888214315354738    H1604
    0.7002686852180157    0.1061104310948421    0.9221547648688072    H1605
    0.7002686852180157    0.4394437644281755    0.2554880982021406    H1606
    0.7002686852180157    0.4394437644281755    0.5888214315354738    H1607
    0.7002686852180157    0.4394437644281755    0.9221547648688072    H1608
    0.7002686852180157    0.7727770977615087    0.2554880982021406    H1609
    0.7002686852180157    0.7727770977615087    0.5888214315354738    H1610
    0.7002686852180157    0.7727770977615087    0.9221547648688072    H1611
    0.0336020185513490    0.1061104310948421    0.2554880982021406    H1612
    0.0336020185513490    0.1061104310948421    0.5888214315354738    H1613
    0.0336020185513490    0.1061104310948421    0.9221547648688072    H1614
    0.0336020185513490    0.4394437644281755    0.2554880982021406    H1615
    0.0336020185513490    0.4394437644281755    0.5888214315354738    H1616
    0.0336020185513490    0.4394437644281755    0.9221547648688072    H1617
    0.0336020185513490    0.7727770977615087    0.2554880982021406    H1618
    0.0336020185513490    0.7727770977615087    0.5888214315354738    H1619
    0.0336020185513490    0.7727770977615087    0.9221547648688072    H1620
    0.2085885571965819    0.1078616676665700    0.3979760031595353    H1621
    0.2085885571965819    0.1078616676665700    0.7313093364928687    H1622
    0.2085885571965819    0.1078616676665700    0.0646426698262019    H1623
    0.2085885571965819    0.4411950009999033    0.3979760031595353    H1624
    0.2085885571965819    0.4411950009999033    0.7313093364928687    H1625
    0.2085885571965819    0.4411950009999033    0.0646426698262019    H1626
    0.2085885571965819    0.7745283343332366    0.3979760031595353    H1627
    0.2085885571965819    0.7745283343332366    0.7313093364928687    H1628
    0.2085885571965819    0.7745283343332366    0.0646426698262019    H1629
    0.5419218905299152    0.1078616676665700    0.3979760031595353    H1630
    0.5419218905299152    0.1078616676665700    0.7313093364928687    H1631
    0.5419218905299152    0.1078616676665700    0.0646426698262019    H1632
    0.5419218905299152    0.4411950009999033    0.3979760031595353    H1633
    0.5419218905299152    0.4411950009999033    0.7313093364928687    H1634
    0.5419218905299152    0.4411950009999033    0.0646426698262019    H1635
    0.5419218905299152    0.7745283343332366    0.3979760031595353    H1636
    0.5419218905299152    0.7745283343332366    0.7313093364928687    H1637
    0.5419218905299152    0.7745283343332366    0.0646426698262019    H1638
    0.8752552238632485    0.1078616676665700    0.3979760031595353    H1639
    0.8752552238632485    0.1078616676665700    0.7313093364928687    H1640
    0.8752552238632485    0.1078616676665700    0.0646426698262019    H1641
    0.8752552238632485    0.4411950009999033    0.3979760031595353    H1642
    0.8752552238632485    0.4411950009999033    0.7313093364928687    H1643
    0.8752552238632485    0.4411950009999033    0.0646426698262019    H1644
    0.8752552238632485    0.7745283343332366    0.3979760031595353    H1645
    0.8752552238632485    0.7745283343332366    0.7313093364928687    H1646
    0.8752552238632485    0.7745283343332366    0.0646426698262019    H1647
    0.2830955649779485    0.8616483431901409    0.4266974535580181    H1648
    0.2830955649779485    0.8616483431901409    0.7600307868913515    H1649
    0.2830955649779485    0.8616483431901409    0.0933641202246848    H1650
    0.2830955649779485    0.1949816765234743    0.4266974535580181    H1651
    0.2830955649779485    0.1949816765234743    0.7600307868913515    H1652
    0.2830955649779485    0.1949816765234743    0.0933641202246848    H1653
    0.2830955649779485    0.5283150098568077    0.4266974535580181    H1654
    0.2830955649779485    0.5283150098568077    0.7600307868913515    H1655
    0.2830955649779485    0.5283150098568077    0.0933641202246848    H1656
    0.6164288983112818    0.8616483431901409    0.4266974535580181    H1657
    0.6164288983112818    0.8616483431901409    0.7600307868913515    H1658
    0.6164288983112818    0.8616483431901409    0.0933641202246848    H1659
    0.6164288983112818    0.1949816765234743    0.4266974535580181    H1660
    0.6164288983112818    0.1949816765234743    0.7600307868913515    H1661
    0.6164288983112818    0.1949816765234743    0.0933641202246848    H1662
    0.6164288983112818    0.5283150098568077    0.4266974535580181    H1663
    0.6164288983112818    0.5283150098568077    0.7600307868913515    H1664
    0.6164288983112818    0.5283150098568077    0.0933641202246848    H1665
    0.9497622316446152    0.8616483431901409    0.4266974535580181    H1666
    0.9497622316446152    0.8616483431901409    0.7600307868913515    H1667
    0.9497622316446152    0.8616483431901409    0.0933641202246848    H1668
    0.9497622316446152    0.1949816765234743    0.4266974535580181    H1669
    0.9497622316446152    0.1949816765234743    0.7600307868913515    H1670
    0.9497622316446152    0.1949816765234743    0.0933641202246848    H1671
    0.9497622316446152    0.5283150098568077    0.4266974535580181    H1672
    0.9497622316446152    0.5283150098568077    0.7600307868913515    H1673
    0.9497622316446152    0.5283150098568077    0.0933641202246848    H1674
    0.2985902420604915    0.0890216861647692    0.4108872831939334    H1675
    0.2985902420604915    0.0890216861647692    0.7442206165272668    H1676
    0.2985902420604915    0.0890216861647692    0.0775539498606001    H1677
    0.2985902420604915    0.4223550194981026    0.4108872831939334    H1678
    0.2985902420604915    0.4223550194981026    0.7442206165272668    H1679
    0.2985902420604915    0.4223550194981026    0.0775539498606001    H1680
    0.2985902420604915    0.7556883528314360    0.4108872831939334    H1681
    0.2985902420604915    0.7556883528314360    0.7442206165272668    H1682
    0.2985902420604915    0.7556883528314360    0.0775539498606001    H1683
    0.6319235753938248    0.0890216861647692    0.4108872831939334    H1684
    0.6319235753938248    0.0890216861647692    0.7442206165272668    H1685
    0.6319235753938248    0.0890216861647692    0.0775539498606001    H1686
    0.6319235753938248    0.4223550194981026    0.4108872831939334    H1687
    0.6319235753938248    0.4223550194981026    0.7442206165272668    H1688
    0.6319235753938248    0.4223550194981026    0.0775539498606001    H1689
    0.6319235753938248    0.7556883528314360    0.4108872831939334    H1690
    0.6319235753938248    0.7556883528314360    0.7442206165272668    H1691
    0.6319235753938248    0.7556883528314360    0.0775539498606001    H1692
    0.9652569087271581    0.0890216861647692    0.4108872831939334    H1693
    0.9652569087271581    0.0890216861647692    0.7442206165272668    H1694
    0.9652569087271581    0.0890216861647692    0.0775539498606001    H1695
    0.9652569087271581    0.4223550194981026    0.4108872831939334    H1696
    0.9652569087271581    0.4223550194981026    0.7442206165272668    H1697
    0.9652569087271581    0.4223550194981026    0.0775539498606001    H1698
    0.9652569087271581    0.7556883528314360    0.4108872831939334    H1699
    0.9652569087271581    0.7556883528314360    0.7442206165272668    H1700
    0.9652569087271581    0.7556883528314360    0.0775539498606001    H1701
    0.2048255974459341    0.0915379619067869    0.2198548601080879    H1702
    0.2048255974459341    0.0915379619067869    0.5531881934414211    H1703
    0.2048255974459341    0.0915379619067869    0.8865215267747545    H1704
    0.2048255974459341    0.4248712952401202    0.2198548601080879    H1705
    0.2048255974459341    0.4248712952401202    0.5531881934414211    H1706
    0.2048255974459341    0.4248712952401202    0.8865215267747545    H1707
    0.2048255974459341    0.7582046285734536    0.2198548601080879    H1708
    0.2048255974459341    0.7582046285734536    0.5531881934414211    H1709
    0.2048255974459341    0.7582046285734536    0.8865215267747545    H1710
    0.5381589307792674    0.0915379619067869    0.2198548601080879    H1711
    0.5381589307792674    0.0915379619067869    0.5531881934414211    H1712
    0.5381589307792674    0.0915379619067869    0.8865215267747545    H1713
    0.5381589307792674    0.4248712952401202    0.2198548601080879    H1714
    0.5381589307792674    0.4248712952401202    0.5531881934414211    H1715
    0.5381589307792674    0.4248712952401202    0.8865215267747545    H1716
    0.5381589307792674    0.7582046285734536    0.2198548601080879    H1717
    0.5381589307792674    0.7582046285734536    0.5531881934414211    H1718
    0.5381589307792674    0.7582046285734536    0.8865215267747545    H1719
    0.8714922641126007    0.0915379619067869    0.2198548601080879    H1720
    0.8714922641126007    0.0915379619067869    0.5531881934414211    H1721
    0.8714922641126007    0.0915379619067869    0.8865215267747545    H1722
    0.8714922641126007    0.4248712952401202    0.2198548601080879    H1723
    0.8714922641126007    0.4248712952401202    0.5531881934414211    H1724
    0.8714922641126007    0.4248712952401202    0.8865215267747545    H1725
    0.8714922641126007    0.7582046285734536    0.2198548601080879    H1726
    0.8714922641126007    0.7582046285734536    0.5531881934414211    H1727
    0.8714922641126007    0.7582046285734536    0.8865215267747545    H1728
    0.3470311797989214    0.2689053529786495    0.1193686038536435    H1729
    0.3470311797989214    0.2689053529786495    0.4527019371869767    H1730
    0.3470311797989214    0.2689053529786495    0.7860352705203101    H1731
    0.3470311797989214    0.6022386863119829    0.1193686038536435    H1732
    0.3470311797989214    0.6022386863119829    0.4527019371869767    H1733
    0.3470311797989214    0.6022386863119829    0.7860352705203101    H1734
    0.3470311797989214    0.9355720196453161    0.1193686038536435    H1735
    0.3470311797989214    0.9355720196453161    0.4527019371869767    H1736
    0.3470311797989214    0.9355720196453161    0.7860352705203101    H1737
    0.6803645131322547    0.2689053529786495    0.1193686038536435    H1738
    0.6803645131322547    0.2689053529786495    0.4527019371869767    H1739
    0.6803645131322547    0.2689053529786495    0.7860352705203101    H1740
    0.6803645131322547    0.6022386863119829    0.1193686038536435    H1741
    0.6803645131322547    0.6022386863119829    0.4527019371869767    H1742
    0.6803645131322547    0.6022386863119829    0.7860352705203101    H1743
    0.6803645131322547    0.9355720196453161    0.1193686038536435    H1744
    0.6803645131322547    0.9355720196453161    0.4527019371869767    H1745
    0.6803645131322547    0.9355720196453161    0.7860352705203101    H1746
    0.0136978464655880    0.2689053529786495    0.1193686038536435    H1747
    0.0136978464655880    0.2689053529786495    0.4527019371869767    H1748
    0.0136978464655880    0.2689053529786495    0.7860352705203101    H1749
    0.0136978464655880    0.6022386863119829    0.1193686038536435    H1750
    0.0136978464655880    0.6022386863119829    0.4527019371869767    H1751
    0.0136978464655880    0.6022386863119829    0.7860352705203101    H1752
    0.0136978464655880    0.9355720196453161    0.1193686038536435    H1753
    0.0136978464655880    0.9355720196453161    0.4527019371869767    H1754
    0.0136978464655880    0.9355720196453161    0.7860352705203101    H1755
    0.4384437217024396    0.1921304899323548    0.1994159014387245    H1756
    0.4384437217024396    0.1921304899323548    0.5327492347720577    H1757
    0.4384437217024396    0.1921304899323548    0.8660825681053910    H1758
    0.4384437217024396    0.5254638232656882    0.1994159014387245    H1759
    0.4384437217024396    0.5254638232656882    0.5327492347720577    H1760
    0.4384437217024396    0.5254638232656882    0.8660825681053910    H1761
    0.4384437217024396    0.8587971565990214    0.1994159014387245    H1762
    0.4384437217024396    0.8587971565990214    0.5327492347720577    H1763
    0.4384437217024396    0.8587971565990214    0.8660825681053910    H1764
    0.7717770550357730    0.1921304899323548    0.1994159014387245    H1765
    0.7717770550357730    0.1921304899323548    0.5327492347720577    H1766
    0.7717770550357730    0.1921304899323548    0.8660825681053910    H1767
    0.7717770550357730    0.5254638232656882    0.1994159014387245    H1768
    0.7717770550357730    0.5254638232656882    0.5327492347720577    H1769
    0.7717770550357730    0.5254638232656882    0.8660825681053910    H1770
    0.7717770550357730    0.8587971565990214    0.1994159014387245    H1771
    0.7717770550357730    0.8587971565990214    0.5327492347720577    H1772
    0.7717770550357730    0.8587971565990214    0.8660825681053910    H1773
    0.1051103883691062    0.1921304899323548    0.1994159014387245    H1774
    0.1051103883691062    0.1921304899323548    0.5327492347720577    H1775
    0.1051103883691062    0.1921304899323548    0.8660825681053910    H1776
    0.1051103883691062    0.5254638232656882    0.1994159014387245    H1777
    0.1051103883691062    0.5254638232656882    0.5327492347720577    H1778
    0.1051103883691062    0.5254638232656882    0.8660825681053910    H1779
    0.1051103883691062    0.8587971565990214    0.1994159014387245    H1780
    0.1051103883691062    0.8587971565990214    0.5327492347720577    H1781
    0.1051103883691062    0.8587971565990214    0.8660825681053910    H1782
    0.4408994600416279    0.2137004367167646    0.1447579071305665    H1783
    0.4408994600416279    0.2137004367167646    0.4780912404638997    H1784
    0.4408994600416279    0.2137004367167646    0.8114245737972331    H1785
    0.4408994600416279    0.5470337700500979    0.1447579071305665    H1786
    0.4408994600416279    0.5470337700500979    0.4780912404638997    H1787
    0.4408994600416279    0.5470337700500979    0.8114245737972331    H1788
    0.4408994600416279    0.8803671033834312    0.1447579071305665    H1789
    0.4408994600416279    0.8803671033834312    0.4780912404638997    H1790
    0.4408994600416279    0.8803671033834312    0.8114245737972331    H1791
    0.7742327933749613    0.2137004367167646    0.1447579071305665    H1792
    0.7742327933749613    0.2137004367167646    0.4780912404638997    H1793
    0.7742327933749613    0.2137004367167646    0.8114245737972331    H1794
    0.7742327933749613    0.5470337700500979    0.1447579071305665    H1795
    0.7742327933749613    0.5470337700500979    0.4780912404638997    H1796
    0.7742327933749613    0.5470337700500979    0.8114245737972331    H1797
    0.7742327933749613    0.8803671033834312    0.1447579071305665    H1798
    0.7742327933749613    0.8803671033834312    0.4780912404638997    H1799
    0.7742327933749613    0.8803671033834312    0.8114245737972331    H1800
    0.1075661267082946    0.2137004367167646    0.1447579071305665    H1801
    0.1075661267082946    0.2137004367167646    0.4780912404638997    H1802
    0.1075661267082946    0.2137004367167646    0.8114245737972331    H1803
    0.1075661267082946    0.5470337700500979    0.1447579071305665    H1804
    0.1075661267082946    0.5470337700500979    0.4780912404638997    H1805
    0.1075661267082946    0.5470337700500979    0.8114245737972331    H1806
    0.1075661267082946    0.8803671033834312    0.1447579071305665    H1807
    0.1075661267082946    0.8803671033834312    0.4780912404638997    H1808
    0.1075661267082946    0.8803671033834312    0.8114245737972331    H1809
    0.5210193407966719    0.1294559138713556    0.1247360302120086    H1810
    0.5210193407966719    0.1294559138713556    0.4580693635453419    H1811
    0.5210193407966719    0.1294559138713556    0.7914026968786753    H1812
    0.5210193407966719    0.4627892472046889    0.1247360302120086    H1813
    0.5210193407966719    0.4627892472046889    0.4580693635453419    H1814
    0.5210193407966719    0.4627892472046889    0.7914026968786753    H1815
    0.5210193407966719    0.7961225805380222    0.1247360302120086    H1816
    0.5210193407966719    0.7961225805380222    0.4580693635453419    H1817
    0.5210193407966719    0.7961225805380222    0.7914026968786753    H1818
    0.8543526741300052    0.1294559138713556    0.1247360302120086    H1819
    0.8543526741300052    0.1294559138713556    0.4580693635453419    H1820
    0.8543526741300052    0.1294559138713556    0.7914026968786753    H1821
    0.8543526741300052    0.4627892472046889    0.1247360302120086    H1822
    0.8543526741300052    0.4627892472046889    0.4580693635453419    H1823
    0.8543526741300052    0.4627892472046889    0.7914026968786753    H1824
    0.8543526741300052    0.7961225805380222    0.1247360302120086    H1825
    0.8543526741300052    0.7961225805380222    0.4580693635453419    H1826
    0.8543526741300052    0.7961225805380222    0.7914026968786753    H1827
    0.1876860074633385    0.1294559138713556    0.1247360302120086    H1828
    0.1876860074633385    0.1294559138713556    0.4580693635453419    H1829
    0.1876860074633385    0.1294559138713556    0.7914026968786753    H1830
    0.1876860074633385    0.4627892472046889    0.1247360302120086    H1831
    0.1876860074633385    0.4627892472046889    0.4580693635453419    H1832
    0.1876860074633385    0.4627892472046889    0.7914026968786753    H1833
    0.1876860074633385    0.7961225805380222    0.1247360302120086    H1834
    0.1876860074633385    0.7961225805380222    0.4580693635453419    H1835
    0.1876860074633385    0.7961225805380222    0.7914026968786753    H1836
    0.2891196798837565    0.8403110195672658    0.3741597324651594    H1837
    0.2891196798837565    0.8403110195672658    0.7074930657984928    H1838
    0.2891196798837565    0.8403110195672658    0.0408263991318261    H1839
    0.2891196798837565    0.1736443529005991    0.3741597324651594    H1840
    0.2891196798837565    0.1736443529005991    0.7074930657984928    H1841
    0.2891196798837565    0.1736443529005991    0.0408263991318261    H1842
    0.2891196798837565    0.5069776862339324    0.3741597324651594    H1843
    0.2891196798837565    0.5069776862339324    0.7074930657984928    H1844
    0.2891196798837565    0.5069776862339324    0.0408263991318261    H1845
    0.6224530132170898    0.8403110195672658    0.3741597324651594    H1846
    0.6224530132170898    0.8403110195672658    0.7074930657984928    H1847
    0.6224530132170898    0.8403110195672658    0.0408263991318261    H1848
    0.6224530132170898    0.1736443529005991    0.3741597324651594    H1849
    0.6224530132170898    0.1736443529005991    0.7074930657984928    H1850
    0.6224530132170898    0.1736443529005991    0.0408263991318261    H1851
    0.6224530132170898    0.5069776862339324    0.3741597324651594    H1852
    0.6224530132170898    0.5069776862339324    0.7074930657984928    H1853
    0.6224530132170898    0.5069776862339324    0.0408263991318261    H1854
    0.9557863465504232    0.8403110195672658    0.3741597324651594    H1855
    0.9557863465504232    0.8403110195672658    0.7074930657984928    H1856
    0.9557863465504232    0.8403110195672658    0.0408263991318261    H1857
    0.9557863465504232    0.1736443529005991    0.3741597324651594    H1858
    0.9557863465504232    0.1736443529005991    0.7074930657984928    H1859
    0.9557863465504232    0.1736443529005991    0.0408263991318261    H1860
    0.9557863465504232    0.5069776862339324    0.3741597324651594    H1861
    0.9557863465504232    0.5069776862339324    0.7074930657984928    H1862
    0.9557863465504232    0.5069776862339324    0.0408263991318261    H1863
    0.4661960523722564    0.1120175381774854    0.1480106001903660    H1864
    0.4661960523722564    0.1120175381774854    0.4813439335236993    H1865
    0.4661960523722564    0.1120175381774854    0.8146772668570327    H1866
    0.4661960523722564    0.4453508715108188    0.1480106001903660    H1867
    0.4661960523722564    0.4453508715108188    0.4813439335236993    H1868
    0.4661960523722564    0.4453508715108188    0.8146772668570327    H1869
    0.4661960523722564    0.7786842048441520    0.1480106001903660    H1870
    0.4661960523722564    0.7786842048441520    0.4813439335236993    H1871
    0.4661960523722564    0.7786842048441520    0.8146772668570327    H1872
    0.7995293857055896    0.1120175381774854    0.1480106001903660    H1873
    0.7995293857055896    0.1120175381774854    0.4813439335236993    H1874
    0.7995293857055896    0.1120175381774854    0.8146772668570327    H1875
    0.7995293857055896    0.4453508715108188    0.1480106001903660    H1876
    0.7995293857055896    0.4453508715108188    0.4813439335236993    H1877
    0.7995293857055896    0.4453508715108188    0.8146772668570327    H1878
    0.7995293857055896    0.7786842048441520    0.1480106001903660    H1879
    0.7995293857055896    0.7786842048441520    0.4813439335236993    H1880
    0.7995293857055896    0.7786842048441520    0.8146772668570327    H1881
    0.1328627190389229    0.1120175381774854    0.1480106001903660    H1882
    0.1328627190389229    0.1120175381774854    0.4813439335236993    H1883
    0.1328627190389229    0.1120175381774854    0.8146772668570327    H1884
    0.1328627190389229    0.4453508715108188    0.1480106001903660    H1885
    0.1328627190389229    0.4453508715108188    0.4813439335236993    H1886
    0.1328627190389229    0.4453508715108188    0.8146772668570327    H1887
    0.1328627190389229    0.7786842048441520    0.1480106001903660    H1888
    0.1328627190389229    0.7786842048441520    0.4813439335236993    H1889
    0.1328627190389229    0.7786842048441520    0.8146772668570327    H1890
    0.3764492383364628    0.2443916638471982    0.1824221474811498    H1891
    0.3764492383364628    0.2443916638471982    0.5157554808144832    H1892
    0.3764492383364628    0.2443916638471982    0.8490888141478165    H1893
    0.3764492383364628    0.5777249971805315    0.1824221474811498    H1894
    0.3764492383364628    0.5777249971805315    0.5157554808144832    H1895
    0.3764492383364628    0.5777249971805315    0.8490888141478165    H1896
    0.3764492383364628    0.9110583305138648    0.1824221474811498    H1897
    0.3764492383364628    0.9110583305138648    0.5157554808144832    H1898
    0.3764492383364628    0.9110583305138648    0.8490888141478165    H1899
    0.7097825716697962    0.2443916638471982    0.1824221474811498    H1900
    0.7097825716697962    0.2443916638471982    0.5157554808144832    H1901
    0.7097825716697962    0.2443916638471982    0.8490888141478165    H1902
    0.7097825716697962    0.5777249971805315    0.1824221474811498    H1903
    0.7097825716697962    0.5777249971805315    0.5157554808144832    H1904
    0.7097825716697962    0.5777249971805315    0.8490888141478165    H1905
    0.7097825716697962    0.9110583305138648    0.1824221474811498    H1906
    0.7097825716697962    0.9110583305138648    0.5157554808144832    H1907
    0.7097825716697962    0.9110583305138648    0.8490888141478165    H1908
    0.0431159050031295    0.2443916638471982    0.1824221474811498    H1909
    0.0431159050031295    0.2443916638471982    0.5157554808144832    H1910
    0.0431159050031295    0.2443916638471982    0.8490888141478165    H1911
    0.0431159050031295    0.5777249971805315    0.1824221474811498    H1912
    0.0431159050031295    0.5777249971805315    0.5157554808144832    H1913
    0.0431159050031295    0.5777249971805315    0.8490888141478165    H1914
    0.0431159050031295    0.9110583305138648    0.1824221474811498    H1915
    0.0431159050031295    0.9110583305138648    0.5157554808144832    H1916
    0.0431159050031295    0.9110583305138648    0.8490888141478165    H1917
    0.1566323548121364    0.3447191340747774    0.9261069275603750    H1918
    0.1566323548121364    0.3447191340747774    0.2594402608937083    H1919
    0.1566323548121364    0.3447191340747774    0.5927735942270416    H1920
    0.1566323548121364    0.6780524674081108    0.9261069275603750    H1921
    0.1566323548121364    0.6780524674081108    0.2594402608937083    H1922
    0.1566323548121364    0.6780524674081108    0.5927735942270416    H1923
    0.1566323548121364    0.0113858007414440    0.9261069275603750    H1924
    0.1566323548121364    0.0113858007414440    0.2594402608937083    H1925
    0.1566323548121364    0.0113858007414440    0.5927735942270416    H1926
    0.4899656881454698    0.3447191340747774    0.9261069275603750    H1927
    0.4899656881454698    0.3447191340747774    0.2594402608937083    H1928
    0.4899656881454698    0.3447191340747774    0.5927735942270416    H1929
    0.4899656881454698    0.6780524674081108    0.9261069275603750    H1930
    0.4899656881454698    0.6780524674081108    0.2594402608937083    H1931
    0.4899656881454698    0.6780524674081108    0.5927735942270416    H1932
    0.4899656881454698    0.0113858007414440    0.9261069275603750    H1933
    0.4899656881454698    0.0113858007414440    0.2594402608937083    H1934
    0.4899656881454698    0.0113858007414440    0.5927735942270416    H1935
    0.8232990214788032    0.3447191340747774    0.9261069275603750    H1936
    0.8232990214788032    0.3447191340747774    0.2594402608937083    H1937
    0.8232990214788032    0.3447191340747774    0.5927735942270416    H1938
    0.8232990214788032    0.6780524674081108    0.9261069275603750    H1939
    0.8232990214788032    0.6780524674081108    0.2594402608937083    H1940
    0.8232990214788032    0.6780524674081108    0.5927735942270416    H1941
    0.8232990214788032    0.0113858007414440    0.9261069275603750    H1942
    0.8232990214788032    0.0113858007414440    0.2594402608937083    H1943
    0.8232990214788032    0.0113858007414440    0.5927735942270416    H1944
    0.1191819084535646    0.3705457471175797    0.9081035619995681    H1945
    0.1191819084535646    0.3705457471175797    0.2414368953329014    H1946
    0.1191819084535646    0.3705457471175797    0.5747702286662346    H1947
    0.1191819084535646    0.7038790804509130    0.9081035619995681    H1948
    0.1191819084535646    0.7038790804509130    0.2414368953329014    H1949
    0.1191819084535646    0.7038790804509130    0.5747702286662346    H1950
    0.1191819084535646    0.0372124137842463    0.9081035619995681    H1951
    0.1191819084535646    0.0372124137842463    0.2414368953329014    H1952
    0.1191819084535646    0.0372124137842463    0.5747702286662346    H1953
    0.4525152417868979    0.3705457471175797    0.9081035619995681    H1954
    0.4525152417868979    0.3705457471175797    0.2414368953329014    H1955
    0.4525152417868979    0.3705457471175797    0.5747702286662346    H1956
    0.4525152417868979    0.7038790804509130    0.9081035619995681    H1957
    0.4525152417868979    0.7038790804509130    0.2414368953329014    H1958
    0.4525152417868979    0.7038790804509130    0.5747702286662346    H1959
    0.4525152417868979    0.0372124137842463    0.9081035619995681    H1960
    0.4525152417868979    0.0372124137842463    0.2414368953329014    H1961
    0.4525152417868979    0.0372124137842463    0.5747702286662346    H1962
    0.7858485751202313    0.3705457471175797    0.9081035619995681    H1963
    0.7858485751202313    0.3705457471175797    0.2414368953329014    H1964
    0.7858485751202313    0.3705457471175797    0.5747702286662346    H1965
    0.7858485751202313    0.7038790804509130    0.9081035619995681    H1966
    0.7858485751202313    0.7038790804509130    0.2414368953329014    H1967
    0.7858485751202313    0.7038790804509130    0.5747702286662346    H1968
    0.7858485751202313    0.0372124137842463    0.9081035619995681    H1969
    0.7858485751202313    0.0372124137842463    0.2414368953329014    H1970
    0.7858485751202313    0.0372124137842463    0.5747702286662346    H1971
    0.3039632016249929    0.2134519747414027    0.1527659465011680    H1972
    0.3039632016249929    0.2134519747414027    0.4860992798345014    H1973
    0.3039632016249929    0.2134519747414027    0.8194326131678347    H1974
    0.3039632016249929    0.5467853080747360    0.1527659465011680    H1975
    0.3039632016249929    0.5467853080747360    0.4860992798345014    H1976
    0.3039632016249929    0.5467853080747360    0.8194326131678347    H1977
    0.3039632016249929    0.8801186414080693    0.1527659465011680    H1978
    0.3039632016249929    0.8801186414080693    0.4860992798345014    H1979
    0.3039632016249929    0.8801186414080693    0.8194326131678347    H1980
    0.6372965349583262    0.2134519747414027    0.1527659465011680    H1981
    0.6372965349583262    0.2134519747414027    0.4860992798345014    H1982
    0.6372965349583262    0.2134519747414027    0.8194326131678347    H1983
    0.6372965349583262    0.5467853080747360    0.1527659465011680    H1984
    0.6372965349583262    0.5467853080747360    0.4860992798345014    H1985
    0.6372965349583262    0.5467853080747360    0.8194326131678347    H1986
    0.6372965349583262    0.8801186414080693    0.1527659465011680    H1987
    0.6372965349583262    0.8801186414080693    0.4860992798345014    H1988
    0.6372965349583262    0.8801186414080693    0.8194326131678347    H1989
    0.9706298682916595    0.2134519747414027    0.1527659465011680    H1990
    0.9706298682916595    0.2134519747414027    0.4860992798345014    H1991
    0.9706298682916595    0.2134519747414027    0.8194326131678347    H1992
    0.9706298682916595    0.5467853080747360    0.1527659465011680    H1993
    0.9706298682916595    0.5467853080747360    0.4860992798345014    H1994
    0.9706298682916595    0.5467853080747360    0.8194326131678347    H1995
    0.9706298682916595    0.8801186414080693    0.1527659465011680    H1996
    0.9706298682916595    0.8801186414080693    0.4860992798345014    H1997
    0.9706298682916595    0.8801186414080693    0.8194326131678347    H1998
    0.1968829564634230    0.4735999858167832    0.1889208065363697    H1999
    0.1968829564634230    0.4735999858167832    0.5222541398697030    H2000
    0.1968829564634230    0.4735999858167832    0.8555874732030363    H2001
    0.1968829564634230    0.8069333191501166    0.1889208065363697    H2002
    0.1968829564634230    0.8069333191501166    0.5222541398697030    H2003
    0.1968829564634230    0.8069333191501166    0.8555874732030363    H2004
    0.1968829564634230    0.1402666524834499    0.1889208065363697    H2005
    0.1968829564634230    0.1402666524834499    0.5222541398697030    H2006
    0.1968829564634230    0.1402666524834499    0.8555874732030363    H2007
    0.5302162897967564    0.4735999858167832    0.1889208065363697    H2008
    0.5302162897967564    0.4735999858167832    0.5222541398697030    H2009
    0.5302162897967564    0.4735999858167832    0.8555874732030363    H2010
    0.5302162897967564    0.8069333191501166    0.1889208065363697    H2011
    0.5302162897967564    0.8069333191501166    0.5222541398697030    H2012
    0.5302162897967564    0.8069333191501166    0.8555874732030363    H2013
    0.5302162897967564    0.1402666524834499    0.1889208065363697    H2014
    0.5302162897967564    0.1402666524834499    0.5222541398697030    H2015
    0.5302162897967564    0.1402666524834499    0.8555874732030363    H2016
    0.8635496231300896    0.4735999858167832    0.1889208065363697    H2017
    0.8635496231300896    0.4735999858167832    0.5222541398697030    H2018
    0.8635496231300896    0.4735999858167832    0.8555874732030363    H2019
    0.8635496231300896    0.8069333191501166    0.1889208065363697    H2020
    0.8635496231300896    0.8069333191501166    0.5222541398697030    H2021
    0.8635496231300896    0.8069333191501166    0.8555874732030363    H2022
    0.8635496231300896    0.1402666524834499    0.1889208065363697    H2023
    0.8635496231300896    0.1402666524834499    0.5222541398697030    H2024
    0.8635496231300896    0.1402666524834499    0.8555874732030363    H2025
    0.3024192951857637    0.2871298450233158    0.2101367260150248    H2026
    0.3024192951857637    0.2871298450233158    0.5434700593483580    H2027
    0.3024192951857637    0.2871298450233158    0.8768033926816913    H2028
    0.3024192951857637    0.6204631783566492    0.2101367260150248    H2029
    0.3024192951857637    0.6204631783566492    0.5434700593483580    H2030
    0.3024192951857637    0.6204631783566492    0.8768033926816913    H2031
    0.3024192951857637    0.9537965116899825    0.2101367260150248    H2032
    0.3024192951857637    0.9537965116899825    0.5434700593483580    H2033
    0.3024192951857637    0.9537965116899825    0.8768033926816913    H2034
    0.6357526285190970    0.2871298450233158    0.2101367260150248    H2035
    0.6357526285190970    0.2871298450233158    0.5434700593483580    H2036
    0.6357526285190970    0.2871298450233158    0.8768033926816913    H2037
    0.6357526285190970    0.6204631783566492    0.2101367260150248    H2038
    0.6357526285190970    0.6204631783566492    0.5434700593483580    H2039
    0.6357526285190970    0.6204631783566492    0.8768033926816913    H2040
    0.6357526285190970    0.9537965116899825    0.2101367260150248    H2041
    0.6357526285190970    0.9537965116899825    0.5434700593483580    H2042
    0.6357526285190970    0.9537965116899825    0.8768033926816913    H2043
    0.9690859618524302    0.2871298450233158    0.2101367260150248    H2044
    0.9690859618524302    0.2871298450233158    0.5434700593483580    H2045
    0.9690859618524302    0.2871298450233158    0.8768033926816913    H2046
    0.9690859618524302    0.6204631783566492    0.2101367260150248    H2047
    0.9690859618524302    0.6204631783566492    0.5434700593483580    H2048
    0.9690859618524302    0.6204631783566492    0.8768033926816913    H2049
    0.9690859618524302    0.9537965116899825    0.2101367260150248    H2050
    0.9690859618524302    0.9537965116899825    0.5434700593483580    H2051
    0.9690859618524302    0.9537965116899825    0.8768033926816913    H2052
    0.3935908118780114    0.1447644335330120    0.2366884426533731    H2053
    0.3935908118780114    0.1447644335330120    0.5700217759867064    H2054
    0.3935908118780114    0.1447644335330120    0.9033551093200398    H2055
    0.3935908118780114    0.4780977668663454    0.2366884426533731    H2056
    0.3935908118780114    0.4780977668663454    0.5700217759867064    H2057
    0.3935908118780114    0.4780977668663454    0.9033551093200398    H2058
    0.3935908118780114    0.8114311001996788    0.2366884426533731    H2059
    0.3935908118780114    0.8114311001996788    0.5700217759867064    H2060
    0.3935908118780114    0.8114311001996788    0.9033551093200398    H2061
    0.7269241452113447    0.1447644335330120    0.2366884426533731    H2062
    0.7269241452113447    0.1447644335330120    0.5700217759867064    H2063
    0.7269241452113447    0.1447644335330120    0.9033551093200398    H2064
    0.7269241452113447    0.4780977668663454    0.2366884426533731    H2065
    0.7269241452113447    0.4780977668663454    0.5700217759867064    H2066
    0.7269241452113447    0.4780977668663454    0.9033551093200398    H2067
    0.7269241452113447    0.8114311001996788    0.2366884426533731    H2068
    0.7269241452113447    0.8114311001996788    0.5700217759867064    H2069
    0.7269241452113447    0.8114311001996788    0.9033551093200398    H2070
    0.0602574785446780    0.1447644335330120    0.2366884426533731    H2071
    0.0602574785446780    0.1447644335330120    0.5700217759867064    H2072
    0.0602574785446780    0.1447644335330120    0.9033551093200398    H2073
    0.0602574785446780    0.4780977668663454    0.2366884426533731    H2074
    0.0602574785446780    0.4780977668663454    0.5700217759867064    H2075
    0.0602574785446780    0.4780977668663454    0.9033551093200398    H2076
    0.0602574785446780    0.8114311001996788    0.2366884426533731    H2077
    0.0602574785446780    0.8114311001996788    0.5700217759867064    H2078
    0.0602574785446780    0.8114311001996788    0.9033551093200398    H2079
    0.4485115820965228    0.1392106582824431    0.2967323045407950    H2080
    0.4485115820965228    0.1392106582824431    0.6300656378741283    H2081
    0.4485115820965228    0.1392106582824431    0.9633989712074617    H2082
    0.4485115820965228    0.4725439916157764    0.2967323045407950    H2083
    0.4485115820965228    0.4725439916157764    0.6300656378741283    H2084
    0.4485115820965228    0.4725439916157764    0.9633989712074617    H2085
    0.4485115820965228    0.8058773249491098    0.2967323045407950    H2086
    0.4485115820965228    0.8058773249491098    0.6300656378741283    H2087
    0.4485115820965228    0.8058773249491098    0.9633989712074617    H2088
    0.7818449154298561    0.1392106582824431    0.2967323045407950    H2089
    0.7818449154298561    0.1392106582824431    0.6300656378741283    H2090
    0.7818449154298561    0.1392106582824431    0.9633989712074617    H2091
    0.7818449154298561    0.4725439916157764    0.2967323045407950    H2092
    0.7818449154298561    0.4725439916157764    0.6300656378741283    H2093
    0.7818449154298561    0.4725439916157764    0.9633989712074617    H2094
    0.7818449154298561    0.8058773249491098    0.2967323045407950    H2095
    0.7818449154298561    0.8058773249491098    0.6300656378741283    H2096
    0.7818449154298561    0.8058773249491098    0.9633989712074617    H2097
    0.1151782487631894    0.1392106582824431    0.2967323045407950    H2098
    0.1151782487631894    0.1392106582824431    0.6300656378741283    H2099
    0.1151782487631894    0.1392106582824431    0.9633989712074617    H2100
    0.1151782487631894    0.4725439916157764    0.2967323045407950    H2101
    0.1151782487631894    0.4725439916157764    0.6300656378741283    H2102
    0.1151782487631894    0.4725439916157764    0.9633989712074617    H2103
    0.1151782487631894    0.8058773249491098    0.2967323045407950    H2104
    0.1151782487631894    0.8058773249491098    0.6300656378741283    H2105
    0.1151782487631894    0.8058773249491098    0.9633989712074617    H2106
    0.3956402354122924    0.2336304973952607    0.1270278934635438    H2107
    0.3956402354122924    0.2336304973952607    0.4603612267968771    H2108
    0.3956402354122924    0.2336304973952607    0.7936945601302104    H2109
    0.3956402354122924    0.5669638307285940    0.1270278934635438    H2110
    0.3956402354122924    0.5669638307285940    0.4603612267968771    H2111
    0.3956402354122924    0.5669638307285940    0.7936945601302104    H2112
    0.3956402354122924    0.9002971640619273    0.1270278934635438    H2113
    0.3956402354122924    0.9002971640619273    0.4603612267968771    H2114
    0.3956402354122924    0.9002971640619273    0.7936945601302104    H2115
    0.7289735687456258    0.2336304973952607    0.1270278934635438    H2116
    0.7289735687456258    0.2336304973952607    0.4603612267968771    H2117
    0.7289735687456258    0.2336304973952607    0.7936945601302104    H2118
    0.7289735687456258    0.5669638307285940    0.1270278934635438    H2119
    0.7289735687456258    0.5669638307285940    0.4603612267968771    H2120
    0.7289735687456258    0.5669638307285940    0.7936945601302104    H2121
    0.7289735687456258    0.9002971640619273    0.1270278934635438    H2122
    0.7289735687456258    0.9002971640619273    0.4603612267968771    H2123
    0.7289735687456258    0.9002971640619273    0.7936945601302104    H2124
    0.0623069020789591    0.2336304973952607    0.1270278934635438    H2125
    0.0623069020789591    0.2336304973952607    0.4603612267968771    H2126
    0.0623069020789591    0.2336304973952607    0.7936945601302104    H2127
    0.0623069020789591    0.5669638307285940    0.1270278934635438    H2128
    0.0623069020789591    0.5669638307285940    0.4603612267968771    H2129
    0.0623069020789591    0.5669638307285940    0.7936945601302104    H2130
    0.0623069020789591    0.9002971640619273    0.1270278934635438    H2131
    0.0623069020789591    0.9002971640619273    0.4603612267968771    H2132
    0.0623069020789591    0.9002971640619273    0.7936945601302104    H2133
    0.1817933820174249    0.1433104644594778    0.3135547428978345    H2134
    0.1817933820174249    0.1433104644594778    0.6468880762311677    H2135
    0.1817933820174249    0.1433104644594778    0.9802214095645010    H2136
    0.1817933820174249    0.4766437977928111    0.3135547428978345    H2137
    0.1817933820174249    0.4766437977928111    0.6468880762311677    H2138
    0.1817933820174249    0.4766437977928111    0.9802214095645010    H2139
    0.1817933820174249    0.8099771311261444    0.3135547428978345    H2140
    0.1817933820174249    0.8099771311261444    0.6468880762311677    H2141
    0.1817933820174249    0.8099771311261444    0.9802214095645010    H2142
    0.5151267153507582    0.1433104644594778    0.3135547428978345    H2143
    0.5151267153507582    0.1433104644594778    0.6468880762311677    H2144
    0.5151267153507582    0.1433104644594778    0.9802214095645010    H2145
    0.5151267153507582    0.4766437977928111    0.3135547428978345    H2146
    0.5151267153507582    0.4766437977928111    0.6468880762311677    H2147
    0.5151267153507582    0.4766437977928111    0.9802214095645010    H2148
    0.5151267153507582    0.8099771311261444    0.3135547428978345    H2149
    0.5151267153507582    0.8099771311261444    0.6468880762311677    H2150
    0.5151267153507582    0.8099771311261444    0.9802214095645010    H2151
    0.8484600486840915    0.1433104644594778    0.3135547428978345    H2152
    0.8484600486840915    0.1433104644594778    0.6468880762311677    H2153
    0.8484600486840915    0.1433104644594778    0.9802214095645010    H2154
    0.8484600486840915    0.4766437977928111    0.3135547428978345    H2155
    0.8484600486840915    0.4766437977928111    0.6468880762311677    H2156
    0.8484600486840915    0.4766437977928111    0.9802214095645010    H2157
    0.8484600486840915    0.8099771311261444    0.3135547428978345    H2158
    0.8484600486840915    0.8099771311261444    0.6468880762311677    H2159
    0.8484600486840915    0.8099771311261444    0.9802214095645010    H2160
    0.4038194928448395    0.0425609039403113    0.4087133496668034    H2161
    0.4038194928448395    0.0425609039403113    0.7420466830001367    H2162
    0.4038194928448395    0.0425609039403113    0.0753800163334700    H2163
    0.4038194928448395    0.3758942372736446    0.4087133496668034    H2164
    0.4038194928448395    0.3758942372736446    0.7420466830001367    H2165
    0.4038194928448395    0.3758942372736446    0.0753800163334700    H2166
    0.4038194928448395    0.7092275706069779    0.4087133496668034    H2167
    0.4038194928448395    0.7092275706069779    0.7420466830001367    H2168
    0.4038194928448395    0.7092275706069779    0.0753800163334700    H2169
    0.7371528261781729    0.0425609039403113    0.4087133496668034    H2170
    0.7371528261781729    0.0425609039403113    0.7420466830001367    H2171
    0.7371528261781729    0.0425609039403113    0.0753800163334700    H2172
    0.7371528261781729    0.3758942372736446    0.4087133496668034    H2173
    0.7371528261781729    0.3758942372736446    0.7420466830001367    H2174
    0.7371528261781729    0.3758942372736446    0.0753800163334700    H2175
    0.7371528261781729    0.7092275706069779    0.4087133496668034    H2176
    0.7371528261781729    0.7092275706069779    0.7420466830001367    H2177
    0.7371528261781729    0.7092275706069779    0.0753800163334700    H2178
    0.0704861595115062    0.0425609039403113    0.4087133496668034    H2179
    0.0704861595115062    0.0425609039403113    0.7420466830001367    H2180
    0.0704861595115062    0.0425609039403113    0.0753800163334700    H2181
    0.0704861595115062    0.3758942372736446    0.4087133496668034    H2182
    0.0704861595115062    0.3758942372736446    0.7420466830001367    H2183
    0.0704861595115062    0.3758942372736446    0.0753800163334700    H2184
    0.0704861595115062    0.7092275706069779    0.4087133496668034    H2185
    0.0704861595115062    0.7092275706069779    0.7420466830001367    H2186
    0.0704861595115062    0.7092275706069779    0.0753800163334700    H2187
    0.3161502950595292    0.0563092163717752    0.4003947870728595    H2188
    0.3161502950595292    0.0563092163717752    0.7337281204061928    H2189
    0.3161502950595292    0.0563092163717752    0.0670614537395261    H2190
    0.3161502950595292    0.3896425497051085    0.4003947870728595    H2191
    0.3161502950595292    0.3896425497051085    0.7337281204061928    H2192
    0.3161502950595292    0.3896425497051085    0.0670614537395261    H2193
    0.3161502950595292    0.7229758830384418    0.4003947870728595    H2194
    0.3161502950595292    0.7229758830384418    0.7337281204061928    H2195
    0.3161502950595292    0.7229758830384418    0.0670614537395261    H2196
    0.6494836283928626    0.0563092163717752    0.4003947870728595    H2197
    0.6494836283928626    0.0563092163717752    0.7337281204061928    H2198
    0.6494836283928626    0.0563092163717752    0.0670614537395261    H2199
    0.6494836283928626    0.3896425497051085    0.4003947870728595    H2200
    0.6494836283928626    0.3896425497051085    0.7337281204061928    H2201
    0.6494836283928626    0.3896425497051085    0.0670614537395261    H2202
    0.6494836283928626    0.7229758830384418    0.4003947870728595    H2203
    0.6494836283928626    0.7229758830384418    0.7337281204061928    H2204
    0.6494836283928626    0.7229758830384418    0.0670614537395261    H2205
    0.9828169617261958    0.0563092163717752    0.4003947870728595    H2206
    0.9828169617261958    0.0563092163717752    0.7337281204061928    H2207
    0.9828169617261958    0.0563092163717752    0.0670614537395261    H2208
    0.9828169617261958    0.3896425497051085    0.4003947870728595    H2209
    0.9828169617261958    0.3896425497051085    0.7337281204061928    H2210
    0.9828169617261958    0.3896425497051085    0.0670614537395261    H2211
    0.9828169617261958    0.7229758830384418    0.4003947870728595    H2212
    0.9828169617261958    0.7229758830384418    0.7337281204061928    H2213
    0.9828169617261958    0.7229758830384418    0.0670614537395261    H2214
    0.1044394894873355    0.3287042869364629    0.8832106425497952    H2215
    0.1044394894873355    0.3287042869364629    0.2165439758831285    H2216
    0.1044394894873355    0.3287042869364629    0.5498773092164617    H2217
    0.1044394894873355    0.6620376202697963    0.8832106425497952    H2218
    0.1044394894873355    0.6620376202697963    0.2165439758831285    H2219
    0.1044394894873355    0.6620376202697963    0.5498773092164617    H2220
    0.1044394894873355    0.9953709536031295    0.8832106425497952    H2221
    0.1044394894873355    0.9953709536031295    0.2165439758831285    H2222
    0.1044394894873355    0.9953709536031295    0.5498773092164617    H2223
    0.4377728228206688    0.3287042869364629    0.8832106425497952    H2224
    0.4377728228206688    0.3287042869364629    0.2165439758831285    H2225
    0.4377728228206688    0.3287042869364629    0.5498773092164617    H2226
    0.4377728228206688    0.6620376202697963    0.8832106425497952    H2227
    0.4377728228206688    0.6620376202697963    0.2165439758831285    H2228
    0.4377728228206688    0.6620376202697963    0.5498773092164617    H2229
    0.4377728228206688    0.9953709536031295    0.8832106425497952    H2230
    0.4377728228206688    0.9953709536031295    0.2165439758831285    H2231
    0.4377728228206688    0.9953709536031295    0.5498773092164617    H2232
    0.7711061561540020    0.3287042869364629    0.8832106425497952    H2233
    0.7711061561540020    0.3287042869364629    0.2165439758831285    H2234
    0.7711061561540020    0.3287042869364629    0.5498773092164617    H2235
    0.7711061561540020    0.6620376202697963    0.8832106425497952    H2236
    0.7711061561540020    0.6620376202697963    0.2165439758831285    H2237
    0.7711061561540020    0.6620376202697963    0.5498773092164617    H2238
    0.7711061561540020    0.9953709536031295    0.8832106425497952    H2239
    0.7711061561540020    0.9953709536031295    0.2165439758831285    H2240
    0.7711061561540020    0.9953709536031295    0.5498773092164617    H2241
    0.2977030539749768    0.1807722060495361    0.2775615990928703    H2242
    0.2977030539749768    0.1807722060495361    0.6108949324262036    H2243
    0.2977030539749768    0.1807722060495361    0.9442282657595369    H2244
    0.2977030539749768    0.5141055393828694    0.2775615990928703    H2245
    0.2977030539749768    0.5141055393828694    0.6108949324262036    H2246
    0.2977030539749768    0.5141055393828694    0.9442282657595369    H2247
    0.2977030539749768    0.8474388727162028    0.2775615990928703    H2248
    0.2977030539749768    0.8474388727162028    0.6108949324262036    H2249
    0.2977030539749768    0.8474388727162028    0.9442282657595369    H2250
    0.6310363873083101    0.1807722060495361    0.2775615990928703    H2251
    0.6310363873083101    0.1807722060495361    0.6108949324262036    H2252
    0.6310363873083101    0.1807722060495361    0.9442282657595369    H2253
    0.6310363873083101    0.5141055393828694    0.2775615990928703    H2254
    0.6310363873083101    0.5141055393828694    0.6108949324262036    H2255
    0.6310363873083101    0.5141055393828694    0.9442282657595369    H2256
    0.6310363873083101    0.8474388727162028    0.2775615990928703    H2257
    0.6310363873083101    0.8474388727162028    0.6108949324262036    H2258
    0.6310363873083101    0.8474388727162028    0.9442282657595369    H2259
    0.9643697206416434    0.1807722060495361    0.2775615990928703    H2260
    0.9643697206416434    0.1807722060495361    0.6108949324262036    H2261
    0.9643697206416434    0.1807722060495361    0.9442282657595369    H2262
    0.9643697206416434    0.5141055393828694    0.2775615990928703    H2263
    0.9643697206416434    0.5141055393828694    0.6108949324262036    H2264
    0.9643697206416434    0.5141055393828694    0.9442282657595369    H2265
    0.9643697206416434    0.8474388727162028    0.2775615990928703    H2266
    0.9643697206416434    0.8474388727162028    0.6108949324262036    H2267
    0.9643697206416434    0.8474388727162028    0.9442282657595369    H2268
    0.4109019259420430    0.9958627107908677    0.1266303402753181    H2269
    0.4109019259420430    0.9958627107908677    0.4599636736086513    H2270
    0.4109019259420430    0.9958627107908677    0.7932970069419847    H2271
    0.4109019259420430    0.3291960441242011    0.1266303402753181    H2272
    0.4109019259420430    0.3291960441242011    0.4599636736086513    H2273
    0.4109019259420430    0.3291960441242011    0.7932970069419847    H2274
    0.4109019259420430    0.6625293774575345    0.1266303402753181    H2275
    0.4109019259420430    0.6625293774575345    0.4599636736086513    H2276
    0.4109019259420430    0.6625293774575345    0.7932970069419847    H2277
    0.7442352592753763    0.9958627107908677    0.1266303402753181    H2278
    0.7442352592753763    0.9958627107908677    0.4599636736086513    H2279
    0.7442352592753763    0.9958627107908677    0.7932970069419847    H2280
    0.7442352592753763    0.3291960441242011    0.1266303402753181    H2281
    0.7442352592753763    0.3291960441242011    0.4599636736086513    H2282
    0.7442352592753763    0.3291960441242011    0.7932970069419847    H2283
    0.7442352592753763    0.6625293774575345    0.1266303402753181    H2284
    0.7442352592753763    0.6625293774575345    0.4599636736086513    H2285
    0.7442352592753763    0.6625293774575345    0.7932970069419847    H2286
    0.0775685926087096    0.9958627107908677    0.1266303402753181    H2287
    0.0775685926087096    0.9958627107908677    0.4599636736086513    H2288
    0.0775685926087096    0.9958627107908677    0.7932970069419847    H2289
    0.0775685926087096    0.3291960441242011    0.1266303402753181    H2290
    0.0775685926087096    0.3291960441242011    0.4599636736086513    H2291
    0.0775685926087096    0.3291960441242011    0.7932970069419847    H2292
    0.0775685926087096    0.6625293774575345    0.1266303402753181    H2293
    0.0775685926087096    0.6625293774575345    0.4599636736086513    H2294
    0.0775685926087096    0.6625293774575345    0.7932970069419847    H2295
    0.2840160930124873    0.1895859178566242    0.2315684568174525    H2296
    0.2840160930124873    0.1895859178566242    0.5649017901507859    H2297
    0.2840160930124873    0.1895859178566242    0.8982351234841193    H2298
    0.2840160930124873    0.5229192511899575    0.2315684568174525    H2299
    0.2840160930124873    0.5229192511899575    0.5649017901507859    H2300
    0.2840160930124873    0.5229192511899575    0.8982351234841193    H2301
    0.2840160930124873    0.8562525845232909    0.2315684568174525    H2302
    0.2840160930124873    0.8562525845232909    0.5649017901507859    H2303
    0.2840160930124873    0.8562525845232909    0.8982351234841193    H2304
    0.6173494263458207    0.1895859178566242    0.2315684568174525    H2305
    0.6173494263458207    0.1895859178566242    0.5649017901507859    H2306
    0.6173494263458207    0.1895859178566242    0.8982351234841193    H2307
    0.6173494263458207    0.5229192511899575    0.2315684568174525    H2308
    0.6173494263458207    0.5229192511899575    0.5649017901507859    H2309
    0.6173494263458207    0.5229192511899575    0.8982351234841193    H2310
    0.6173494263458207    0.8562525845232909    0.2315684568174525    H2311
    0.6173494263458207    0.8562525845232909    0.5649017901507859    H2312
    0.6173494263458207    0.8562525845232909    0.8982351234841193    H2313
    0.9506827596791539    0.1895859178566242    0.2315684568174525    H2314
    0.9506827596791539    0.1895859178566242    0.5649017901507859    H2315
    0.9506827596791539    0.1895859178566242    0.8982351234841193    H2316
    0.9506827596791539    0.5229192511899575    0.2315684568174525    H2317
    0.9506827596791539    0.5229192511899575    0.5649017901507859    H2318
    0.9506827596791539    0.5229192511899575    0.8982351234841193    H2319
    0.9506827596791539    0.8562525845232909    0.2315684568174525    H2320
    0.9506827596791539    0.8562525845232909    0.5649017901507859    H2321
    0.9506827596791539    0.8562525845232909    0.8982351234841193    H2322
    0.3361460181802464    0.0518544119235582    0.1818252974451848    H2323
    0.3361460181802464    0.0518544119235582    0.5151586307785182    H2324
    0.3361460181802464    0.0518544119235582    0.8484919641118516    H2325
    0.3361460181802464    0.3851877452568915    0.1818252974451848    H2326
    0.3361460181802464    0.3851877452568915    0.5151586307785182    H2327
    0.3361460181802464    0.3851877452568915    0.8484919641118516    H2328
    0.3361460181802464    0.7185210785902247    0.1818252974451848    H2329
    0.3361460181802464    0.7185210785902247    0.5151586307785182    H2330
    0.3361460181802464    0.7185210785902247    0.8484919641118516    H2331
    0.6694793515135797    0.0518544119235582    0.1818252974451848    H2332
    0.6694793515135797    0.0518544119235582    0.5151586307785182    H2333
    0.6694793515135797    0.0518544119235582    0.8484919641118516    H2334
    0.6694793515135797    0.3851877452568915    0.1818252974451848    H2335
    0.6694793515135797    0.3851877452568915    0.5151586307785182    H2336
    0.6694793515135797    0.3851877452568915    0.8484919641118516    H2337
    0.6694793515135797    0.7185210785902247    0.1818252974451848    H2338
    0.6694793515135797    0.7185210785902247    0.5151586307785182    H2339
    0.6694793515135797    0.7185210785902247    0.8484919641118516    H2340
    0.0028126848469130    0.0518544119235582    0.1818252974451848    H2341
    0.0028126848469130    0.0518544119235582    0.5151586307785182    H2342
    0.0028126848469130    0.0518544119235582    0.8484919641118516    H2343
    0.0028126848469130    0.3851877452568915    0.1818252974451848    H2344
    0.0028126848469130    0.3851877452568915    0.5151586307785182    H2345
    0.0028126848469130    0.3851877452568915    0.8484919641118516    H2346
    0.0028126848469130    0.7185210785902247    0.1818252974451848    H2347
    0.0028126848469130    0.7185210785902247    0.5151586307785182    H2348
    0.0028126848469130    0.7185210785902247    0.8484919641118516    H2349
    0.3384741268262308    0.9486339349799668    0.2319191935344150    H2350
    0.3384741268262308    0.9486339349799668    0.5652525268677484    H2351
    0.3384741268262308    0.9486339349799668    0.8985858602010818    H2352
    0.3384741268262308    0.2819672683133001    0.2319191935344150    H2353
    0.3384741268262308    0.2819672683133001    0.5652525268677484    H2354
    0.3384741268262308    0.2819672683133001    0.8985858602010818    H2355
    0.3384741268262308    0.6153006016466335    0.2319191935344150    H2356
    0.3384741268262308    0.6153006016466335    0.5652525268677484    H2357
    0.3384741268262308    0.6153006016466335    0.8985858602010818    H2358
    0.6718074601595641    0.9486339349799668    0.2319191935344150    H2359
    0.6718074601595641    0.9486339349799668    0.5652525268677484    H2360
    0.6718074601595641    0.9486339349799668    0.8985858602010818    H2361
    0.6718074601595641    0.2819672683133001    0.2319191935344150    H2362
    0.6718074601595641    0.2819672683133001    0.5652525268677484    H2363
    0.6718074601595641    0.2819672683133001    0.8985858602010818    H2364
    0.6718074601595641    0.6153006016466335    0.2319191935344150    H2365
    0.6718074601595641    0.6153006016466335    0.5652525268677484    H2366
    0.6718074601595641    0.6153006016466335    0.8985858602010818    H2367
    0.0051407934928974    0.9486339349799668    0.2319191935344150    H2368
    0.0051407934928974    0.9486339349799668    0.5652525268677484    H2369
    0.0051407934928974    0.9486339349799668    0.8985858602010818    H2370
    0.0051407934928974    0.2819672683133001    0.2319191935344150    H2371
    0.0051407934928974    0.2819672683133001    0.5652525268677484    H2372
    0.0051407934928974    0.2819672683133001    0.8985858602010818    H2373
    0.0051407934928974    0.6153006016466335    0.2319191935344150    H2374
    0.0051407934928974    0.6153006016466335    0.5652525268677484    H2375
    0.0051407934928974    0.6153006016466335    0.8985858602010818    H2376
    0.1409698957962501    0.3473626361497734    0.8377022857269747    H2377
    0.1409698957962501    0.3473626361497734    0.1710356190603081    H2378
    0.1409698957962501    0.3473626361497734    0.5043689523936414    H2379
    0.1409698957962501    0.6806959694831067    0.8377022857269747    H2380
    0.1409698957962501    0.6806959694831067    0.1710356190603081    H2381
    0.1409698957962501    0.6806959694831067    0.5043689523936414    H2382
    0.1409698957962501    0.0140293028164400    0.8377022857269747    H2383
    0.1409698957962501    0.0140293028164400    0.1710356190603081    H2384
    0.1409698957962501    0.0140293028164400    0.5043689523936414    H2385
    0.4743032291295834    0.3473626361497734    0.8377022857269747    H2386
    0.4743032291295834    0.3473626361497734    0.1710356190603081    H2387
    0.4743032291295834    0.3473626361497734    0.5043689523936414    H2388
    0.4743032291295834    0.6806959694831067    0.8377022857269747    H2389
    0.4743032291295834    0.6806959694831067    0.1710356190603081    H2390
    0.4743032291295834    0.6806959694831067    0.5043689523936414    H2391
    0.4743032291295834    0.0140293028164400    0.8377022857269747    H2392
    0.4743032291295834    0.0140293028164400    0.1710356190603081    H2393
    0.4743032291295834    0.0140293028164400    0.5043689523936414    H2394
    0.8076365624629167    0.3473626361497734    0.8377022857269747    H2395
    0.8076365624629167    0.3473626361497734    0.1710356190603081    H2396
    0.8076365624629167    0.3473626361497734    0.5043689523936414    H2397
    0.8076365624629167    0.6806959694831067    0.8377022857269747    H2398
    0.8076365624629167    0.6806959694831067    0.1710356190603081    H2399
    0.8076365624629167    0.6806959694831067    0.5043689523936414    H2400
    0.8076365624629167    0.0140293028164400    0.8377022857269747    H2401
    0.8076365624629167    0.0140293028164400    0.1710356190603081    H2402
    0.8076365624629167    0.0140293028164400    0.5043689523936414    H2403
    0.1841184480721475    0.0940478015688195    0.2811999269692771    H2404
    0.1841184480721475    0.0940478015688195    0.6145332603026104    H2405
    0.1841184480721475    0.0940478015688195    0.9478665936359437    H2406
    0.1841184480721475    0.4273811349021529    0.2811999269692771    H2407
    0.1841184480721475    0.4273811349021529    0.6145332603026104    H2408
    0.1841184480721475    0.4273811349021529    0.9478665936359437    H2409
    0.1841184480721475    0.7607144682354862    0.2811999269692771    H2410
    0.1841184480721475    0.7607144682354862    0.6145332603026104    H2411
    0.1841184480721475    0.7607144682354862    0.9478665936359437    H2412
    0.5174517814054809    0.0940478015688195    0.2811999269692771    H2413
    0.5174517814054809    0.0940478015688195    0.6145332603026104    H2414
    0.5174517814054809    0.0940478015688195    0.9478665936359437    H2415
    0.5174517814054809    0.4273811349021529    0.2811999269692771    H2416
    0.5174517814054809    0.4273811349021529    0.6145332603026104    H2417
    0.5174517814054809    0.4273811349021529    0.9478665936359437    H2418
    0.5174517814054809    0.7607144682354862    0.2811999269692771    H2419
    0.5174517814054809    0.7607144682354862    0.6145332603026104    H2420
    0.5174517814054809    0.7607144682354862    0.9478665936359437    H2421
    0.8507851147388141    0.0940478015688195    0.2811999269692771    H2422
    0.8507851147388141    0.0940478015688195    0.6145332603026104    H2423
    0.8507851147388141    0.0940478015688195    0.9478665936359437    H2424
    0.8507851147388141    0.4273811349021529    0.2811999269692771    H2425
    0.8507851147388141    0.4273811349021529    0.6145332603026104    H2426
    0.8507851147388141    0.4273811349021529    0.9478665936359437    H2427
    0.8507851147388141    0.7607144682354862    0.2811999269692771    H2428
    0.8507851147388141    0.7607144682354862    0.6145332603026104    H2429
    0.8507851147388141    0.7607144682354862    0.9478665936359437    H2430
    0.0936571476494557    0.0698962688976693    0.3311441654696270    H2431
    0.0936571476494557    0.0698962688976693    0.6644774988029604    H2432
    0.0936571476494557    0.0698962688976693    0.9978108321362936    H2433
    0.0936571476494557    0.4032296022310027    0.3311441654696270    H2434
    0.0936571476494557    0.4032296022310027    0.6644774988029604    H2435
    0.0936571476494557    0.4032296022310027    0.9978108321362936    H2436
    0.0936571476494557    0.7365629355643361    0.3311441654696270    H2437
    0.0936571476494557    0.7365629355643361    0.6644774988029604    H2438
    0.0936571476494557    0.7365629355643361    0.9978108321362936    H2439
    0.4269904809827890    0.0698962688976693    0.3311441654696270    H2440
    0.4269904809827890    0.0698962688976693    0.6644774988029604    H2441
    0.4269904809827890    0.0698962688976693    0.9978108321362936    H2442
    0.4269904809827890    0.4032296022310027    0.3311441654696270    H2443
    0.4269904809827890    0.4032296022310027    0.6644774988029604    H2444
    0.4269904809827890    0.4032296022310027    0.9978108321362936    H2445
    0.4269904809827890    0.7365629355643361    0.3311441654696270    H2446
    0.4269904809827890    0.7365629355643361    0.6644774988029604    H2447
    0.4269904809827890    0.7365629355643361    0.9978108321362936    H2448
    0.7603238143161224    0.0698962688976693    0.3311441654696270    H2449
    0.7603238143161224    0.0698962688976693    0.6644774988029604    H2450
    0.7603238143161224    0.0698962688976693    0.9978108321362936    H2451
    0.7603238143161224    0.4032296022310027    0.3311441654696270    H2452
    0.7603238143161224    0.4032296022310027    0.6644774988029604    H2453
    0.7603238143161224    0.4032296022310027    0.9978108321362936    H2454
    0.7603238143161224    0.7365629355643361    0.3311441654696270    H2455
    0.7603238143161224    0.7365629355643361    0.6644774988029604    H2456
    0.7603238143161224    0.7365629355643361    0.9978108321362936    H2457
    0.1844845330638747    0.1960719784161363    0.2604783557179682    H2458
    0.1844845330638747    0.1960719784161363    0.5938116890513014    H2459
    0.1844845330638747    0.1960719784161363    0.9271450223846347    H2460
    0.1844845330638747    0.5294053117494697    0.2604783557179682    H2461
    0.1844845330638747    0.5294053117494697    0.5938116890513014    H2462
    0.1844845330638747    0.5294053117494697    0.9271450223846347    H2463
    0.1844845330638747    0.8627386450828030    0.2604783557179682    H2464
    0.1844845330638747    0.8627386450828030    0.5938116890513014    H2465
    0.1844845330638747    0.8627386450828030    0.9271450223846347    H2466
    0.5178178663972081    0.1960719784161363    0.2604783557179682    H2467
    0.5178178663972081    0.1960719784161363    0.5938116890513014    H2468
    0.5178178663972081    0.1960719784161363    0.9271450223846347    H2469
    0.5178178663972081    0.5294053117494697    0.2604783557179682    H2470
    0.5178178663972081    0.5294053117494697    0.5938116890513014    H2471
    0.5178178663972081    0.5294053117494697    0.9271450223846347    H2472
    0.5178178663972081    0.8627386450828030    0.2604783557179682    H2473
    0.5178178663972081    0.8627386450828030    0.5938116890513014    H2474
    0.5178178663972081    0.8627386450828030    0.9271450223846347    H2475
    0.8511511997305414    0.1960719784161363    0.2604783557179682    H2476
    0.8511511997305414    0.1960719784161363    0.5938116890513014    H2477
    0.8511511997305414    0.1960719784161363    0.9271450223846347    H2478
    0.8511511997305414    0.5294053117494697    0.2604783557179682    H2479
    0.8511511997305414    0.5294053117494697    0.5938116890513014    H2480
    0.8511511997305414    0.5294053117494697    0.9271450223846347    H2481
    0.8511511997305414    0.8627386450828030    0.2604783557179682    H2482
    0.8511511997305414    0.8627386450828030    0.5938116890513014    H2483
    0.8511511997305414    0.8627386450828030    0.9271450223846347    H2484
    0.0720520030342775    0.0767640713903972    0.2928534077030205    H2485
    0.0720520030342775    0.0767640713903972    0.6261867410363537    H2486
    0.0720520030342775    0.0767640713903972    0.9595200743696871    H2487
    0.0720520030342775    0.4100974047237305    0.2928534077030205    H2488
    0.0720520030342775    0.4100974047237305    0.6261867410363537    H2489
    0.0720520030342775    0.4100974047237305    0.9595200743696871    H2490
    0.0720520030342775    0.7434307380570637    0.2928534077030205    H2491
    0.0720520030342775    0.7434307380570637    0.6261867410363537    H2492
    0.0720520030342775    0.7434307380570637    0.9595200743696871    H2493
    0.4053853363676109    0.0767640713903972    0.2928534077030205    H2494
    0.4053853363676109    0.0767640713903972    0.6261867410363537    H2495
    0.4053853363676109    0.0767640713903972    0.9595200743696871    H2496
    0.4053853363676109    0.4100974047237305    0.2928534077030205    H2497
    0.4053853363676109    0.4100974047237305    0.6261867410363537    H2498
    0.4053853363676109    0.4100974047237305    0.9595200743696871    H2499
    0.4053853363676109    0.7434307380570637    0.2928534077030205    H2500
    0.4053853363676109    0.7434307380570637    0.6261867410363537    H2501
    0.4053853363676109    0.7434307380570637    0.9595200743696871    H2502
    0.7387186697009442    0.0767640713903972    0.2928534077030205    H2503
    0.7387186697009442    0.0767640713903972    0.6261867410363537    H2504
    0.7387186697009442    0.0767640713903972    0.9595200743696871    H2505
    0.7387186697009442    0.4100974047237305    0.2928534077030205    H2506
    0.7387186697009442    0.4100974047237305    0.6261867410363537    H2507
    0.7387186697009442    0.4100974047237305    0.9595200743696871    H2508
    0.7387186697009442    0.7434307380570637    0.2928534077030205    H2509
    0.7387186697009442    0.7434307380570637    0.6261867410363537    H2510
    0.7387186697009442    0.7434307380570637    0.9595200743696871    H2511
    0.3599763129386838    0.1685657424545290    0.2692908531038171    H2512
    0.3599763129386838    0.1685657424545290    0.6026241864371504    H2513
    0.3599763129386838    0.1685657424545290    0.9359575197704837    H2514
    0.3599763129386838    0.5018990757878624    0.2692908531038171    H2515
    0.3599763129386838    0.5018990757878624    0.6026241864371504    H2516
    0.3599763129386838    0.5018990757878624    0.9359575197704837    H2517
    0.3599763129386838    0.8352324091211957    0.2692908531038171    H2518
    0.3599763129386838    0.8352324091211957    0.6026241864371504    H2519
    0.3599763129386838    0.8352324091211957    0.9359575197704837    H2520
    0.6933096462720172    0.1685657424545290    0.2692908531038171    H2521
    0.6933096462720172    0.1685657424545290    0.6026241864371504    H2522
    0.6933096462720172    0.1685657424545290    0.9359575197704837    H2523
    0.6933096462720172    0.5018990757878624    0.2692908531038171    H2524
    0.6933096462720172    0.5018990757878624    0.6026241864371504    H2525
    0.6933096462720172    0.5018990757878624    0.9359575197704837    H2526
    0.6933096462720172    0.8352324091211957    0.2692908531038171    H2527
    0.6933096462720172    0.8352324091211957    0.6026241864371504    H2528
    0.6933096462720172    0.8352324091211957    0.9359575197704837    H2529
    0.0266429796053504    0.1685657424545290    0.2692908531038171    H2530
    0.0266429796053504    0.1685657424545290    0.6026241864371504    H2531
    0.0266429796053504    0.1685657424545290    0.9359575197704837    H2532
    0.0266429796053504    0.5018990757878624    0.2692908531038171    H2533
    0.0266429796053504    0.5018990757878624    0.6026241864371504    H2534
    0.0266429796053504    0.5018990757878624    0.9359575197704837    H2535
    0.0266429796053504    0.8352324091211957    0.2692908531038171    H2536
    0.0266429796053504    0.8352324091211957    0.6026241864371504    H2537
    0.0266429796053504    0.8352324091211957    0.9359575197704837    H2538
    0.1178783409443227    0.1555516575634508    0.2359201527645787    H2539
    0.1178783409443227    0.1555516575634508    0.5692534860979120    H2540
    0.1178783409443227    0.1555516575634508    0.9025868194312453    H2541
    0.1178783409443227    0.4888849908967843    0.2359201527645787    H2542
    0.1178783409443227    0.4888849908967843    0.5692534860979120    H2543
    0.1178783409443227    0.4888849908967843    0.9025868194312453    H2544
    0.1178783409443227    0.8222183242301175    0.2359201527645787    H2545
    0.1178783409443227    0.8222183242301175    0.5692534860979120    H2546
    0.1178783409443227    0.8222183242301175    0.9025868194312453    H2547
    0.4512116742776561    0.1555516575634508    0.2359201527645787    H2548
    0.4512116742776561    0.1555516575634508    0.5692534860979120    H2549
    0.4512116742776561    0.1555516575634508    0.9025868194312453    H2550
    0.4512116742776561    0.4888849908967843    0.2359201527645787    H2551
    0.4512116742776561    0.4888849908967843    0.5692534860979120    H2552
    0.4512116742776561    0.4888849908967843    0.9025868194312453    H2553
    0.4512116742776561    0.8222183242301175    0.2359201527645787    H2554
    0.4512116742776561    0.8222183242301175    0.5692534860979120    H2555
    0.4512116742776561    0.8222183242301175    0.9025868194312453    H2556
    0.7845450076109893    0.1555516575634508    0.2359201527645787    H2557
    0.7845450076109893    0.1555516575634508    0.5692534860979120    H2558
    0.7845450076109893    0.1555516575634508    0.9025868194312453    H2559
    0.7845450076109893    0.4888849908967843    0.2359201527645787    H2560
    0.7845450076109893    0.4888849908967843    0.5692534860979120    H2561
    0.7845450076109893    0.4888849908967843    0.9025868194312453    H2562
    0.7845450076109893    0.8222183242301175    0.2359201527645787    H2563
    0.7845450076109893    0.8222183242301175    0.5692534860979120    H2564
    0.7845450076109893    0.8222183242301175    0.9025868194312453    H2565
    0.8188388416359806    0.0465621427153169    0.3346948028095572    H2566
    0.8188388416359806    0.0465621427153169    0.6680281361428906    H2567
    0.8188388416359806    0.0465621427153169    0.0013614694762238    H2568
    0.8188388416359806    0.3798954760486501    0.3346948028095572    H2569
    0.8188388416359806    0.3798954760486501    0.6680281361428906    H2570
    0.8188388416359806    0.3798954760486501    0.0013614694762238    H2571
    0.8188388416359806    0.7132288093819835    0.3346948028095572    H2572
    0.8188388416359806    0.7132288093819835    0.6680281361428906    H2573
    0.8188388416359806    0.7132288093819835    0.0013614694762238    H2574
    0.1521721749693139    0.0465621427153169    0.3346948028095572    H2575
    0.1521721749693139    0.0465621427153169    0.6680281361428906    H2576
    0.1521721749693139    0.0465621427153169    0.0013614694762238    H2577
    0.1521721749693139    0.3798954760486501    0.3346948028095572    H2578
    0.1521721749693139    0.3798954760486501    0.6680281361428906    H2579
    0.1521721749693139    0.3798954760486501    0.0013614694762238    H2580
    0.1521721749693139    0.7132288093819835    0.3346948028095572    H2581
    0.1521721749693139    0.7132288093819835    0.6680281361428906    H2582
    0.1521721749693139    0.7132288093819835    0.0013614694762238    H2583
    0.4855055083026472    0.0465621427153169    0.3346948028095572    H2584
    0.4855055083026472    0.0465621427153169    0.6680281361428906    H2585
    0.4855055083026472    0.0465621427153169    0.0013614694762238    H2586
    0.4855055083026472    0.3798954760486501    0.3346948028095572    H2587
    0.4855055083026472    0.3798954760486501    0.6680281361428906    H2588
    0.4855055083026472    0.3798954760486501    0.0013614694762238    H2589
    0.4855055083026472    0.7132288093819835    0.3346948028095572    H2590
    0.4855055083026472    0.7132288093819835    0.6680281361428906    H2591
    0.4855055083026472    0.7132288093819835    0.0013614694762238    H2592
    0.2510023454504677    0.0537213890565122    0.1597843893312545    H2593
    0.2510023454504677    0.0537213890565122    0.4931177226645879    H2594
    0.2510023454504677    0.0537213890565122    0.8264510559979211    H2595
    0.2510023454504677    0.3870547223898457    0.1597843893312545    H2596
    0.2510023454504677    0.3870547223898457    0.4931177226645879    H2597
    0.2510023454504677    0.3870547223898457    0.8264510559979211    H2598
    0.2510023454504677    0.7203880557231790    0.1597843893312545    H2599
    0.2510023454504677    0.7203880557231790    0.4931177226645879    H2600
    0.2510023454504677    0.7203880557231790    0.8264510559979211    H2601
    0.5843356787838010    0.0537213890565122    0.1597843893312545    H2602
    0.5843356787838010    0.0537213890565122    0.4931177226645879    H2603
    0.5843356787838010    0.0537213890565122    0.8264510559979211    H2604
    0.5843356787838010    0.3870547223898457    0.1597843893312545    H2605
    0.5843356787838010    0.3870547223898457    0.4931177226645879    H2606
    0.5843356787838010    0.3870547223898457    0.8264510559979211    H2607
    0.5843356787838010    0.7203880557231790    0.1597843893312545    H2608
    0.5843356787838010    0.7203880557231790    0.4931177226645879    H2609
    0.5843356787838010    0.7203880557231790    0.8264510559979211    H2610
    0.9176690121171344    0.0537213890565122    0.1597843893312545    H2611
    0.9176690121171344    0.0537213890565122    0.4931177226645879    H2612
    0.9176690121171344    0.0537213890565122    0.8264510559979211    H2613
    0.9176690121171344    0.3870547223898457    0.1597843893312545    H2614
    0.9176690121171344    0.3870547223898457    0.4931177226645879    H2615
    0.9176690121171344    0.3870547223898457    0.8264510559979211    H2616
    0.9176690121171344    0.7203880557231790    0.1597843893312545    H2617
    0.9176690121171344    0.7203880557231790    0.4931177226645879    H2618
    0.9176690121171344    0.7203880557231790    0.8264510559979211    H2619
    0.2563046593510865    0.1301147874209144    0.3989997227450846    H2620
    0.2563046593510865    0.1301147874209144    0.7323330560784178    H2621
    0.2563046593510865    0.1301147874209144    0.0656663894117511    H2622
    0.2563046593510865    0.4634481207542478    0.3989997227450846    H2623
    0.2563046593510865    0.4634481207542478    0.7323330560784178    H2624
    0.2563046593510865    0.4634481207542478    0.0656663894117511    H2625
    0.2563046593510865    0.7967814540875811    0.3989997227450846    H2626
    0.2563046593510865    0.7967814540875811    0.7323330560784178    H2627
    0.2563046593510865    0.7967814540875811    0.0656663894117511    H2628
    0.5896379926844197    0.1301147874209144    0.3989997227450846    H2629
    0.5896379926844197    0.1301147874209144    0.7323330560784178    H2630
    0.5896379926844197    0.1301147874209144    0.0656663894117511    H2631
    0.5896379926844197    0.4634481207542478    0.3989997227450846    H2632
    0.5896379926844197    0.4634481207542478    0.7323330560784178    H2633
    0.5896379926844197    0.4634481207542478    0.0656663894117511    H2634
    0.5896379926844197    0.7967814540875811    0.3989997227450846    H2635
    0.5896379926844197    0.7967814540875811    0.7323330560784178    H2636
    0.5896379926844197    0.7967814540875811    0.0656663894117511    H2637
    0.9229713260177531    0.1301147874209144    0.3989997227450846    H2638
    0.9229713260177531    0.1301147874209144    0.7323330560784178    H2639
    0.9229713260177531    0.1301147874209144    0.0656663894117511    H2640
    0.9229713260177531    0.4634481207542478    0.3989997227450846    H2641
    0.9229713260177531    0.4634481207542478    0.7323330560784178    H2642
    0.9229713260177531    0.4634481207542478    0.0656663894117511    H2643
    0.9229713260177531    0.7967814540875811    0.3989997227450846    H2644
    0.9229713260177531    0.7967814540875811    0.7323330560784178    H2645
    0.9229713260177531    0.7967814540875811    0.0656663894117511    H2646
    0.2170701153039482    0.1870017625460266    0.3012782852266349    H2647
    0.2170701153039482    0.1870017625460266    0.6346116185599683    H2648
    0.2170701153039482    0.1870017625460266    0.9679449518933015    H2649
    0.2170701153039482    0.5203350958793600    0.3012782852266349    H2650
    0.2170701153039482    0.5203350958793600    0.6346116185599683    H2651
    0.2170701153039482    0.5203350958793600    0.9679449518933015    H2652
    0.2170701153039482    0.8536684292126933    0.3012782852266349    H2653
    0.2170701153039482    0.8536684292126933    0.6346116185599683    H2654
    0.2170701153039482    0.8536684292126933    0.9679449518933015    H2655
    0.5504034486372815    0.1870017625460266    0.3012782852266349    H2656
    0.5504034486372815    0.1870017625460266    0.6346116185599683    H2657
    0.5504034486372815    0.1870017625460266    0.9679449518933015    H2658
    0.5504034486372815    0.5203350958793600    0.3012782852266349    H2659
    0.5504034486372815    0.5203350958793600    0.6346116185599683    H2660
    0.5504034486372815    0.5203350958793600    0.9679449518933015    H2661
    0.5504034486372815    0.8536684292126933    0.3012782852266349    H2662
    0.5504034486372815    0.8536684292126933    0.6346116185599683    H2663
    0.5504034486372815    0.8536684292126933    0.9679449518933015    H2664
    0.8837367819706148    0.1870017625460266    0.3012782852266349    H2665
    0.8837367819706148    0.1870017625460266    0.6346116185599683    H2666
    0.8837367819706148    0.1870017625460266    0.9679449518933015    H2667
    0.8837367819706148    0.5203350958793600    0.3012782852266349    H2668
    0.8837367819706148    0.5203350958793600    0.6346116185599683    H2669
    0.8837367819706148    0.5203350958793600    0.9679449518933015    H2670
    0.8837367819706148    0.8536684292126933    0.3012782852266349    H2671
    0.8837367819706148    0.8536684292126933    0.6346116185599683    H2672
    0.8837367819706148    0.8536684292126933    0.9679449518933015    H2673
    0.2397629345004004    0.1136310245080283    0.3352671051264351    H2674
    0.2397629345004004    0.1136310245080283    0.6686004384597685    H2675
    0.2397629345004004    0.1136310245080283    0.0019337717931018    H2676
    0.2397629345004004    0.4469643578413618    0.3352671051264351    H2677
    0.2397629345004004    0.4469643578413618    0.6686004384597685    H2678
    0.2397629345004004    0.4469643578413618    0.0019337717931018    H2679
    0.2397629345004004    0.7802976911746951    0.3352671051264351    H2680
    0.2397629345004004    0.7802976911746951    0.6686004384597685    H2681
    0.2397629345004004    0.7802976911746951    0.0019337717931018    H2682
    0.5730962678337338    0.1136310245080283    0.3352671051264351    H2683
    0.5730962678337338    0.1136310245080283    0.6686004384597685    H2684
    0.5730962678337338    0.1136310245080283    0.0019337717931018    H2685
    0.5730962678337338    0.4469643578413618    0.3352671051264351    H2686
    0.5730962678337338    0.4469643578413618    0.6686004384597685    H2687
    0.5730962678337338    0.4469643578413618    0.0019337717931018    H2688
    0.5730962678337338    0.7802976911746951    0.3352671051264351    H2689
    0.5730962678337338    0.7802976911746951    0.6686004384597685    H2690
    0.5730962678337338    0.7802976911746951    0.0019337717931018    H2691
    0.9064296011670671    0.1136310245080283    0.3352671051264351    H2692
    0.9064296011670671    0.1136310245080283    0.6686004384597685    H2693
    0.9064296011670671    0.1136310245080283    0.0019337717931018    H2694
    0.9064296011670671    0.4469643578413618    0.3352671051264351    H2695
    0.9064296011670671    0.4469643578413618    0.6686004384597685    H2696
    0.9064296011670671    0.4469643578413618    0.0019337717931018    H2697
    0.9064296011670671    0.7802976911746951    0.3352671051264351    H2698
    0.9064296011670671    0.7802976911746951    0.6686004384597685    H2699
    0.9064296011670671    0.7802976911746951    0.0019337717931018    H2700
    0.3198550924462097    0.8460187202950704    0.4467220902773759    H2701
    0.3198550924462097    0.8460187202950704    0.7800554236107092    H2702
    0.3198550924462097    0.8460187202950704    0.1133887569440425    H2703
    0.3198550924462097    0.1793520536284037    0.4467220902773759    H2704
    0.3198550924462097    0.1793520536284037    0.7800554236107092    H2705
    0.3198550924462097    0.1793520536284037    0.1133887569440425    H2706
    0.3198550924462097    0.5126853869617372    0.4467220902773759    H2707
    0.3198550924462097    0.5126853869617372    0.7800554236107092    H2708
    0.3198550924462097    0.5126853869617372    0.1133887569440425    H2709
    0.6531884257795431    0.8460187202950704    0.4467220902773759    H2710
    0.6531884257795431    0.8460187202950704    0.7800554236107092    H2711
    0.6531884257795431    0.8460187202950704    0.1133887569440425    H2712
    0.6531884257795431    0.1793520536284037    0.4467220902773759    H2713
    0.6531884257795431    0.1793520536284037    0.7800554236107092    H2714
    0.6531884257795431    0.1793520536284037    0.1133887569440425    H2715
    0.6531884257795431    0.5126853869617372    0.4467220902773759    H2716
    0.6531884257795431    0.5126853869617372    0.7800554236107092    H2717
    0.6531884257795431    0.5126853869617372    0.1133887569440425    H2718
    0.9865217591128763    0.8460187202950704    0.4467220902773759    H2719
    0.9865217591128763    0.8460187202950704    0.7800554236107092    H2720
    0.9865217591128763    0.8460187202950704    0.1133887569440425    H2721
    0.9865217591128763    0.1793520536284037    0.4467220902773759    H2722
    0.9865217591128763    0.1793520536284037    0.7800554236107092    H2723
    0.9865217591128763    0.1793520536284037    0.1133887569440425    H2724
    0.9865217591128763    0.5126853869617372    0.4467220902773759    H2725
    0.9865217591128763    0.5126853869617372    0.7800554236107092    H2726
    0.9865217591128763    0.5126853869617372    0.1133887569440425    H2727
    0.4455885322502541    0.1811089398909423    0.0802548492394917    H2728
    0.4455885322502541    0.1811089398909423    0.4135881825728250    H2729
    0.4455885322502541    0.1811089398909423    0.7469215159061583    H2730
    0.4455885322502541    0.5144422732242756    0.0802548492394917    H2731
    0.4455885322502541    0.5144422732242756    0.4135881825728250    H2732
    0.4455885322502541    0.5144422732242756    0.7469215159061583    H2733
    0.4455885322502541    0.8477756065576090    0.0802548492394917    H2734
    0.4455885322502541    0.8477756065576090    0.4135881825728250    H2735
    0.4455885322502541    0.8477756065576090    0.7469215159061583    H2736
    0.7789218655835874    0.1811089398909423    0.0802548492394917    H2737
    0.7789218655835874    0.1811089398909423    0.4135881825728250    H2738
    0.7789218655835874    0.1811089398909423    0.7469215159061583    H2739
    0.7789218655835874    0.5144422732242756    0.0802548492394917    H2740
    0.7789218655835874    0.5144422732242756    0.4135881825728250    H2741
    0.7789218655835874    0.5144422732242756    0.7469215159061583    H2742
    0.7789218655835874    0.8477756065576090    0.0802548492394917    H2743
    0.7789218655835874    0.8477756065576090    0.4135881825728250    H2744
    0.7789218655835874    0.8477756065576090    0.7469215159061583    H2745
    0.1122551989169207    0.1811089398909423    0.0802548492394917    H2746
    0.1122551989169207    0.1811089398909423    0.4135881825728250    H2747
    0.1122551989169207    0.1811089398909423    0.7469215159061583    H2748
    0.1122551989169207    0.5144422732242756    0.0802548492394917    H2749
    0.1122551989169207    0.5144422732242756    0.4135881825728250    H2750
    0.1122551989169207    0.5144422732242756    0.7469215159061583    H2751
    0.1122551989169207    0.8477756065576090    0.0802548492394917    H2752
    0.1122551989169207    0.8477756065576090    0.4135881825728250    H2753
    0.1122551989169207    0.8477756065576090    0.7469215159061583    H2754
    0.3776311972391018    0.1848525847592697    0.1565212556010549    H2755
    0.3776311972391018    0.1848525847592697    0.4898545889343882    H2756
    0.3776311972391018    0.1848525847592697    0.8231879222677215    H2757
    0.3776311972391018    0.5181859180926031    0.1565212556010549    H2758
    0.3776311972391018    0.5181859180926031    0.4898545889343882    H2759
    0.3776311972391018    0.5181859180926031    0.8231879222677215    H2760
    0.3776311972391018    0.8515192514259364    0.1565212556010549    H2761
    0.3776311972391018    0.8515192514259364    0.4898545889343882    H2762
    0.3776311972391018    0.8515192514259364    0.8231879222677215    H2763
    0.7109645305724350    0.1848525847592697    0.1565212556010549    H2764
    0.7109645305724350    0.1848525847592697    0.4898545889343882    H2765
    0.7109645305724350    0.1848525847592697    0.8231879222677215    H2766
    0.7109645305724350    0.5181859180926031    0.1565212556010549    H2767
    0.7109645305724350    0.5181859180926031    0.4898545889343882    H2768
    0.7109645305724350    0.5181859180926031    0.8231879222677215    H2769
    0.7109645305724350    0.8515192514259364    0.1565212556010549    H2770
    0.7109645305724350    0.8515192514259364    0.4898545889343882    H2771
    0.7109645305724350    0.8515192514259364    0.8231879222677215    H2772
    0.0442978639057684    0.1848525847592697    0.1565212556010549    H2773
    0.0442978639057684    0.1848525847592697    0.4898545889343882    H2774
    0.0442978639057684    0.1848525847592697    0.8231879222677215    H2775
    0.0442978639057684    0.5181859180926031    0.1565212556010549    H2776
    0.0442978639057684    0.5181859180926031    0.4898545889343882    H2777
    0.0442978639057684    0.5181859180926031    0.8231879222677215    H2778
    0.0442978639057684    0.8515192514259364    0.1565212556010549    H2779
    0.0442978639057684    0.8515192514259364    0.4898545889343882    H2780
    0.0442978639057684    0.8515192514259364    0.8231879222677215    H2781
    0.1226895295230137    0.4462587126088760    0.2281961812240135    H2782
    0.1226895295230137    0.4462587126088760    0.5615295145573469    H2783
    0.1226895295230137    0.4462587126088760    0.8948628478906803    H2784
    0.1226895295230137    0.7795920459422092    0.2281961812240135    H2785
    0.1226895295230137    0.7795920459422092    0.5615295145573469    H2786
    0.1226895295230137    0.7795920459422092    0.8948628478906803    H2787
    0.1226895295230137    0.1129253792755425    0.2281961812240135    H2788
    0.1226895295230137    0.1129253792755425    0.5615295145573469    H2789
    0.1226895295230137    0.1129253792755425    0.8948628478906803    H2790
    0.4560228628563471    0.4462587126088760    0.2281961812240135    H2791
    0.4560228628563471    0.4462587126088760    0.5615295145573469    H2792
    0.4560228628563471    0.4462587126088760    0.8948628478906803    H2793
    0.4560228628563471    0.7795920459422092    0.2281961812240135    H2794
    0.4560228628563471    0.7795920459422092    0.5615295145573469    H2795
    0.4560228628563471    0.7795920459422092    0.8948628478906803    H2796
    0.4560228628563471    0.1129253792755425    0.2281961812240135    H2797
    0.4560228628563471    0.1129253792755425    0.5615295145573469    H2798
    0.4560228628563471    0.1129253792755425    0.8948628478906803    H2799
    0.7893561961896804    0.4462587126088760    0.2281961812240135    H2800
    0.7893561961896804    0.4462587126088760    0.5615295145573469    H2801
    0.7893561961896804    0.4462587126088760    0.8948628478906803    H2802
    0.7893561961896804    0.7795920459422092    0.2281961812240135    H2803
    0.7893561961896804    0.7795920459422092    0.5615295145573469    H2804
    0.7893561961896804    0.7795920459422092    0.8948628478906803    H2805
    0.7893561961896804    0.1129253792755425    0.2281961812240135    H2806
    0.7893561961896804    0.1129253792755425    0.5615295145573469    H2807
    0.7893561961896804    0.1129253792755425    0.8948628478906803    H2808
    0.1542060121201800    0.3155200473549131    0.8829150076922105    H2809
    0.1542060121201800    0.3155200473549131    0.2162483410255439    H2810
    0.1542060121201800    0.3155200473549131    0.5495816743588773    H2811
    0.1542060121201800    0.6488533806882464    0.8829150076922105    H2812
    0.1542060121201800    0.6488533806882464    0.2162483410255439    H2813
    0.1542060121201800    0.6488533806882464    0.5495816743588773    H2814
    0.1542060121201800    0.9821867140215798    0.8829150076922105    H2815
    0.1542060121201800    0.9821867140215798    0.2162483410255439    H2816
    0.1542060121201800    0.9821867140215798    0.5495816743588773    H2817
    0.4875393454535133    0.3155200473549131    0.8829150076922105    H2818
    0.4875393454535133    0.3155200473549131    0.2162483410255439    H2819
    0.4875393454535133    0.3155200473549131    0.5495816743588773    H2820
    0.4875393454535133    0.6488533806882464    0.8829150076922105    H2821
    0.4875393454535133    0.6488533806882464    0.2162483410255439    H2822
    0.4875393454535133    0.6488533806882464    0.5495816743588773    H2823
    0.4875393454535133    0.9821867140215798    0.8829150076922105    H2824
    0.4875393454535133    0.9821867140215798    0.2162483410255439    H2825
    0.4875393454535133    0.9821867140215798    0.5495816743588773    H2826
    0.8208726787868466    0.3155200473549131    0.8829150076922105    H2827
    0.8208726787868466    0.3155200473549131    0.2162483410255439    H2828
    0.8208726787868466    0.3155200473549131    0.5495816743588773    H2829
    0.8208726787868466    0.6488533806882464    0.8829150076922105    H2830
    0.8208726787868466    0.6488533806882464    0.2162483410255439    H2831
    0.8208726787868466    0.6488533806882464    0.5495816743588773    H2832
    0.8208726787868466    0.9821867140215798    0.8829150076922105    H2833
    0.8208726787868466    0.9821867140215798    0.2162483410255439    H2834
    0.8208726787868466    0.9821867140215798    0.5495816743588773    H2835
    0.2199769471244210    0.0818002550660317    0.4620932857912229    H2836
    0.2199769471244210    0.0818002550660317    0.7954266191245563    H2837
    0.2199769471244210    0.0818002550660317    0.1287599524578895    H2838
    0.2199769471244210    0.4151335883993650    0.4620932857912229    H2839
    0.2199769471244210    0.4151335883993650    0.7954266191245563    H2840
    0.2199769471244210    0.4151335883993650    0.1287599524578895    H2841
    0.2199769471244210    0.7484669217326984    0.4620932857912229    H2842
    0.2199769471244210    0.7484669217326984    0.7954266191245563    H2843
    0.2199769471244210    0.7484669217326984    0.1287599524578895    H2844
    0.5533102804577542    0.0818002550660317    0.4620932857912229    H2845
    0.5533102804577542    0.0818002550660317    0.7954266191245563    H2846
    0.5533102804577542    0.0818002550660317    0.1287599524578895    H2847
    0.5533102804577542    0.4151335883993650    0.4620932857912229    H2848
    0.5533102804577542    0.4151335883993650    0.7954266191245563    H2849
    0.5533102804577542    0.4151335883993650    0.1287599524578895    H2850
    0.5533102804577542    0.7484669217326984    0.4620932857912229    H2851
    0.5533102804577542    0.7484669217326984    0.7954266191245563    H2852
    0.5533102804577542    0.7484669217326984    0.1287599524578895    H2853
    0.8866436137910875    0.0818002550660317    0.4620932857912229    H2854
    0.8866436137910875    0.0818002550660317    0.7954266191245563    H2855
    0.8866436137910875    0.0818002550660317    0.1287599524578895    H2856
    0.8866436137910875    0.4151335883993650    0.4620932857912229    H2857
    0.8866436137910875    0.4151335883993650    0.7954266191245563    H2858
    0.8866436137910875    0.4151335883993650    0.1287599524578895    H2859
    0.8866436137910875    0.7484669217326984    0.4620932857912229    H2860
    0.8866436137910875    0.7484669217326984    0.7954266191245563    H2861
    0.8866436137910875    0.7484669217326984    0.1287599524578895    H2862
    0.2783625355579930    0.1495220024806194    0.4356111230010478    H2863
    0.2783625355579930    0.1495220024806194    0.7689444563343811    H2864
    0.2783625355579930    0.1495220024806194    0.1022777896677144    H2865
    0.2783625355579930    0.4828553358139527    0.4356111230010478    H2866
    0.2783625355579930    0.4828553358139527    0.7689444563343811    H2867
    0.2783625355579930    0.4828553358139527    0.1022777896677144    H2868
    0.2783625355579930    0.8161886691472860    0.4356111230010478    H2869
    0.2783625355579930    0.8161886691472860    0.7689444563343811    H2870
    0.2783625355579930    0.8161886691472860    0.1022777896677144    H2871
    0.6116958688913263    0.1495220024806194    0.4356111230010478    H2872
    0.6116958688913263    0.1495220024806194    0.7689444563343811    H2873
    0.6116958688913263    0.1495220024806194    0.1022777896677144    H2874
    0.6116958688913263    0.4828553358139527    0.4356111230010478    H2875
    0.6116958688913263    0.4828553358139527    0.7689444563343811    H2876
    0.6116958688913263    0.4828553358139527    0.1022777896677144    H2877
    0.6116958688913263    0.8161886691472860    0.4356111230010478    H2878
    0.6116958688913263    0.8161886691472860    0.7689444563343811    H2879
    0.6116958688913263    0.8161886691472860    0.1022777896677144    H2880
    0.9450292022246596    0.1495220024806194    0.4356111230010478    H2881
    0.9450292022246596    0.1495220024806194    0.7689444563343811    H2882
    0.9450292022246596    0.1495220024806194    0.1022777896677144    H2883
    0.9450292022246596    0.4828553358139527    0.4356111230010478    H2884
    0.9450292022246596    0.4828553358139527    0.7689444563343811    H2885
    0.9450292022246596    0.4828553358139527    0.1022777896677144    H2886
    0.9450292022246596    0.8161886691472860    0.4356111230010478    H2887
    0.9450292022246596    0.8161886691472860    0.7689444563343811    H2888
    0.9450292022246596    0.8161886691472860    0.1022777896677144    H2889
    0.1463831298691670    0.4144512120662969    0.2348901137878965    H2890
    0.1463831298691670    0.4144512120662969    0.5682234471212299    H2891
    0.1463831298691670    0.4144512120662969    0.9015567804545632    H2892
    0.1463831298691670    0.7477845453996302    0.2348901137878965    H2893
    0.1463831298691670    0.7477845453996302    0.5682234471212299    H2894
    0.1463831298691670    0.7477845453996302    0.9015567804545632    H2895
    0.1463831298691670    0.0811178787329635    0.2348901137878965    H2896
    0.1463831298691670    0.0811178787329635    0.5682234471212299    H2897
    0.1463831298691670    0.0811178787329635    0.9015567804545632    H2898
    0.4797164632025004    0.4144512120662969    0.2348901137878965    H2899
    0.4797164632025004    0.4144512120662969    0.5682234471212299    H2900
    0.4797164632025004    0.4144512120662969    0.9015567804545632    H2901
    0.4797164632025004    0.7477845453996302    0.2348901137878965    H2902
    0.4797164632025004    0.7477845453996302    0.5682234471212299    H2903
    0.4797164632025004    0.7477845453996302    0.9015567804545632    H2904
    0.4797164632025004    0.0811178787329635    0.2348901137878965    H2905
    0.4797164632025004    0.0811178787329635    0.5682234471212299    H2906
    0.4797164632025004    0.0811178787329635    0.9015567804545632    H2907
    0.8130497965358336    0.4144512120662969    0.2348901137878965    H2908
    0.8130497965358336    0.4144512120662969    0.5682234471212299    H2909
    0.8130497965358336    0.4144512120662969    0.9015567804545632    H2910
    0.8130497965358336    0.7477845453996302    0.2348901137878965    H2911
    0.8130497965358336    0.7477845453996302    0.5682234471212299    H2912
    0.8130497965358336    0.7477845453996302    0.9015567804545632    H2913
    0.8130497965358336    0.0811178787329635    0.2348901137878965    H2914
    0.8130497965358336    0.0811178787329635    0.5682234471212299    H2915
    0.8130497965358336    0.0811178787329635    0.9015567804545632    H2916
    0.3011425084698737    0.2547237435955001    0.5145296148383132    H2917
    0.3011425084698737    0.2547237435955001    0.8478629481716464    H2918
    0.3011425084698737    0.2547237435955001    0.1811962815049797    H2919
    0.3011425084698737    0.5880570769288336    0.5145296148383132    H2920
    0.3011425084698737    0.5880570769288336    0.8478629481716464    H2921
    0.3011425084698737    0.5880570769288336    0.1811962815049797    H2922
    0.3011425084698737    0.9213904102621668    0.5145296148383132    H2923
    0.3011425084698737    0.9213904102621668    0.8478629481716464    H2924
    0.3011425084698737    0.9213904102621668    0.1811962815049797    H2925
    0.6344758418032070    0.2547237435955001    0.5145296148383132    H2926
    0.6344758418032070    0.2547237435955001    0.8478629481716464    H2927
    0.6344758418032070    0.2547237435955001    0.1811962815049797    H2928
    0.6344758418032070    0.5880570769288336    0.5145296148383132    H2929
    0.6344758418032070    0.5880570769288336    0.8478629481716464    H2930
    0.6344758418032070    0.5880570769288336    0.1811962815049797    H2931
    0.6344758418032070    0.9213904102621668    0.5145296148383132    H2932
    0.6344758418032070    0.9213904102621668    0.8478629481716464    H2933
    0.6344758418032070    0.9213904102621668    0.1811962815049797    H2934
    0.9678091751365403    0.2547237435955001    0.5145296148383132    H2935
    0.9678091751365403    0.2547237435955001    0.8478629481716464    H2936
    0.9678091751365403    0.2547237435955001    0.1811962815049797    H2937
    0.9678091751365403    0.5880570769288336    0.5145296148383132    H2938
    0.9678091751365403    0.5880570769288336    0.8478629481716464    H2939
    0.9678091751365403    0.5880570769288336    0.1811962815049797    H2940
    0.9678091751365403    0.9213904102621668    0.5145296148383132    H2941
    0.9678091751365403    0.9213904102621668    0.8478629481716464    H2942
    0.9678091751365403    0.9213904102621668    0.1811962815049797    H2943
    0.2032435723026966    0.0610289195099346    0.4296409965748677    H2944
    0.2032435723026966    0.0610289195099346    0.7629743299082010    H2945
    0.2032435723026966    0.0610289195099346    0.0963076632415343    H2946
    0.2032435723026966    0.3943622528432679    0.4296409965748677    H2947
    0.2032435723026966    0.3943622528432679    0.7629743299082010    H2948
    0.2032435723026966    0.3943622528432679    0.0963076632415343    H2949
    0.2032435723026966    0.7276955861766012    0.4296409965748677    H2950
    0.2032435723026966    0.7276955861766012    0.7629743299082010    H2951
    0.2032435723026966    0.7276955861766012    0.0963076632415343    H2952
    0.5365769056360299    0.0610289195099346    0.4296409965748677    H2953
    0.5365769056360299    0.0610289195099346    0.7629743299082010    H2954
    0.5365769056360299    0.0610289195099346    0.0963076632415343    H2955
    0.5365769056360299    0.3943622528432679    0.4296409965748677    H2956
    0.5365769056360299    0.3943622528432679    0.7629743299082010    H2957
    0.5365769056360299    0.3943622528432679    0.0963076632415343    H2958
    0.5365769056360299    0.7276955861766012    0.4296409965748677    H2959
    0.5365769056360299    0.7276955861766012    0.7629743299082010    H2960
    0.5365769056360299    0.7276955861766012    0.0963076632415343    H2961
    0.8699102389693633    0.0610289195099346    0.4296409965748677    H2962
    0.8699102389693633    0.0610289195099346    0.7629743299082010    H2963
    0.8699102389693633    0.0610289195099346    0.0963076632415343    H2964
    0.8699102389693633    0.3943622528432679    0.4296409965748677    H2965
    0.8699102389693633    0.3943622528432679    0.7629743299082010    H2966
    0.8699102389693633    0.3943622528432679    0.0963076632415343    H2967
    0.8699102389693633    0.7276955861766012    0.4296409965748677    H2968
    0.8699102389693633    0.7276955861766012    0.7629743299082010    H2969
    0.8699102389693633    0.7276955861766012    0.0963076632415343    H2970
    0.3031538297885292    0.0859017877934840    0.3318550145441601    H2971
    0.3031538297885292    0.0859017877934840    0.6651883478774935    H2972
    0.3031538297885292    0.0859017877934840    0.9985216812108267    H2973
    0.3031538297885292    0.4192351211268175    0.3318550145441601    H2974
    0.3031538297885292    0.4192351211268175    0.6651883478774935    H2975
    0.3031538297885292    0.4192351211268175    0.9985216812108267    H2976
    0.3031538297885292    0.7525684544601507    0.3318550145441601    H2977
    0.3031538297885292    0.7525684544601507    0.6651883478774935    H2978
    0.3031538297885292    0.7525684544601507    0.9985216812108267    H2979
    0.6364871631218625    0.0859017877934840    0.3318550145441601    H2980
    0.6364871631218625    0.0859017877934840    0.6651883478774935    H2981
    0.6364871631218625    0.0859017877934840    0.9985216812108267    H2982
    0.6364871631218625    0.4192351211268175    0.3318550145441601    H2983
    0.6364871631218625    0.4192351211268175    0.6651883478774935    H2984
    0.6364871631218625    0.4192351211268175    0.9985216812108267    H2985
    0.6364871631218625    0.7525684544601507    0.3318550145441601    H2986
    0.6364871631218625    0.7525684544601507    0.6651883478774935    H2987
    0.6364871631218625    0.7525684544601507    0.9985216812108267    H2988
    0.9698204964551957    0.0859017877934840    0.3318550145441601    H2989
    0.9698204964551957    0.0859017877934840    0.6651883478774935    H2990
    0.9698204964551957    0.0859017877934840    0.9985216812108267    H2991
    0.9698204964551957    0.4192351211268175    0.3318550145441601    H2992
    0.9698204964551957    0.4192351211268175    0.6651883478774935    H2993
    0.9698204964551957    0.4192351211268175    0.9985216812108267    H2994
    0.9698204964551957    0.7525684544601507    0.3318550145441601    H2995
    0.9698204964551957    0.7525684544601507    0.6651883478774935    H2996
    0.9698204964551957    0.7525684544601507    0.9985216812108267    H2997
    0.3335828827786643    0.2628815607916142    0.3849125208956037    H2998
    0.3335828827786643    0.2628815607916142    0.7182458542289371    H2999
    0.3335828827786643    0.2628815607916142    0.0515791875622703    H3000
    0.3335828827786643    0.5962148941249475    0.3849125208956037    H3001
    0.3335828827786643    0.5962148941249475    0.7182458542289371    H3002
    0.3335828827786643    0.5962148941249475    0.0515791875622703    H3003
    0.3335828827786643    0.9295482274582808    0.3849125208956037    H3004
    0.3335828827786643    0.9295482274582808    0.7182458542289371    H3005
    0.3335828827786643    0.9295482274582808    0.0515791875622703    H3006
    0.6669162161119977    0.2628815607916142    0.3849125208956037    H3007
    0.6669162161119977    0.2628815607916142    0.7182458542289371    H3008
    0.6669162161119977    0.2628815607916142    0.0515791875622703    H3009
    0.6669162161119977    0.5962148941249475    0.3849125208956037    H3010
    0.6669162161119977    0.5962148941249475    0.7182458542289371    H3011
    0.6669162161119977    0.5962148941249475    0.0515791875622703    H3012
    0.6669162161119977    0.9295482274582808    0.3849125208956037    H3013
    0.6669162161119977    0.9295482274582808    0.7182458542289371    H3014
    0.6669162161119977    0.9295482274582808    0.0515791875622703    H3015
    0.0002495494453310    0.2628815607916142    0.3849125208956037    H3016
    0.0002495494453310    0.2628815607916142    0.7182458542289371    H3017
    0.0002495494453310    0.2628815607916142    0.0515791875622703    H3018
    0.0002495494453310    0.5962148941249475    0.3849125208956037    H3019
    0.0002495494453310    0.5962148941249475    0.7182458542289371    H3020
    0.0002495494453310    0.5962148941249475    0.0515791875622703    H3021
    0.0002495494453310    0.9295482274582808    0.3849125208956037    H3022
    0.0002495494453310    0.9295482274582808    0.7182458542289371    H3023
    0.0002495494453310    0.9295482274582808    0.0515791875622703    H3024
    0.3909671034062416    0.2184379388223687    0.4012900501257297    H3025
    0.3909671034062416    0.2184379388223687    0.7346233834590630    H3026
    0.3909671034062416    0.2184379388223687    0.0679567167923963    H3027
    0.3909671034062416    0.5517712721557021    0.4012900501257297    H3028
    0.3909671034062416    0.5517712721557021    0.7346233834590630    H3029
    0.3909671034062416    0.5517712721557021    0.0679567167923963    H3030
    0.3909671034062416    0.8851046054890354    0.4012900501257297    H3031
    0.3909671034062416    0.8851046054890354    0.7346233834590630    H3032
    0.3909671034062416    0.8851046054890354    0.0679567167923963    H3033
    0.7243004367395749    0.2184379388223687    0.4012900501257297    H3034
    0.7243004367395749    0.2184379388223687    0.7346233834590630    H3035
    0.7243004367395749    0.2184379388223687    0.0679567167923963    H3036
    0.7243004367395749    0.5517712721557021    0.4012900501257297    H3037
    0.7243004367395749    0.5517712721557021    0.7346233834590630    H3038
    0.7243004367395749    0.5517712721557021    0.0679567167923963    H3039
    0.7243004367395749    0.8851046054890354    0.4012900501257297    H3040
    0.7243004367395749    0.8851046054890354    0.7346233834590630    H3041
    0.7243004367395749    0.8851046054890354    0.0679567167923963    H3042
    0.0576337700729082    0.2184379388223687    0.4012900501257297    H3043
    0.0576337700729082    0.2184379388223687    0.7346233834590630    H3044
    0.0576337700729082    0.2184379388223687    0.0679567167923963    H3045
    0.0576337700729082    0.5517712721557021    0.4012900501257297    H3046
    0.0576337700729082    0.5517712721557021    0.7346233834590630    H3047
    0.0576337700729082    0.5517712721557021    0.0679567167923963    H3048
    0.0576337700729082    0.8851046054890354    0.4012900501257297    H3049
    0.0576337700729082    0.8851046054890354    0.7346233834590630    H3050
    0.0576337700729082    0.8851046054890354    0.0679567167923963    H3051
    0.2919789511904763    0.9964259857718003    0.3462974164237609    H3052
    0.2919789511904763    0.9964259857718003    0.6796307497570941    H3053
    0.2919789511904763    0.9964259857718003    0.0129640830904275    H3054
    0.2919789511904763    0.3297593191051336    0.3462974164237609    H3055
    0.2919789511904763    0.3297593191051336    0.6796307497570941    H3056
    0.2919789511904763    0.3297593191051336    0.0129640830904275    H3057
    0.2919789511904763    0.6630926524384670    0.3462974164237609    H3058
    0.2919789511904763    0.6630926524384670    0.6796307497570941    H3059
    0.2919789511904763    0.6630926524384670    0.0129640830904275    H3060
    0.6253122845238097    0.9964259857718003    0.3462974164237609    H3061
    0.6253122845238097    0.9964259857718003    0.6796307497570941    H3062
    0.6253122845238097    0.9964259857718003    0.0129640830904275    H3063
    0.6253122845238097    0.3297593191051336    0.3462974164237609    H3064
    0.6253122845238097    0.3297593191051336    0.6796307497570941    H3065
    0.6253122845238097    0.3297593191051336    0.0129640830904275    H3066
    0.6253122845238097    0.6630926524384670    0.3462974164237609    H3067
    0.6253122845238097    0.6630926524384670    0.6796307497570941    H3068
    0.6253122845238097    0.6630926524384670    0.0129640830904275    H3069
    0.9586456178571430    0.9964259857718003    0.3462974164237609    H3070
    0.9586456178571430    0.9964259857718003    0.6796307497570941    H3071
    0.9586456178571430    0.9964259857718003    0.0129640830904275    H3072
    0.9586456178571430    0.3297593191051336    0.3462974164237609    H3073
    0.9586456178571430    0.3297593191051336    0.6796307497570941    H3074
    0.9586456178571430    0.3297593191051336    0.0129640830904275    H3075
    0.9586456178571430    0.6630926524384670    0.3462974164237609    H3076
    0.9586456178571430    0.6630926524384670    0.6796307497570941    H3077
    0.9586456178571430    0.6630926524384670    0.0129640830904275    H3078
    0.3125392595019132    0.1337595350304037    0.2796010933292241    H3079
    0.3125392595019132    0.1337595350304037    0.6129344266625574    H3080
    0.3125392595019132    0.1337595350304037    0.9462677599958907    H3081
    0.3125392595019132    0.4670928683637370    0.2796010933292241    H3082
    0.3125392595019132    0.4670928683637370    0.6129344266625574    H3083
    0.3125392595019132    0.4670928683637370    0.9462677599958907    H3084
    0.3125392595019132    0.8004262016970703    0.2796010933292241    H3085
    0.3125392595019132    0.8004262016970703    0.6129344266625574    H3086
    0.3125392595019132    0.8004262016970703    0.9462677599958907    H3087
    0.6458725928352465    0.1337595350304037    0.2796010933292241    H3088
    0.6458725928352465    0.1337595350304037    0.6129344266625574    H3089
    0.6458725928352465    0.1337595350304037    0.9462677599958907    H3090
    0.6458725928352465    0.4670928683637370    0.2796010933292241    H3091
    0.6458725928352465    0.4670928683637370    0.6129344266625574    H3092
    0.6458725928352465    0.4670928683637370    0.9462677599958907    H3093
    0.6458725928352465    0.8004262016970703    0.2796010933292241    H3094
    0.6458725928352465    0.8004262016970703    0.6129344266625574    H3095
    0.6458725928352465    0.8004262016970703    0.9462677599958907    H3096
    0.9792059261685798    0.1337595350304037    0.2796010933292241    H3097
    0.9792059261685798    0.1337595350304037    0.6129344266625574    H3098
    0.9792059261685798    0.1337595350304037    0.9462677599958907    H3099
    0.9792059261685798    0.4670928683637370    0.2796010933292241    H3100
    0.9792059261685798    0.4670928683637370    0.6129344266625574    H3101
    0.9792059261685798    0.4670928683637370    0.9462677599958907    H3102
    0.9792059261685798    0.8004262016970703    0.2796010933292241    H3103
    0.9792059261685798    0.8004262016970703    0.6129344266625574    H3104
    0.9792059261685798    0.8004262016970703    0.9462677599958907    H3105
    0.3859350035425180    0.3451497468735767    0.9739878150815973    H3106
    0.3859350035425180    0.3451497468735767    0.3073211484149305    H3107
    0.3859350035425180    0.3451497468735767    0.6406544817482639    H3108
    0.3859350035425180    0.6784830802069099    0.9739878150815973    H3109
    0.3859350035425180    0.6784830802069099    0.3073211484149305    H3110
    0.3859350035425180    0.6784830802069099    0.6406544817482639    H3111
    0.3859350035425180    0.0118164135402433    0.9739878150815973    H3112
    0.3859350035425180    0.0118164135402433    0.3073211484149305    H3113
    0.3859350035425180    0.0118164135402433    0.6406544817482639    H3114
    0.7192683368758512    0.3451497468735767    0.9739878150815973    H3115
    0.7192683368758512    0.3451497468735767    0.3073211484149305    H3116
    0.7192683368758512    0.3451497468735767    0.6406544817482639    H3117
    0.7192683368758512    0.6784830802069099    0.9739878150815973    H3118
    0.7192683368758512    0.6784830802069099    0.3073211484149305    H3119
    0.7192683368758512    0.6784830802069099    0.6406544817482639    H3120
    0.7192683368758512    0.0118164135402433    0.9739878150815973    H3121
    0.7192683368758512    0.0118164135402433    0.3073211484149305    H3122
    0.7192683368758512    0.0118164135402433    0.6406544817482639    H3123
    0.0526016702091846    0.3451497468735767    0.9739878150815973    H3124
    0.0526016702091846    0.3451497468735767    0.3073211484149305    H3125
    0.0526016702091846    0.3451497468735767    0.6406544817482639    H3126
    0.0526016702091846    0.6784830802069099    0.9739878150815973    H3127
    0.0526016702091846    0.6784830802069099    0.3073211484149305    H3128
    0.0526016702091846    0.6784830802069099    0.6406544817482639    H3129
    0.0526016702091846    0.0118164135402433    0.9739878150815973    H3130
    0.0526016702091846    0.0118164135402433    0.3073211484149305    H3131
    0.0526016702091846    0.0118164135402433    0.6406544817482639    H3132
    0.4025221436407497    0.0400254861592304    0.1947843398052628    H3133
    0.4025221436407497    0.0400254861592304    0.5281176731385960    H3134
    0.4025221436407497    0.0400254861592304    0.8614510064719294    H3135
    0.4025221436407497    0.3733588194925637    0.1947843398052628    H3136
    0.4025221436407497    0.3733588194925637    0.5281176731385960    H3137
    0.4025221436407497    0.3733588194925637    0.8614510064719294    H3138
    0.4025221436407497    0.7066921528258970    0.1947843398052628    H3139
    0.4025221436407497    0.7066921528258970    0.5281176731385960    H3140
    0.4025221436407497    0.7066921528258970    0.8614510064719294    H3141
    0.7358554769740830    0.0400254861592304    0.1947843398052628    H3142
    0.7358554769740830    0.0400254861592304    0.5281176731385960    H3143
    0.7358554769740830    0.0400254861592304    0.8614510064719294    H3144
    0.7358554769740830    0.3733588194925637    0.1947843398052628    H3145
    0.7358554769740830    0.3733588194925637    0.5281176731385960    H3146
    0.7358554769740830    0.3733588194925637    0.8614510064719294    H3147
    0.7358554769740830    0.7066921528258970    0.1947843398052628    H3148
    0.7358554769740830    0.7066921528258970    0.5281176731385960    H3149
    0.7358554769740830    0.7066921528258970    0.8614510064719294    H3150
    0.0691888103074163    0.0400254861592304    0.1947843398052628    H3151
    0.0691888103074163    0.0400254861592304    0.5281176731385960    H3152
    0.0691888103074163    0.0400254861592304    0.8614510064719294    H3153
    0.0691888103074163    0.3733588194925637    0.1947843398052628    H3154
    0.0691888103074163    0.3733588194925637    0.5281176731385960    H3155
    0.0691888103074163    0.3733588194925637    0.8614510064719294    H3156
    0.0691888103074163    0.7066921528258970    0.1947843398052628    H3157
    0.0691888103074163    0.7066921528258970    0.5281176731385960    H3158
    0.0691888103074163    0.7066921528258970    0.8614510064719294    H3159
    0.4055612955844772    0.0920708457710723    0.1167791908450002    H3160
    0.4055612955844772    0.0920708457710723    0.4501125241783335    H3161
    0.4055612955844772    0.0920708457710723    0.7834458575116667    H3162
    0.4055612955844772    0.4254041791044056    0.1167791908450002    H3163
    0.4055612955844772    0.4254041791044056    0.4501125241783335    H3164
    0.4055612955844772    0.4254041791044056    0.7834458575116667    H3165
    0.4055612955844772    0.7587375124377389    0.1167791908450002    H3166
    0.4055612955844772    0.7587375124377389    0.4501125241783335    H3167
    0.4055612955844772    0.7587375124377389    0.7834458575116667    H3168
    0.7388946289178104    0.0920708457710723    0.1167791908450002    H3169
    0.7388946289178104    0.0920708457710723    0.4501125241783335    H3170
    0.7388946289178104    0.0920708457710723    0.7834458575116667    H3171
    0.7388946289178104    0.4254041791044056    0.1167791908450002    H3172
    0.7388946289178104    0.4254041791044056    0.4501125241783335    H3173
    0.7388946289178104    0.4254041791044056    0.7834458575116667    H3174
    0.7388946289178104    0.7587375124377389    0.1167791908450002    H3175
    0.7388946289178104    0.7587375124377389    0.4501125241783335    H3176
    0.7388946289178104    0.7587375124377389    0.7834458575116667    H3177
    0.0722279622511438    0.0920708457710723    0.1167791908450002    H3178
    0.0722279622511438    0.0920708457710723    0.4501125241783335    H3179
    0.0722279622511438    0.0920708457710723    0.7834458575116667    H3180
    0.0722279622511438    0.4254041791044056    0.1167791908450002    H3181
    0.0722279622511438    0.4254041791044056    0.4501125241783335    H3182
    0.0722279622511438    0.4254041791044056    0.7834458575116667    H3183
    0.0722279622511438    0.7587375124377389    0.1167791908450002    H3184
    0.0722279622511438    0.7587375124377389    0.4501125241783335    H3185
    0.0722279622511438    0.7587375124377389    0.7834458575116667    H3186
    0.3811496636222110    0.0061820310689076    0.1824523147357968    H3187
    0.3811496636222110    0.0061820310689076    0.5157856480691301    H3188
    0.3811496636222110    0.0061820310689076    0.8491189814024634    H3189
    0.3811496636222110    0.3395153644022408    0.1824523147357968    H3190
    0.3811496636222110    0.3395153644022408    0.5157856480691301    H3191
    0.3811496636222110    0.3395153644022408    0.8491189814024634    H3192
    0.3811496636222110    0.6728486977355742    0.1824523147357968    H3193
    0.3811496636222110    0.6728486977355742    0.5157856480691301    H3194
    0.3811496636222110    0.6728486977355742    0.8491189814024634    H3195
    0.7144829969555444    0.0061820310689076    0.1824523147357968    H3196
    0.7144829969555444    0.0061820310689076    0.5157856480691301    H3197
    0.7144829969555444    0.0061820310689076    0.8491189814024634    H3198
    0.7144829969555444    0.3395153644022408    0.1824523147357968    H3199
    0.7144829969555444    0.3395153644022408    0.5157856480691301    H3200
    0.7144829969555444    0.3395153644022408    0.8491189814024634    H3201
    0.7144829969555444    0.6728486977355742    0.1824523147357968    H3202
    0.7144829969555444    0.6728486977355742    0.5157856480691301    H3203
    0.7144829969555444    0.6728486977355742    0.8491189814024634    H3204
    0.0478163302888777    0.0061820310689076    0.1824523147357968    H3205
    0.0478163302888777    0.0061820310689076    0.5157856480691301    H3206
    0.0478163302888777    0.0061820310689076    0.8491189814024634    H3207
    0.0478163302888777    0.3395153644022408    0.1824523147357968    H3208
    0.0478163302888777    0.3395153644022408    0.5157856480691301    H3209
    0.0478163302888777    0.3395153644022408    0.8491189814024634    H3210
    0.0478163302888777    0.6728486977355742    0.1824523147357968    H3211
    0.0478163302888777    0.6728486977355742    0.5157856480691301    H3212
    0.0478163302888777    0.6728486977355742    0.8491189814024634    H3213
    0.4287586295261722    0.1098867695458398    0.3923321136909590    H3214
    0.4287586295261722    0.1098867695458398    0.7256654470242924    H3215
    0.4287586295261722    0.1098867695458398    0.0589987803576257    H3216
    0.4287586295261722    0.4432201028791731    0.3923321136909590    H3217
    0.4287586295261722    0.4432201028791731    0.7256654470242924    H3218
    0.4287586295261722    0.4432201028791731    0.0589987803576257    H3219
    0.4287586295261722    0.7765534362125064    0.3923321136909590    H3220
    0.4287586295261722    0.7765534362125064    0.7256654470242924    H3221
    0.4287586295261722    0.7765534362125064    0.0589987803576257    H3222
    0.7620919628595055    0.1098867695458398    0.3923321136909590    H3223
    0.7620919628595055    0.1098867695458398    0.7256654470242924    H3224
    0.7620919628595055    0.1098867695458398    0.0589987803576257    H3225
    0.7620919628595055    0.4432201028791731    0.3923321136909590    H3226
    0.7620919628595055    0.4432201028791731    0.7256654470242924    H3227
    0.7620919628595055    0.4432201028791731    0.0589987803576257    H3228
    0.7620919628595055    0.7765534362125064    0.3923321136909590    H3229
    0.7620919628595055    0.7765534362125064    0.7256654470242924    H3230
    0.7620919628595055    0.7765534362125064    0.0589987803576257    H3231
    0.0954252961928388    0.1098867695458398    0.3923321136909590    H3232
    0.0954252961928388    0.1098867695458398    0.7256654470242924    H3233
    0.0954252961928388    0.1098867695458398    0.0589987803576257    H3234
    0.0954252961928388    0.4432201028791731    0.3923321136909590    H3235
    0.0954252961928388    0.4432201028791731    0.7256654470242924    H3236
    0.0954252961928388    0.4432201028791731    0.0589987803576257    H3237
    0.0954252961928388    0.7765534362125064    0.3923321136909590    H3238
    0.0954252961928388    0.7765534362125064    0.7256654470242924    H3239
    0.0954252961928388    0.7765534362125064    0.0589987803576257    H3240
    0.4386932768361143    0.0640551978560655    0.1078140989255044    H3241
    0.4386932768361143    0.0640551978560655    0.4411474322588378    H3242
    0.4386932768361143    0.0640551978560655    0.7744807655921710    H3243
    0.4386932768361143    0.3973885311893990    0.1078140989255044    H3244
    0.4386932768361143    0.3973885311893990    0.4411474322588378    H3245
    0.4386932768361143    0.3973885311893990    0.7744807655921710    H3246
    0.4386932768361143    0.7307218645227322    0.1078140989255044    H3247
    0.4386932768361143    0.7307218645227322    0.4411474322588378    H3248
    0.4386932768361143    0.7307218645227322    0.7744807655921710    H3249
    0.7720266101694475    0.0640551978560655    0.1078140989255044    H3250
    0.7720266101694475    0.0640551978560655    0.4411474322588378    H3251
    0.7720266101694475    0.0640551978560655    0.7744807655921710    H3252
    0.7720266101694475    0.3973885311893990    0.1078140989255044    H3253
    0.7720266101694475    0.3973885311893990    0.4411474322588378    H3254
    0.7720266101694475    0.3973885311893990    0.7744807655921710    H3255
    0.7720266101694475    0.7307218645227322    0.1078140989255044    H3256
    0.7720266101694475    0.7307218645227322    0.4411474322588378    H3257
    0.7720266101694475    0.7307218645227322    0.7744807655921710    H3258
    0.1053599435027808    0.0640551978560655    0.1078140989255044    H3259
    0.1053599435027808    0.0640551978560655    0.4411474322588378    H3260
    0.1053599435027808    0.0640551978560655    0.7744807655921710    H3261
    0.1053599435027808    0.3973885311893990    0.1078140989255044    H3262
    0.1053599435027808    0.3973885311893990    0.4411474322588378    H3263
    0.1053599435027808    0.3973885311893990    0.7744807655921710    H3264
    0.1053599435027808    0.7307218645227322    0.1078140989255044    H3265
    0.1053599435027808    0.7307218645227322    0.4411474322588378    H3266
    0.1053599435027808    0.7307218645227322    0.7744807655921710    H3267
    0.3974479027575949    0.1357422035731715    0.1433125311097758    H3268
    0.3974479027575949    0.1357422035731715    0.4766458644431091    H3269
    0.3974479027575949    0.1357422035731715    0.8099791977764424    H3270
    0.3974479027575949    0.4690755369065047    0.1433125311097758    H3271
    0.3974479027575949    0.4690755369065047    0.4766458644431091    H3272
    0.3974479027575949    0.4690755369065047    0.8099791977764424    H3273
    0.3974479027575949    0.8024088702398381    0.1433125311097758    H3274
    0.3974479027575949    0.8024088702398381    0.4766458644431091    H3275
    0.3974479027575949    0.8024088702398381    0.8099791977764424    H3276
    0.7307812360909283    0.1357422035731715    0.1433125311097758    H3277
    0.7307812360909283    0.1357422035731715    0.4766458644431091    H3278
    0.7307812360909283    0.1357422035731715    0.8099791977764424    H3279
    0.7307812360909283    0.4690755369065047    0.1433125311097758    H3280
    0.7307812360909283    0.4690755369065047    0.4766458644431091    H3281
    0.7307812360909283    0.4690755369065047    0.8099791977764424    H3282
    0.7307812360909283    0.8024088702398381    0.1433125311097758    H3283
    0.7307812360909283    0.8024088702398381    0.4766458644431091    H3284
    0.7307812360909283    0.8024088702398381    0.8099791977764424    H3285
    0.0641145694242615    0.1357422035731715    0.1433125311097758    H3286
    0.0641145694242615    0.1357422035731715    0.4766458644431091    H3287
    0.0641145694242615    0.1357422035731715    0.8099791977764424    H3288
    0.0641145694242615    0.4690755369065047    0.1433125311097758    H3289
    0.0641145694242615    0.4690755369065047    0.4766458644431091    H3290
    0.0641145694242615    0.4690755369065047    0.8099791977764424    H3291
    0.0641145694242615    0.8024088702398381    0.1433125311097758    H3292
    0.0641145694242615    0.8024088702398381    0.4766458644431091    H3293
    0.0641145694242615    0.8024088702398381    0.8099791977764424    H3294
    0.3927390773286923    0.1534349942874988    0.3203082501807071    H3295
    0.3927390773286923    0.1534349942874988    0.6536415835140406    H3296
    0.3927390773286923    0.1534349942874988    0.9869749168473738    H3297
    0.3927390773286923    0.4867683276208323    0.3203082501807071    H3298
    0.3927390773286923    0.4867683276208323    0.6536415835140406    H3299
    0.3927390773286923    0.4867683276208323    0.9869749168473738    H3300
    0.3927390773286923    0.8201016609541656    0.3203082501807071    H3301
    0.3927390773286923    0.8201016609541656    0.6536415835140406    H3302
    0.3927390773286923    0.8201016609541656    0.9869749168473738    H3303
    0.7260724106620255    0.1534349942874988    0.3203082501807071    H3304
    0.7260724106620255    0.1534349942874988    0.6536415835140406    H3305
    0.7260724106620255    0.1534349942874988    0.9869749168473738    H3306
    0.7260724106620255    0.4867683276208323    0.3203082501807071    H3307
    0.7260724106620255    0.4867683276208323    0.6536415835140406    H3308
    0.7260724106620255    0.4867683276208323    0.9869749168473738    H3309
    0.7260724106620255    0.8201016609541656    0.3203082501807071    H3310
    0.7260724106620255    0.8201016609541656    0.6536415835140406    H3311
    0.7260724106620255    0.8201016609541656    0.9869749168473738    H3312
    0.0594057439953589    0.1534349942874988    0.3203082501807071    H3313
    0.0594057439953589    0.1534349942874988    0.6536415835140406    H3314
    0.0594057439953589    0.1534349942874988    0.9869749168473738    H3315
    0.0594057439953589    0.4867683276208323    0.3203082501807071    H3316
    0.0594057439953589    0.4867683276208323    0.6536415835140406    H3317
    0.0594057439953589    0.4867683276208323    0.9869749168473738    H3318
    0.0594057439953589    0.8201016609541656    0.3203082501807071    H3319
    0.0594057439953589    0.8201016609541656    0.6536415835140406    H3320
    0.0594057439953589    0.8201016609541656    0.9869749168473738    H3321
    0.2577014701069191    0.1909697387582066    0.1882511383768833    H3322
    0.2577014701069191    0.1909697387582066    0.5215844717102167    H3323
    0.2577014701069191    0.1909697387582066    0.8549178050435500    H3324
    0.2577014701069191    0.5243030720915399    0.1882511383768833    H3325
    0.2577014701069191    0.5243030720915399    0.5215844717102167    H3326
    0.2577014701069191    0.5243030720915399    0.8549178050435500    H3327
    0.2577014701069191    0.8576364054248733    0.1882511383768833    H3328
    0.2577014701069191    0.8576364054248733    0.5215844717102167    H3329
    0.2577014701069191    0.8576364054248733    0.8549178050435500    H3330
    0.5910348034402525    0.1909697387582066    0.1882511383768833    H3331
    0.5910348034402525    0.1909697387582066    0.5215844717102167    H3332
    0.5910348034402525    0.1909697387582066    0.8549178050435500    H3333
    0.5910348034402525    0.5243030720915399    0.1882511383768833    H3334
    0.5910348034402525    0.5243030720915399    0.5215844717102167    H3335
    0.5910348034402525    0.5243030720915399    0.8549178050435500    H3336
    0.5910348034402525    0.8576364054248733    0.1882511383768833    H3337
    0.5910348034402525    0.8576364054248733    0.5215844717102167    H3338
    0.5910348034402525    0.8576364054248733    0.8549178050435500    H3339
    0.9243681367735858    0.1909697387582066    0.1882511383768833    H3340
    0.9243681367735858    0.1909697387582066    0.5215844717102167    H3341
    0.9243681367735858    0.1909697387582066    0.8549178050435500    H3342
    0.9243681367735858    0.5243030720915399    0.1882511383768833    H3343
    0.9243681367735858    0.5243030720915399    0.5215844717102167    H3344
    0.9243681367735858    0.5243030720915399    0.8549178050435500    H3345
    0.9243681367735858    0.8576364054248733    0.1882511383768833    H3346
    0.9243681367735858    0.8576364054248733    0.5215844717102167    H3347
    0.9243681367735858    0.8576364054248733    0.8549178050435500    H3348
    0.4252195047325857    0.1012540294737535    0.2115670378689951    H3349
    0.4252195047325857    0.1012540294737535    0.5449003712023285    H3350
    0.4252195047325857    0.1012540294737535    0.8782337045356619    H3351
    0.4252195047325857    0.4345873628070869    0.2115670378689951    H3352
    0.4252195047325857    0.4345873628070869    0.5449003712023285    H3353
    0.4252195047325857    0.4345873628070869    0.8782337045356619    H3354
    0.4252195047325857    0.7679206961404201    0.2115670378689951    H3355
    0.4252195047325857    0.7679206961404201    0.5449003712023285    H3356
    0.4252195047325857    0.7679206961404201    0.8782337045356619    H3357
    0.7585528380659191    0.1012540294737535    0.2115670378689951    H3358
    0.7585528380659191    0.1012540294737535    0.5449003712023285    H3359
    0.7585528380659191    0.1012540294737535    0.8782337045356619    H3360
    0.7585528380659191    0.4345873628070869    0.2115670378689951    H3361
    0.7585528380659191    0.4345873628070869    0.5449003712023285    H3362
    0.7585528380659191    0.4345873628070869    0.8782337045356619    H3363
    0.7585528380659191    0.7679206961404201    0.2115670378689951    H3364
    0.7585528380659191    0.7679206961404201    0.5449003712023285    H3365
    0.7585528380659191    0.7679206961404201    0.8782337045356619    H3366
    0.0918861713992524    0.1012540294737535    0.2115670378689951    H3367
    0.0918861713992524    0.1012540294737535    0.5449003712023285    H3368
    0.0918861713992524    0.1012540294737535    0.8782337045356619    H3369
    0.0918861713992524    0.4345873628070869    0.2115670378689951    H3370
    0.0918861713992524    0.4345873628070869    0.5449003712023285    H3371
    0.0918861713992524    0.4345873628070869    0.8782337045356619    H3372
    0.0918861713992524    0.7679206961404201    0.2115670378689951    H3373
    0.0918861713992524    0.7679206961404201    0.5449003712023285    H3374
    0.0918861713992524    0.7679206961404201    0.8782337045356619    H3375
    0.6290851579997553    0.2169945704757270    0.0190267113653694    H3376
    0.6290851579997553    0.2169945704757270    0.3523600446987027    H3377
    0.6290851579997553    0.2169945704757270    0.6856933780320360    H3378
    0.6290851579997553    0.5503279038090603    0.0190267113653694    H3379
    0.6290851579997553    0.5503279038090603    0.3523600446987027    H3380
    0.6290851579997553    0.5503279038090603    0.6856933780320360    H3381
    0.6290851579997553    0.8836612371423936    0.0190267113653694    H3382
    0.6290851579997553    0.8836612371423936    0.3523600446987027    H3383
    0.6290851579997553    0.8836612371423936    0.6856933780320360    H3384
    0.9624184913330885    0.2169945704757270    0.0190267113653694    H3385
    0.9624184913330885    0.2169945704757270    0.3523600446987027    H3386
    0.9624184913330885    0.2169945704757270    0.6856933780320360    H3387
    0.9624184913330885    0.5503279038090603    0.0190267113653694    H3388
    0.9624184913330885    0.5503279038090603    0.3523600446987027    H3389
    0.9624184913330885    0.5503279038090603    0.6856933780320360    H3390
    0.9624184913330885    0.8836612371423936    0.0190267113653694    H3391
    0.9624184913330885    0.8836612371423936    0.3523600446987027    H3392
    0.9624184913330885    0.8836612371423936    0.6856933780320360    H3393
    0.2957518246664219    0.2169945704757270    0.0190267113653694    H3394
    0.2957518246664219    0.2169945704757270    0.3523600446987027    H3395
    0.2957518246664219    0.2169945704757270    0.6856933780320360    H3396
    0.2957518246664219    0.5503279038090603    0.0190267113653694    H3397
    0.2957518246664219    0.5503279038090603    0.3523600446987027    H3398
    0.2957518246664219    0.5503279038090603    0.6856933780320360    H3399
    0.2957518246664219    0.8836612371423936    0.0190267113653694    H3400
    0.2957518246664219    0.8836612371423936    0.3523600446987027    H3401
    0.2957518246664219    0.8836612371423936    0.6856933780320360    H3402
    0.2086411984658305    0.4703372538583885    0.2374811120072247    H3403
    0.2086411984658305    0.4703372538583885    0.5708144453405580    H3404
    0.2086411984658305    0.4703372538583885    0.9041477786738913    H3405
    0.2086411984658305    0.8036705871917218    0.2374811120072247    H3406
    0.2086411984658305    0.8036705871917218    0.5708144453405580    H3407
    0.2086411984658305    0.8036705871917218    0.9041477786738913    H3408
    0.2086411984658305    0.1370039205250551    0.2374811120072247    H3409
    0.2086411984658305    0.1370039205250551    0.5708144453405580    H3410
    0.2086411984658305    0.1370039205250551    0.9041477786738913    H3411
    0.5419745317991640    0.4703372538583885    0.2374811120072247    H3412
    0.5419745317991640    0.4703372538583885    0.5708144453405580    H3413
    0.5419745317991640    0.4703372538583885    0.9041477786738913    H3414
    0.5419745317991640    0.8036705871917218    0.2374811120072247    H3415
    0.5419745317991640    0.8036705871917218    0.5708144453405580    H3416
    0.5419745317991640    0.8036705871917218    0.9041477786738913    H3417
    0.5419745317991640    0.1370039205250551    0.2374811120072247    H3418
    0.5419745317991640    0.1370039205250551    0.5708144453405580    H3419
    0.5419745317991640    0.1370039205250551    0.9041477786738913    H3420
    0.8753078651324973    0.4703372538583885    0.2374811120072247    H3421
    0.8753078651324973    0.4703372538583885    0.5708144453405580    H3422
    0.8753078651324973    0.4703372538583885    0.9041477786738913    H3423
    0.8753078651324973    0.8036705871917218    0.2374811120072247    H3424
    0.8753078651324973    0.8036705871917218    0.5708144453405580    H3425
    0.8753078651324973    0.8036705871917218    0.9041477786738913    H3426
    0.8753078651324973    0.1370039205250551    0.2374811120072247    H3427
    0.8753078651324973    0.1370039205250551    0.5708144453405580    H3428
    0.8753078651324973    0.1370039205250551    0.9041477786738913    H3429
    0.3721480409045270    0.4301515941526307    0.3735670867386758    H3430
    0.3721480409045270    0.4301515941526307    0.7069004200720090    H3431
    0.3721480409045270    0.4301515941526307    0.0402337534053424    H3432
    0.3721480409045270    0.7634849274859641    0.3735670867386758    H3433
    0.3721480409045270    0.7634849274859641    0.7069004200720090    H3434
    0.3721480409045270    0.7634849274859641    0.0402337534053424    H3435
    0.3721480409045270    0.0968182608192973    0.3735670867386758    H3436
    0.3721480409045270    0.0968182608192973    0.7069004200720090    H3437
    0.3721480409045270    0.0968182608192973    0.0402337534053424    H3438
    0.7054813742378604    0.4301515941526307    0.3735670867386758    H3439
    0.7054813742378604    0.4301515941526307    0.7069004200720090    H3440
    0.7054813742378604    0.4301515941526307    0.0402337534053424    H3441
    0.7054813742378604    0.7634849274859641    0.3735670867386758    H3442
    0.7054813742378604    0.7634849274859641    0.7069004200720090    H3443
    0.7054813742378604    0.7634849274859641    0.0402337534053424    H3444
    0.7054813742378604    0.0968182608192973    0.3735670867386758    H3445
    0.7054813742378604    0.0968182608192973    0.7069004200720090    H3446
    0.7054813742378604    0.0968182608192973    0.0402337534053424    H3447
    0.0388147075711937    0.4301515941526307    0.3735670867386758    H3448
    0.0388147075711937    0.4301515941526307    0.7069004200720090    H3449
    0.0388147075711937    0.4301515941526307    0.0402337534053424    H3450
    0.0388147075711937    0.7634849274859641    0.3735670867386758    H3451
    0.0388147075711937    0.7634849274859641    0.7069004200720090    H3452
    0.0388147075711937    0.7634849274859641    0.0402337534053424    H3453
    0.0388147075711937    0.0968182608192973    0.3735670867386758    H3454
    0.0388147075711937    0.0968182608192973    0.7069004200720090    H3455
    0.0388147075711937    0.0968182608192973    0.0402337534053424    H3456
    0.6118433964001069    0.2530320875826322    0.0172159349803793    H3457
    0.6118433964001069    0.2530320875826322    0.3505492683137126    H3458
    0.6118433964001069    0.2530320875826322    0.6838826016470460    H3459
    0.6118433964001069    0.5863654209159654    0.0172159349803793    H3460
    0.6118433964001069    0.5863654209159654    0.3505492683137126    H3461
    0.6118433964001069    0.5863654209159654    0.6838826016470460    H3462
    0.6118433964001069    0.9196987542492988    0.0172159349803793    H3463
    0.6118433964001069    0.9196987542492988    0.3505492683137126    H3464
    0.6118433964001069    0.9196987542492988    0.6838826016470460    H3465
    0.9451767297334401    0.2530320875826322    0.0172159349803793    H3466
    0.9451767297334401    0.2530320875826322    0.3505492683137126    H3467
    0.9451767297334401    0.2530320875826322    0.6838826016470460    H3468
    0.9451767297334401    0.5863654209159654    0.0172159349803793    H3469
    0.9451767297334401    0.5863654209159654    0.3505492683137126    H3470
    0.9451767297334401    0.5863654209159654    0.6838826016470460    H3471
    0.9451767297334401    0.9196987542492988    0.0172159349803793    H3472
    0.9451767297334401    0.9196987542492988    0.3505492683137126    H3473
    0.9451767297334401    0.9196987542492988    0.6838826016470460    H3474
    0.2785100630667735    0.2530320875826322    0.0172159349803793    H3475
    0.2785100630667735    0.2530320875826322    0.3505492683137126    H3476
    0.2785100630667735    0.2530320875826322    0.6838826016470460    H3477
    0.2785100630667735    0.5863654209159654    0.0172159349803793    H3478
    0.2785100630667735    0.5863654209159654    0.3505492683137126    H3479
    0.2785100630667735    0.5863654209159654    0.6838826016470460    H3480
    0.2785100630667735    0.9196987542492988    0.0172159349803793    H3481
    0.2785100630667735    0.9196987542492988    0.3505492683137126    H3482
    0.2785100630667735    0.9196987542492988    0.6838826016470460    H3483
    0.3982634824249246    0.2380672083705206    0.3425206732899092    H3484
    0.3982634824249246    0.2380672083705206    0.6758540066232426    H3485
    0.3982634824249246    0.2380672083705206    0.0091873399565758    H3486
    0.3982634824249246    0.5714005417038539    0.3425206732899092    H3487
    0.3982634824249246    0.5714005417038539    0.6758540066232426    H3488
    0.3982634824249246    0.5714005417038539    0.0091873399565758    H3489
    0.3982634824249246    0.9047338750371873    0.3425206732899092    H3490
    0.3982634824249246    0.9047338750371873    0.6758540066232426    H3491
    0.3982634824249246    0.9047338750371873    0.0091873399565758    H3492
    0.7315968157582580    0.2380672083705206    0.3425206732899092    H3493
    0.7315968157582580    0.2380672083705206    0.6758540066232426    H3494
    0.7315968157582580    0.2380672083705206    0.0091873399565758    H3495
    0.7315968157582580    0.5714005417038539    0.3425206732899092    H3496
    0.7315968157582580    0.5714005417038539    0.6758540066232426    H3497
    0.7315968157582580    0.5714005417038539    0.0091873399565758    H3498
    0.7315968157582580    0.9047338750371873    0.3425206732899092    H3499
    0.7315968157582580    0.9047338750371873    0.6758540066232426    H3500
    0.7315968157582580    0.9047338750371873    0.0091873399565758    H3501
    0.0649301490915912    0.2380672083705206    0.3425206732899092    H3502
    0.0649301490915912    0.2380672083705206    0.6758540066232426    H3503
    0.0649301490915912    0.2380672083705206    0.0091873399565758    H3504
    0.0649301490915912    0.5714005417038539    0.3425206732899092    H3505
    0.0649301490915912    0.5714005417038539    0.6758540066232426    H3506
    0.0649301490915912    0.5714005417038539    0.0091873399565758    H3507
    0.0649301490915912    0.9047338750371873    0.3425206732899092    H3508
    0.0649301490915912    0.9047338750371873    0.6758540066232426    H3509
    0.0649301490915912    0.9047338750371873    0.0091873399565758    H3510
    0.2581556522276445    0.0690001906382098    0.3625985152835635    H3511
    0.2581556522276445    0.0690001906382098    0.6959318486168968    H3512
    0.2581556522276445    0.0690001906382098    0.0292651819502301    H3513
    0.2581556522276445    0.4023335239715431    0.3625985152835635    H3514
    0.2581556522276445    0.4023335239715431    0.6959318486168968    H3515
    0.2581556522276445    0.4023335239715431    0.0292651819502301    H3516
    0.2581556522276445    0.7356668573048765    0.3625985152835635    H3517
    0.2581556522276445    0.7356668573048765    0.6959318486168968    H3518
    0.2581556522276445    0.7356668573048765    0.0292651819502301    H3519
    0.5914889855609777    0.0690001906382098    0.3625985152835635    H3520
    0.5914889855609777    0.0690001906382098    0.6959318486168968    H3521
    0.5914889855609777    0.0690001906382098    0.0292651819502301    H3522
    0.5914889855609777    0.4023335239715431    0.3625985152835635    H3523
    0.5914889855609777    0.4023335239715431    0.6959318486168968    H3524
    0.5914889855609777    0.4023335239715431    0.0292651819502301    H3525
    0.5914889855609777    0.7356668573048765    0.3625985152835635    H3526
    0.5914889855609777    0.7356668573048765    0.6959318486168968    H3527
    0.5914889855609777    0.7356668573048765    0.0292651819502301    H3528
    0.9248223188943110    0.0690001906382098    0.3625985152835635    H3529
    0.9248223188943110    0.0690001906382098    0.6959318486168968    H3530
    0.9248223188943110    0.0690001906382098    0.0292651819502301    H3531
    0.9248223188943110    0.4023335239715431    0.3625985152835635    H3532
    0.9248223188943110    0.4023335239715431    0.6959318486168968    H3533
    0.9248223188943110    0.4023335239715431    0.0292651819502301    H3534
    0.9248223188943110    0.7356668573048765    0.3625985152835635    H3535
    0.9248223188943110    0.7356668573048765    0.6959318486168968    H3536
    0.9248223188943110    0.7356668573048765    0.0292651819502301    H3537
    0.1275504487707124    0.2865682456564844    0.2570683723190184    H3538
    0.1275504487707124    0.2865682456564844    0.5904017056523516    H3539
    0.1275504487707124    0.2865682456564844    0.9237350389856850    H3540
    0.1275504487707124    0.6199015789898179    0.2570683723190184    H3541
    0.1275504487707124    0.6199015789898179    0.5904017056523516    H3542
    0.1275504487707124    0.6199015789898179    0.9237350389856850    H3543
    0.1275504487707124    0.9532349123231512    0.2570683723190184    H3544
    0.1275504487707124    0.9532349123231512    0.5904017056523516    H3545
    0.1275504487707124    0.9532349123231512    0.9237350389856850    H3546
    0.4608837821040457    0.2865682456564844    0.2570683723190184    H3547
    0.4608837821040457    0.2865682456564844    0.5904017056523516    H3548
    0.4608837821040457    0.2865682456564844    0.9237350389856850    H3549
    0.4608837821040457    0.6199015789898179    0.2570683723190184    H3550
    0.4608837821040457    0.6199015789898179    0.5904017056523516    H3551
    0.4608837821040457    0.6199015789898179    0.9237350389856850    H3552
    0.4608837821040457    0.9532349123231512    0.2570683723190184    H3553
    0.4608837821040457    0.9532349123231512    0.5904017056523516    H3554
    0.4608837821040457    0.9532349123231512    0.9237350389856850    H3555
    0.7942171154373791    0.2865682456564844    0.2570683723190184    H3556
    0.7942171154373791    0.2865682456564844    0.5904017056523516    H3557
    0.7942171154373791    0.2865682456564844    0.9237350389856850    H3558
    0.7942171154373791    0.6199015789898179    0.2570683723190184    H3559
    0.7942171154373791    0.6199015789898179    0.5904017056523516    H3560
    0.7942171154373791    0.6199015789898179    0.9237350389856850    H3561
    0.7942171154373791    0.9532349123231512    0.2570683723190184    H3562
    0.7942171154373791    0.9532349123231512    0.5904017056523516    H3563
    0.7942171154373791    0.9532349123231512    0.9237350389856850    H3564
    0.2134865951395486    0.2772644002576061    0.1988008926802015    H3565
    0.2134865951395486    0.2772644002576061    0.5321342260135348    H3566
    0.2134865951395486    0.2772644002576061    0.8654675593468681    H3567
    0.2134865951395486    0.6105977335909394    0.1988008926802015    H3568
    0.2134865951395486    0.6105977335909394    0.5321342260135348    H3569
    0.2134865951395486    0.6105977335909394    0.8654675593468681    H3570
    0.2134865951395486    0.9439310669242726    0.1988008926802015    H3571
    0.2134865951395486    0.9439310669242726    0.5321342260135348    H3572
    0.2134865951395486    0.9439310669242726    0.8654675593468681    H3573
    0.5468199284728819    0.2772644002576061    0.1988008926802015    H3574
    0.5468199284728819    0.2772644002576061    0.5321342260135348    H3575
    0.5468199284728819    0.2772644002576061    0.8654675593468681    H3576
    0.5468199284728819    0.6105977335909394    0.1988008926802015    H3577
    0.5468199284728819    0.6105977335909394    0.5321342260135348    H3578
    0.5468199284728819    0.6105977335909394    0.8654675593468681    H3579
    0.5468199284728819    0.9439310669242726    0.1988008926802015    H3580
    0.5468199284728819    0.9439310669242726    0.5321342260135348    H3581
    0.5468199284728819    0.9439310669242726    0.8654675593468681    H3582
    0.8801532618062152    0.2772644002576061    0.1988008926802015    H3583
    0.8801532618062152    0.2772644002576061    0.5321342260135348    H3584
    0.8801532618062152    0.2772644002576061    0.8654675593468681    H3585
    0.8801532618062152    0.6105977335909394    0.1988008926802015    H3586
    0.8801532618062152    0.6105977335909394    0.5321342260135348    H3587
    0.8801532618062152    0.6105977335909394    0.8654675593468681    H3588
    0.8801532618062152    0.9439310669242726    0.1988008926802015    H3589
    0.8801532618062152    0.9439310669242726    0.5321342260135348    H3590
    0.8801532618062152    0.9439310669242726    0.8654675593468681    H3591
    0.2992111287213521    0.1342476886718256    0.3358507774754128    H3592
    0.2992111287213521    0.1342476886718256    0.6691841108087462    H3593
    0.2992111287213521    0.1342476886718256    0.0025174441420794    H3594
    0.2992111287213521    0.4675810220051591    0.3358507774754128    H3595
    0.2992111287213521    0.4675810220051591    0.6691841108087462    H3596
    0.2992111287213521    0.4675810220051591    0.0025174441420794    H3597
    0.2992111287213521    0.8009143553384923    0.3358507774754128    H3598
    0.2992111287213521    0.8009143553384923    0.6691841108087462    H3599
    0.2992111287213521    0.8009143553384923    0.0025174441420794    H3600
    0.6325444620546854    0.1342476886718256    0.3358507774754128    H3601
    0.6325444620546854    0.1342476886718256    0.6691841108087462    H3602
    0.6325444620546854    0.1342476886718256    0.0025174441420794    H3603
    0.6325444620546854    0.4675810220051591    0.3358507774754128    H3604
    0.6325444620546854    0.4675810220051591    0.6691841108087462    H3605
    0.6325444620546854    0.4675810220051591    0.0025174441420794    H3606
    0.6325444620546854    0.8009143553384923    0.3358507774754128    H3607
    0.6325444620546854    0.8009143553384923    0.6691841108087462    H3608
    0.6325444620546854    0.8009143553384923    0.0025174441420794    H3609
    0.9658777953880188    0.1342476886718256    0.3358507774754128    H3610
    0.9658777953880188    0.1342476886718256    0.6691841108087462    H3611
    0.9658777953880188    0.1342476886718256    0.0025174441420794    H3612
    0.9658777953880188    0.4675810220051591    0.3358507774754128    H3613
    0.9658777953880188    0.4675810220051591    0.6691841108087462    H3614
    0.9658777953880188    0.4675810220051591    0.0025174441420794    H3615
    0.9658777953880188    0.8009143553384923    0.3358507774754128    H3616
    0.9658777953880188    0.8009143553384923    0.6691841108087462    H3617
    0.9658777953880188    0.8009143553384923    0.0025174441420794    H3618
    0.1782290707666592    0.2237185064023530    0.2676003569499548    H3619
    0.1782290707666592    0.2237185064023530    0.6009336902832881    H3620
    0.1782290707666592    0.2237185064023530    0.9342670236166215    H3621
    0.1782290707666592    0.5570518397356863    0.2676003569499548    H3622
    0.1782290707666592    0.5570518397356863    0.6009336902832881    H3623
    0.1782290707666592    0.5570518397356863    0.9342670236166215    H3624
    0.1782290707666592    0.8903851730690197    0.2676003569499548    H3625
    0.1782290707666592    0.8903851730690197    0.6009336902832881    H3626
    0.1782290707666592    0.8903851730690197    0.9342670236166215    H3627
    0.5115624040999925    0.2237185064023530    0.2676003569499548    H3628
    0.5115624040999925    0.2237185064023530    0.6009336902832881    H3629
    0.5115624040999925    0.2237185064023530    0.9342670236166215    H3630
    0.5115624040999925    0.5570518397356863    0.2676003569499548    H3631
    0.5115624040999925    0.5570518397356863    0.6009336902832881    H3632
    0.5115624040999925    0.5570518397356863    0.9342670236166215    H3633
    0.5115624040999925    0.8903851730690197    0.2676003569499548    H3634
    0.5115624040999925    0.8903851730690197    0.6009336902832881    H3635
    0.5115624040999925    0.8903851730690197    0.9342670236166215    H3636
    0.8448957374333259    0.2237185064023530    0.2676003569499548    H3637
    0.8448957374333259    0.2237185064023530    0.6009336902832881    H3638
    0.8448957374333259    0.2237185064023530    0.9342670236166215    H3639
    0.8448957374333259    0.5570518397356863    0.2676003569499548    H3640
    0.8448957374333259    0.5570518397356863    0.6009336902832881    H3641
    0.8448957374333259    0.5570518397356863    0.9342670236166215    H3642
    0.8448957374333259    0.8903851730690197    0.2676003569499548    H3643
    0.8448957374333259    0.8903851730690197    0.6009336902832881    H3644
    0.8448957374333259    0.8903851730690197    0.9342670236166215    H3645
    0.1210723867508712    0.2573698692889685    0.2965641036606455    H3646
    0.1210723867508712    0.2573698692889685    0.6298974369939787    H3647
    0.1210723867508712    0.2573698692889685    0.9632307703273121    H3648
    0.1210723867508712    0.5907032026223019    0.2965641036606455    H3649
    0.1210723867508712    0.5907032026223019    0.6298974369939787    H3650
    0.1210723867508712    0.5907032026223019    0.9632307703273121    H3651
    0.1210723867508712    0.9240365359556353    0.2965641036606455    H3652
    0.1210723867508712    0.9240365359556353    0.6298974369939787    H3653
    0.1210723867508712    0.9240365359556353    0.9632307703273121    H3654
    0.4544057200842045    0.2573698692889685    0.2965641036606455    H3655
    0.4544057200842045    0.2573698692889685    0.6298974369939787    H3656
    0.4544057200842045    0.2573698692889685    0.9632307703273121    H3657
    0.4544057200842045    0.5907032026223019    0.2965641036606455    H3658
    0.4544057200842045    0.5907032026223019    0.6298974369939787    H3659
    0.4544057200842045    0.5907032026223019    0.9632307703273121    H3660
    0.4544057200842045    0.9240365359556353    0.2965641036606455    H3661
    0.4544057200842045    0.9240365359556353    0.6298974369939787    H3662
    0.4544057200842045    0.9240365359556353    0.9632307703273121    H3663
    0.7877390534175379    0.2573698692889685    0.2965641036606455    H3664
    0.7877390534175379    0.2573698692889685    0.6298974369939787    H3665
    0.7877390534175379    0.2573698692889685    0.9632307703273121    H3666
    0.7877390534175379    0.5907032026223019    0.2965641036606455    H3667
    0.7877390534175379    0.5907032026223019    0.6298974369939787    H3668
    0.7877390534175379    0.5907032026223019    0.9632307703273121    H3669
    0.7877390534175379    0.9240365359556353    0.2965641036606455    H3670
    0.7877390534175379    0.9240365359556353    0.6298974369939787    H3671
    0.7877390534175379    0.9240365359556353    0.9632307703273121    H3672
    0.2161263398548788    0.2312628942532249    0.2011323441281737    H3673
    0.2161263398548788    0.2312628942532249    0.5344656774615071    H3674
    0.2161263398548788    0.2312628942532249    0.8677990107948405    H3675
    0.2161263398548788    0.5645962275865583    0.2011323441281737    H3676
    0.2161263398548788    0.5645962275865583    0.5344656774615071    H3677
    0.2161263398548788    0.5645962275865583    0.8677990107948405    H3678
    0.2161263398548788    0.8979295609198915    0.2011323441281737    H3679
    0.2161263398548788    0.8979295609198915    0.5344656774615071    H3680
    0.2161263398548788    0.8979295609198915    0.8677990107948405    H3681
    0.5494596731882121    0.2312628942532249    0.2011323441281737    H3682
    0.5494596731882121    0.2312628942532249    0.5344656774615071    H3683
    0.5494596731882121    0.2312628942532249    0.8677990107948405    H3684
    0.5494596731882121    0.5645962275865583    0.2011323441281737    H3685
    0.5494596731882121    0.5645962275865583    0.5344656774615071    H3686
    0.5494596731882121    0.5645962275865583    0.8677990107948405    H3687
    0.5494596731882121    0.8979295609198915    0.2011323441281737    H3688
    0.5494596731882121    0.8979295609198915    0.5344656774615071    H3689
    0.5494596731882121    0.8979295609198915    0.8677990107948405    H3690
    0.8827930065215454    0.2312628942532249    0.2011323441281737    H3691
    0.8827930065215454    0.2312628942532249    0.5344656774615071    H3692
    0.8827930065215454    0.2312628942532249    0.8677990107948405    H3693
    0.8827930065215454    0.5645962275865583    0.2011323441281737    H3694
    0.8827930065215454    0.5645962275865583    0.5344656774615071    H3695
    0.8827930065215454    0.5645962275865583    0.8677990107948405    H3696
    0.8827930065215454    0.8979295609198915    0.2011323441281737    H3697
    0.8827930065215454    0.8979295609198915    0.5344656774615071    H3698
    0.8827930065215454    0.8979295609198915    0.8677990107948405    H3699
    0.0745102946747912    0.2660125114489138    0.2446662910353470    H3700
    0.0745102946747912    0.2660125114489138    0.5779996243686804    H3701
    0.0745102946747912    0.2660125114489138    0.9113329577020136    H3702
    0.0745102946747912    0.5993458447822472    0.2446662910353470    H3703
    0.0745102946747912    0.5993458447822472    0.5779996243686804    H3704
    0.0745102946747912    0.5993458447822472    0.9113329577020136    H3705
    0.0745102946747912    0.9326791781155804    0.2446662910353470    H3706
    0.0745102946747912    0.9326791781155804    0.5779996243686804    H3707
    0.0745102946747912    0.9326791781155804    0.9113329577020136    H3708
    0.4078436280081246    0.2660125114489138    0.2446662910353470    H3709
    0.4078436280081246    0.2660125114489138    0.5779996243686804    H3710
    0.4078436280081246    0.2660125114489138    0.9113329577020136    H3711
    0.4078436280081246    0.5993458447822472    0.2446662910353470    H3712
    0.4078436280081246    0.5993458447822472    0.5779996243686804    H3713
    0.4078436280081246    0.5993458447822472    0.9113329577020136    H3714
    0.4078436280081246    0.9326791781155804    0.2446662910353470    H3715
    0.4078436280081246    0.9326791781155804    0.5779996243686804    H3716
    0.4078436280081246    0.9326791781155804    0.9113329577020136    H3717
    0.7411769613414578    0.2660125114489138    0.2446662910353470    H3718
    0.7411769613414578    0.2660125114489138    0.5779996243686804    H3719
    0.7411769613414578    0.2660125114489138    0.9113329577020136    H3720
    0.7411769613414578    0.5993458447822472    0.2446662910353470    H3721
    0.7411769613414578    0.5993458447822472    0.5779996243686804    H3722
    0.7411769613414578    0.5993458447822472    0.9113329577020136    H3723
    0.7411769613414578    0.9326791781155804    0.2446662910353470    H3724
    0.7411769613414578    0.9326791781155804    0.5779996243686804    H3725
    0.7411769613414578    0.9326791781155804    0.9113329577020136    H3726
    0.2721691349752828    0.2431336710104754    0.4776308941652353    H3727
    0.2721691349752828    0.2431336710104754    0.8109642274985687    H3728
    0.2721691349752828    0.2431336710104754    0.1442975608319019    H3729
    0.2721691349752828    0.5764670043438088    0.4776308941652353    H3730
    0.2721691349752828    0.5764670043438088    0.8109642274985687    H3731
    0.2721691349752828    0.5764670043438088    0.1442975608319019    H3732
    0.2721691349752828    0.9098003376771421    0.4776308941652353    H3733
    0.2721691349752828    0.9098003376771421    0.8109642274985687    H3734
    0.2721691349752828    0.9098003376771421    0.1442975608319019    H3735
    0.6055024683086162    0.2431336710104754    0.4776308941652353    H3736
    0.6055024683086162    0.2431336710104754    0.8109642274985687    H3737
    0.6055024683086162    0.2431336710104754    0.1442975608319019    H3738
    0.6055024683086162    0.5764670043438088    0.4776308941652353    H3739
    0.6055024683086162    0.5764670043438088    0.8109642274985687    H3740
    0.6055024683086162    0.5764670043438088    0.1442975608319019    H3741
    0.6055024683086162    0.9098003376771421    0.4776308941652353    H3742
    0.6055024683086162    0.9098003376771421    0.8109642274985687    H3743
    0.6055024683086162    0.9098003376771421    0.1442975608319019    H3744
    0.9388358016419495    0.2431336710104754    0.4776308941652353    H3745
    0.9388358016419495    0.2431336710104754    0.8109642274985687    H3746
    0.9388358016419495    0.2431336710104754    0.1442975608319019    H3747
    0.9388358016419495    0.5764670043438088    0.4776308941652353    H3748
    0.9388358016419495    0.5764670043438088    0.8109642274985687    H3749
    0.9388358016419495    0.5764670043438088    0.1442975608319019    H3750
    0.9388358016419495    0.9098003376771421    0.4776308941652353    H3751
    0.9388358016419495    0.9098003376771421    0.8109642274985687    H3752
    0.9388358016419495    0.9098003376771421    0.1442975608319019    H3753
    0.2390587506338997    0.2270918769208032    0.2482524622171510    H3754
    0.2390587506338997    0.2270918769208032    0.5815857955504843    H3755
    0.2390587506338997    0.2270918769208032    0.9149191288838175    H3756
    0.2390587506338997    0.5604252102541366    0.2482524622171510    H3757
    0.2390587506338997    0.5604252102541366    0.5815857955504843    H3758
    0.2390587506338997    0.5604252102541366    0.9149191288838175    H3759
    0.2390587506338997    0.8937585435874700    0.2482524622171510    H3760
    0.2390587506338997    0.8937585435874700    0.5815857955504843    H3761
    0.2390587506338997    0.8937585435874700    0.9149191288838175    H3762
    0.5723920839672330    0.2270918769208032    0.2482524622171510    H3763
    0.5723920839672330    0.2270918769208032    0.5815857955504843    H3764
    0.5723920839672330    0.2270918769208032    0.9149191288838175    H3765
    0.5723920839672330    0.5604252102541366    0.2482524622171510    H3766
    0.5723920839672330    0.5604252102541366    0.5815857955504843    H3767
    0.5723920839672330    0.5604252102541366    0.9149191288838175    H3768
    0.5723920839672330    0.8937585435874700    0.2482524622171510    H3769
    0.5723920839672330    0.8937585435874700    0.5815857955504843    H3770
    0.5723920839672330    0.8937585435874700    0.9149191288838175    H3771
    0.9057254173005662    0.2270918769208032    0.2482524622171510    H3772
    0.9057254173005662    0.2270918769208032    0.5815857955504843    H3773
    0.9057254173005662    0.2270918769208032    0.9149191288838175    H3774
    0.9057254173005662    0.5604252102541366    0.2482524622171510    H3775
    0.9057254173005662    0.5604252102541366    0.5815857955504843    H3776
    0.9057254173005662    0.5604252102541366    0.9149191288838175    H3777
    0.9057254173005662    0.8937585435874700    0.2482524622171510    H3778
    0.9057254173005662    0.8937585435874700    0.5815857955504843    H3779
    0.9057254173005662    0.8937585435874700    0.9149191288838175    H3780
    0.3059590193823961    0.2353808230607827    0.4064970974067756    H3781
    0.3059590193823961    0.2353808230607827    0.7398304307401090    H3782
    0.3059590193823961    0.2353808230607827    0.0731637640734423    H3783
    0.3059590193823961    0.5687141563941159    0.4064970974067756    H3784
    0.3059590193823961    0.5687141563941159    0.7398304307401090    H3785
    0.3059590193823961    0.5687141563941159    0.0731637640734423    H3786
    0.3059590193823961    0.9020474897274492    0.4064970974067756    H3787
    0.3059590193823961    0.9020474897274492    0.7398304307401090    H3788
    0.3059590193823961    0.9020474897274492    0.0731637640734423    H3789
    0.6392923527157295    0.2353808230607827    0.4064970974067756    H3790
    0.6392923527157295    0.2353808230607827    0.7398304307401090    H3791
    0.6392923527157295    0.2353808230607827    0.0731637640734423    H3792
    0.6392923527157295    0.5687141563941159    0.4064970974067756    H3793
    0.6392923527157295    0.5687141563941159    0.7398304307401090    H3794
    0.6392923527157295    0.5687141563941159    0.0731637640734423    H3795
    0.6392923527157295    0.9020474897274492    0.4064970974067756    H3796
    0.6392923527157295    0.9020474897274492    0.7398304307401090    H3797
    0.6392923527157295    0.9020474897274492    0.0731637640734423    H3798
    0.9726256860490629    0.2353808230607827    0.4064970974067756    H3799
    0.9726256860490629    0.2353808230607827    0.7398304307401090    H3800
    0.9726256860490629    0.2353808230607827    0.0731637640734423    H3801
    0.9726256860490629    0.5687141563941159    0.4064970974067756    H3802
    0.9726256860490629    0.5687141563941159    0.7398304307401090    H3803
    0.9726256860490629    0.5687141563941159    0.0731637640734423    H3804
    0.9726256860490629    0.9020474897274492    0.4064970974067756    H3805
    0.9726256860490629    0.9020474897274492    0.7398304307401090    H3806
    0.9726256860490629    0.9020474897274492    0.0731637640734423    H3807
    0.3591609278268689    0.2086086550150433    0.3358990765649391    H3808
    0.3591609278268689    0.2086086550150433    0.6692324098982725    H3809
    0.3591609278268689    0.2086086550150433    0.0025657432316057    H3810
    0.3591609278268689    0.5419419883483767    0.3358990765649391    H3811
    0.3591609278268689    0.5419419883483767    0.6692324098982725    H3812
    0.3591609278268689    0.5419419883483767    0.0025657432316057    H3813
    0.3591609278268689    0.8752753216817100    0.3358990765649391    H3814
    0.3591609278268689    0.8752753216817100    0.6692324098982725    H3815
    0.3591609278268689    0.8752753216817100    0.0025657432316057    H3816
    0.6924942611602023    0.2086086550150433    0.3358990765649391    H3817
    0.6924942611602023    0.2086086550150433    0.6692324098982725    H3818
    0.6924942611602023    0.2086086550150433    0.0025657432316057    H3819
    0.6924942611602023    0.5419419883483767    0.3358990765649391    H3820
    0.6924942611602023    0.5419419883483767    0.6692324098982725    H3821
    0.6924942611602023    0.5419419883483767    0.0025657432316057    H3822
    0.6924942611602023    0.8752753216817100    0.3358990765649391    H3823
    0.6924942611602023    0.8752753216817100    0.6692324098982725    H3824
    0.6924942611602023    0.8752753216817100    0.0025657432316057    H3825
    0.0258275944935356    0.2086086550150433    0.3358990765649391    H3826
    0.0258275944935356    0.2086086550150433    0.6692324098982725    H3827
    0.0258275944935356    0.2086086550150433    0.0025657432316057    H3828
    0.0258275944935356    0.5419419883483767    0.3358990765649391    H3829
    0.0258275944935356    0.5419419883483767    0.6692324098982725    H3830
    0.0258275944935356    0.5419419883483767    0.0025657432316057    H3831
    0.0258275944935356    0.8752753216817100    0.3358990765649391    H3832
    0.0258275944935356    0.8752753216817100    0.6692324098982725    H3833
    0.0258275944935356    0.8752753216817100    0.0025657432316057    H3834
    0.6129718319726338    0.2611574749926499    0.9406581481299510    H3835
    0.6129718319726338    0.2611574749926499    0.2739914814632843    H3836
    0.6129718319726338    0.2611574749926499    0.6073248147966177    H3837
    0.6129718319726338    0.5944908083259832    0.9406581481299510    H3838
    0.6129718319726338    0.5944908083259832    0.2739914814632843    H3839
    0.6129718319726338    0.5944908083259832    0.6073248147966177    H3840
    0.6129718319726338    0.9278241416593166    0.9406581481299510    H3841
    0.6129718319726338    0.9278241416593166    0.2739914814632843    H3842
    0.6129718319726338    0.9278241416593166    0.6073248147966177    H3843
    0.9463051653059671    0.2611574749926499    0.9406581481299510    H3844
    0.9463051653059671    0.2611574749926499    0.2739914814632843    H3845
    0.9463051653059671    0.2611574749926499    0.6073248147966177    H3846
    0.9463051653059671    0.5944908083259832    0.9406581481299510    H3847
    0.9463051653059671    0.5944908083259832    0.2739914814632843    H3848
    0.9463051653059671    0.5944908083259832    0.6073248147966177    H3849
    0.9463051653059671    0.9278241416593166    0.9406581481299510    H3850
    0.9463051653059671    0.9278241416593166    0.2739914814632843    H3851
    0.9463051653059671    0.9278241416593166    0.6073248147966177    H3852
    0.2796384986393004    0.2611574749926499    0.9406581481299510    H3853
    0.2796384986393004    0.2611574749926499    0.2739914814632843    H3854
    0.2796384986393004    0.2611574749926499    0.6073248147966177    H3855
    0.2796384986393004    0.5944908083259832    0.9406581481299510    H3856
    0.2796384986393004    0.5944908083259832    0.2739914814632843    H3857
    0.2796384986393004    0.5944908083259832    0.6073248147966177    H3858
    0.2796384986393004    0.9278241416593166    0.9406581481299510    H3859
    0.2796384986393004    0.9278241416593166    0.2739914814632843    H3860
    0.2796384986393004    0.9278241416593166    0.6073248147966177    H3861
    0.1196657333248895    0.2447623185658698    0.2182973498493992    H3862
    0.1196657333248895    0.2447623185658698    0.5516306831827325    H3863
    0.1196657333248895    0.2447623185658698    0.8849640165160658    H3864
    0.1196657333248895    0.5780956518992032    0.2182973498493992    H3865
    0.1196657333248895    0.5780956518992032    0.5516306831827325    H3866
    0.1196657333248895    0.5780956518992032    0.8849640165160658    H3867
    0.1196657333248895    0.9114289852325365    0.2182973498493992    H3868
    0.1196657333248895    0.9114289852325365    0.5516306831827325    H3869
    0.1196657333248895    0.9114289852325365    0.8849640165160658    H3870
    0.4529990666582228    0.2447623185658698    0.2182973498493992    H3871
    0.4529990666582228    0.2447623185658698    0.5516306831827325    H3872
    0.4529990666582228    0.2447623185658698    0.8849640165160658    H3873
    0.4529990666582228    0.5780956518992032    0.2182973498493992    H3874
    0.4529990666582228    0.5780956518992032    0.5516306831827325    H3875
    0.4529990666582228    0.5780956518992032    0.8849640165160658    H3876
    0.4529990666582228    0.9114289852325365    0.2182973498493992    H3877
    0.4529990666582228    0.9114289852325365    0.5516306831827325    H3878
    0.4529990666582228    0.9114289852325365    0.8849640165160658    H3879
    0.7863323999915561    0.2447623185658698    0.2182973498493992    H3880
    0.7863323999915561    0.2447623185658698    0.5516306831827325    H3881
    0.7863323999915561    0.2447623185658698    0.8849640165160658    H3882
    0.7863323999915561    0.5780956518992032    0.2182973498493992    H3883
    0.7863323999915561    0.5780956518992032    0.5516306831827325    H3884
    0.7863323999915561    0.5780956518992032    0.8849640165160658    H3885
    0.7863323999915561    0.9114289852325365    0.2182973498493992    H3886
    0.7863323999915561    0.9114289852325365    0.5516306831827325    H3887
    0.7863323999915561    0.9114289852325365    0.8849640165160658    H3888
    0.1990937214352395    0.2758639409888870    0.2542083146435077    H3889
    0.1990937214352395    0.2758639409888870    0.5875416479768411    H3890
    0.1990937214352395    0.2758639409888870    0.9208749813101743    H3891
    0.1990937214352395    0.6091972743222204    0.2542083146435077    H3892
    0.1990937214352395    0.6091972743222204    0.5875416479768411    H3893
    0.1990937214352395    0.6091972743222204    0.9208749813101743    H3894
    0.1990937214352395    0.9425306076555536    0.2542083146435077    H3895
    0.1990937214352395    0.9425306076555536    0.5875416479768411    H3896
    0.1990937214352395    0.9425306076555536    0.9208749813101743    H3897
    0.5324270547685729    0.2758639409888870    0.2542083146435077    H3898
    0.5324270547685729    0.2758639409888870    0.5875416479768411    H3899
    0.5324270547685729    0.2758639409888870    0.9208749813101743    H3900
    0.5324270547685729    0.6091972743222204    0.2542083146435077    H3901
    0.5324270547685729    0.6091972743222204    0.5875416479768411    H3902
    0.5324270547685729    0.6091972743222204    0.9208749813101743    H3903
    0.5324270547685729    0.9425306076555536    0.2542083146435077    H3904
    0.5324270547685729    0.9425306076555536    0.5875416479768411    H3905
    0.5324270547685729    0.9425306076555536    0.9208749813101743    H3906
    0.8657603881019063    0.2758639409888870    0.2542083146435077    H3907
    0.8657603881019063    0.2758639409888870    0.5875416479768411    H3908
    0.8657603881019063    0.2758639409888870    0.9208749813101743    H3909
    0.8657603881019063    0.6091972743222204    0.2542083146435077    H3910
    0.8657603881019063    0.6091972743222204    0.5875416479768411    H3911
    0.8657603881019063    0.6091972743222204    0.9208749813101743    H3912
    0.8657603881019063    0.9425306076555536    0.2542083146435077    H3913
    0.8657603881019063    0.9425306076555536    0.5875416479768411    H3914
    0.8657603881019063    0.9425306076555536    0.9208749813101743    H3915
    0.3922070207946424    0.1881778202354381    0.3630360548558024    H3916
    0.3922070207946424    0.1881778202354381    0.6963693881891357    H3917
    0.3922070207946424    0.1881778202354381    0.0297027215224690    H3918
    0.3922070207946424    0.5215111535687713    0.3630360548558024    H3919
    0.3922070207946424    0.5215111535687713    0.6963693881891357    H3920
    0.3922070207946424    0.5215111535687713    0.0297027215224690    H3921
    0.3922070207946424    0.8548444869021047    0.3630360548558024    H3922
    0.3922070207946424    0.8548444869021047    0.6963693881891357    H3923
    0.3922070207946424    0.8548444869021047    0.0297027215224690    H3924
    0.7255403541279757    0.1881778202354381    0.3630360548558024    H3925
    0.7255403541279757    0.1881778202354381    0.6963693881891357    H3926
    0.7255403541279757    0.1881778202354381    0.0297027215224690    H3927
    0.7255403541279757    0.5215111535687713    0.3630360548558024    H3928
    0.7255403541279757    0.5215111535687713    0.6963693881891357    H3929
    0.7255403541279757    0.5215111535687713    0.0297027215224690    H3930
    0.7255403541279757    0.8548444869021047    0.3630360548558024    H3931
    0.7255403541279757    0.8548444869021047    0.6963693881891357    H3932
    0.7255403541279757    0.8548444869021047    0.0297027215224690    H3933
    0.0588736874613090    0.1881778202354381    0.3630360548558024    H3934
    0.0588736874613090    0.1881778202354381    0.6963693881891357    H3935
    0.0588736874613090    0.1881778202354381    0.0297027215224690    H3936
    0.0588736874613090    0.5215111535687713    0.3630360548558024    H3937
    0.0588736874613090    0.5215111535687713    0.6963693881891357    H3938
    0.0588736874613090    0.5215111535687713    0.0297027215224690    H3939
    0.0588736874613090    0.8548444869021047    0.3630360548558024    H3940
    0.0588736874613090    0.8548444869021047    0.6963693881891357    H3941
    0.0588736874613090    0.8548444869021047    0.0297027215224690    H3942
    0.3358882291076051    0.1405171791157827    0.2020567225355774     O001
    0.3358882291076051    0.1405171791157827    0.5353900558689108     O002
    0.3358882291076051    0.1405171791157827    0.8687233892022441     O003
    0.3358882291076051    0.4738505124491160    0.2020567225355774     O004
    0.3358882291076051    0.4738505124491160    0.5353900558689108     O005
    0.3358882291076051    0.4738505124491160    0.8687233892022441     O006
    0.3358882291076051    0.8071838457824494    0.2020567225355774     O007
    0.3358882291076051    0.8071838457824494    0.5353900558689108     O008
    0.3358882291076051    0.8071838457824494    0.8687233892022441     O009
    0.6692215624409384    0.1405171791157827    0.2020567225355774     O010
    0.6692215624409384    0.1405171791157827    0.5353900558689108     O011
    0.6692215624409384    0.1405171791157827    0.8687233892022441     O012
    0.6692215624409384    0.4738505124491160    0.2020567225355774     O013
    0.6692215624409384    0.4738505124491160    0.5353900558689108     O014
    0.6692215624409384    0.4738505124491160    0.8687233892022441     O015
    0.6692215624409384    0.8071838457824494    0.2020567225355774     O016
    0.6692215624409384    0.8071838457824494    0.5353900558689108     O017
    0.6692215624409384    0.8071838457824494    0.8687233892022441     O018
    0.0025548957742717    0.1405171791157827    0.2020567225355774     O019
    0.0025548957742717    0.1405171791157827    0.5353900558689108     O020
    0.0025548957742717    0.1405171791157827    0.8687233892022441     O021
    0.0025548957742717    0.4738505124491160    0.2020567225355774     O022
    0.0025548957742717    0.4738505124491160    0.5353900558689108     O023
    0.0025548957742717    0.4738505124491160    0.8687233892022441     O024
    0.0025548957742717    0.8071838457824494    0.2020567225355774     O025
    0.0025548957742717    0.8071838457824494    0.5353900558689108     O026
    0.0025548957742717    0.8071838457824494    0.8687233892022441     O027
    0.4657487668063734    0.2293567283413835    0.0764988525514474     O028
    0.4657487668063734    0.2293567283413835    0.4098321858847807     O029
    0.4657487668063734    0.2293567283413835    0.7431655192181139     O030
    0.4657487668063734    0.5626900616747168    0.0764988525514474     O031
    0.4657487668063734    0.5626900616747168    0.4098321858847807     O032
    0.4657487668063734    0.5626900616747168    0.7431655192181139     O033
    0.4657487668063734    0.8960233950080501    0.0764988525514474     O034
    0.4657487668063734    0.8960233950080501    0.4098321858847807     O035
    0.4657487668063734    0.8960233950080501    0.7431655192181139     O036
    0.7990821001397068    0.2293567283413835    0.0764988525514474     O037
    0.7990821001397068    0.2293567283413835    0.4098321858847807     O038
    0.7990821001397068    0.2293567283413835    0.7431655192181139     O039
    0.7990821001397068    0.5626900616747168    0.0764988525514474     O040
    0.7990821001397068    0.5626900616747168    0.4098321858847807     O041
    0.7990821001397068    0.5626900616747168    0.7431655192181139     O042
    0.7990821001397068    0.8960233950080501    0.0764988525514474     O043
    0.7990821001397068    0.8960233950080501    0.4098321858847807     O044
    0.7990821001397068    0.8960233950080501    0.7431655192181139     O045
    0.1324154334730401    0.2293567283413835    0.0764988525514474     O046
    0.1324154334730401    0.2293567283413835    0.4098321858847807     O047
    0.1324154334730401    0.2293567283413835    0.7431655192181139     O048
    0.1324154334730401    0.5626900616747168    0.0764988525514474     O049
    0.1324154334730401    0.5626900616747168    0.4098321858847807     O050
    0.1324154334730401    0.5626900616747168    0.7431655192181139     O051
    0.1324154334730401    0.8960233950080501    0.0764988525514474     O052
    0.1324154334730401    0.8960233950080501    0.4098321858847807     O053
    0.1324154334730401    0.8960233950080501    0.7431655192181139     O054
    0.3550705932965847    0.2079791209738747    0.2009403811311746     O055
    0.3550705932965847    0.2079791209738747    0.5342737144645080     O056
    0.3550705932965847    0.2079791209738747    0.8676070477978413     O057
    0.3550705932965847    0.5413124543072081    0.2009403811311746     O058
    0.3550705932965847    0.5413124543072081    0.5342737144645080     O059
    0.3550705932965847    0.5413124543072081    0.8676070477978413     O060
    0.3550705932965847    0.8746457876405415    0.2009403811311746     O061
    0.3550705932965847    0.8746457876405415    0.5342737144645080     O062
    0.3550705932965847    0.8746457876405415    0.8676070477978413     O063
    0.6884039266299180    0.2079791209738747    0.2009403811311746     O064
    0.6884039266299180    0.2079791209738747    0.5342737144645080     O065
    0.6884039266299180    0.2079791209738747    0.8676070477978413     O066
    0.6884039266299180    0.5413124543072081    0.2009403811311746     O067
    0.6884039266299180    0.5413124543072081    0.5342737144645080     O068
    0.6884039266299180    0.5413124543072081    0.8676070477978413     O069
    0.6884039266299180    0.8746457876405415    0.2009403811311746     O070
    0.6884039266299180    0.8746457876405415    0.5342737144645080     O071
    0.6884039266299180    0.8746457876405415    0.8676070477978413     O072
    0.0217372599632513    0.2079791209738747    0.2009403811311746     O073
    0.0217372599632513    0.2079791209738747    0.5342737144645080     O074
    0.0217372599632513    0.2079791209738747    0.8676070477978413     O075
    0.0217372599632513    0.5413124543072081    0.2009403811311746     O076
    0.0217372599632513    0.5413124543072081    0.5342737144645080     O077
    0.0217372599632513    0.5413124543072081    0.8676070477978413     O078
    0.0217372599632513    0.8746457876405415    0.2009403811311746     O079
    0.0217372599632513    0.8746457876405415    0.5342737144645080     O080
    0.0217372599632513    0.8746457876405415    0.8676070477978413     O081
    0.1478550369923929    0.1733462537607628    0.2579759410917439     O082
    0.1478550369923929    0.1733462537607628    0.5913092744250773     O083
    0.1478550369923929    0.1733462537607628    0.9246426077584106     O084
    0.1478550369923929    0.5066795870940961    0.2579759410917439     O085
    0.1478550369923929    0.5066795870940961    0.5913092744250773     O086
    0.1478550369923929    0.5066795870940961    0.9246426077584106     O087
    0.1478550369923929    0.8400129204274294    0.2579759410917439     O088
    0.1478550369923929    0.8400129204274294    0.5913092744250773     O089
    0.1478550369923929    0.8400129204274294    0.9246426077584106     O090
    0.4811883703257263    0.1733462537607628    0.2579759410917439     O091
    0.4811883703257263    0.1733462537607628    0.5913092744250773     O092
    0.4811883703257263    0.1733462537607628    0.9246426077584106     O093
    0.4811883703257263    0.5066795870940961    0.2579759410917439     O094
    0.4811883703257263    0.5066795870940961    0.5913092744250773     O095
    0.4811883703257263    0.5066795870940961    0.9246426077584106     O096
    0.4811883703257263    0.8400129204274294    0.2579759410917439     O097
    0.4811883703257263    0.8400129204274294    0.5913092744250773     O098
    0.4811883703257263    0.8400129204274294    0.9246426077584106     O099
    0.8145217036590596    0.1733462537607628    0.2579759410917439     O100
    0.8145217036590596    0.1733462537607628    0.5913092744250773     O101
    0.8145217036590596    0.1733462537607628    0.9246426077584106     O102
    0.8145217036590596    0.5066795870940961    0.2579759410917439     O103
    0.8145217036590596    0.5066795870940961    0.5913092744250773     O104
    0.8145217036590596    0.5066795870940961    0.9246426077584106     O105
    0.8145217036590596    0.8400129204274294    0.2579759410917439     O106
    0.8145217036590596    0.8400129204274294    0.5913092744250773     O107
    0.8145217036590596    0.8400129204274294    0.9246426077584106     O108
    0.2304295793640979    0.1540260362875170    0.3486565404669377     O109
    0.2304295793640979    0.1540260362875170    0.6819898738002711     O110
    0.2304295793640979    0.1540260362875170    0.0153232071336044     O111
    0.2304295793640979    0.4873593696208502    0.3486565404669377     O112
    0.2304295793640979    0.4873593696208502    0.6819898738002711     O113
    0.2304295793640979    0.4873593696208502    0.0153232071336044     O114
    0.2304295793640979    0.8206927029541836    0.3486565404669377     O115
    0.2304295793640979    0.8206927029541836    0.6819898738002711     O116
    0.2304295793640979    0.8206927029541836    0.0153232071336044     O117
    0.5637629126974313    0.1540260362875170    0.3486565404669377     O118
    0.5637629126974313    0.1540260362875170    0.6819898738002711     O119
    0.5637629126974313    0.1540260362875170    0.0153232071336044     O120
    0.5637629126974313    0.4873593696208502    0.3486565404669377     O121
    0.5637629126974313    0.4873593696208502    0.6819898738002711     O122
    0.5637629126974313    0.4873593696208502    0.0153232071336044     O123
    0.5637629126974313    0.8206927029541836    0.3486565404669377     O124
    0.5637629126974313    0.8206927029541836    0.6819898738002711     O125
    0.5637629126974313    0.8206927029541836    0.0153232071336044     O126
    0.8970962460307645    0.1540260362875170    0.3486565404669377     O127
    0.8970962460307645    0.1540260362875170    0.6819898738002711     O128
    0.8970962460307645    0.1540260362875170    0.0153232071336044     O129
    0.8970962460307645    0.4873593696208502    0.3486565404669377     O130
    0.8970962460307645    0.4873593696208502    0.6819898738002711     O131
    0.8970962460307645    0.4873593696208502    0.0153232071336044     O132
    0.8970962460307645    0.8206927029541836    0.3486565404669377     O133
    0.8970962460307645    0.8206927029541836    0.6819898738002711     O134
    0.8970962460307645    0.8206927029541836    0.0153232071336044     O135
    0.4571680434001388    0.1467218954949061    0.1693398163057369     O136
    0.4571680434001388    0.1467218954949061    0.5026731496390702     O137
    0.4571680434001388    0.1467218954949061    0.8360064829724034     O138
    0.4571680434001388    0.4800552288282395    0.1693398163057369     O139
    0.4571680434001388    0.4800552288282395    0.5026731496390702     O140
    0.4571680434001388    0.4800552288282395    0.8360064829724034     O141
    0.4571680434001388    0.8133885621615727    0.1693398163057369     O142
    0.4571680434001388    0.8133885621615727    0.5026731496390702     O143
    0.4571680434001388    0.8133885621615727    0.8360064829724034     O144
    0.7905013767334722    0.1467218954949061    0.1693398163057369     O145
    0.7905013767334722    0.1467218954949061    0.5026731496390702     O146
    0.7905013767334722    0.1467218954949061    0.8360064829724034     O147
    0.7905013767334722    0.4800552288282395    0.1693398163057369     O148
    0.7905013767334722    0.4800552288282395    0.5026731496390702     O149
    0.7905013767334722    0.4800552288282395    0.8360064829724034     O150
    0.7905013767334722    0.8133885621615727    0.1693398163057369     O151
    0.7905013767334722    0.8133885621615727    0.5026731496390702     O152
    0.7905013767334722    0.8133885621615727    0.8360064829724034     O153
    0.1238347100668055    0.1467218954949061    0.1693398163057369     O154
    0.1238347100668055    0.1467218954949061    0.5026731496390702     O155
    0.1238347100668055    0.1467218954949061    0.8360064829724034     O156
    0.1238347100668055    0.4800552288282395    0.1693398163057369     O157
    0.1238347100668055    0.4800552288282395    0.5026731496390702     O158
    0.1238347100668055    0.4800552288282395    0.8360064829724034     O159
    0.1238347100668055    0.8133885621615727    0.1693398163057369     O160
    0.1238347100668055    0.8133885621615727    0.5026731496390702     O161
    0.1238347100668055    0.8133885621615727    0.8360064829724034     O162
    0.5436015253373258    0.2295266179308819    0.0959221849974283     O163
    0.5436015253373258    0.2295266179308819    0.4292555183307616     O164
    0.5436015253373258    0.2295266179308819    0.7625888516640950     O165
    0.5436015253373258    0.5628599512642153    0.0959221849974283     O166
    0.5436015253373258    0.5628599512642153    0.4292555183307616     O167
    0.5436015253373258    0.5628599512642153    0.7625888516640950     O168
    0.5436015253373258    0.8961932845975487    0.0959221849974283     O169
    0.5436015253373258    0.8961932845975487    0.4292555183307616     O170
    0.5436015253373258    0.8961932845975487    0.7625888516640950     O171
    0.8769348586706590    0.2295266179308819    0.0959221849974283     O172
    0.8769348586706590    0.2295266179308819    0.4292555183307616     O173
    0.8769348586706590    0.2295266179308819    0.7625888516640950     O174
    0.8769348586706590    0.5628599512642153    0.0959221849974283     O175
    0.8769348586706590    0.5628599512642153    0.4292555183307616     O176
    0.8769348586706590    0.5628599512642153    0.7625888516640950     O177
    0.8769348586706590    0.8961932845975487    0.0959221849974283     O178
    0.8769348586706590    0.8961932845975487    0.4292555183307616     O179
    0.8769348586706590    0.8961932845975487    0.7625888516640950     O180
    0.2102681920039924    0.2295266179308819    0.0959221849974283     O181
    0.2102681920039924    0.2295266179308819    0.4292555183307616     O182
    0.2102681920039924    0.2295266179308819    0.7625888516640950     O183
    0.2102681920039924    0.5628599512642153    0.0959221849974283     O184
    0.2102681920039924    0.5628599512642153    0.4292555183307616     O185
    0.2102681920039924    0.5628599512642153    0.7625888516640950     O186
    0.2102681920039924    0.8961932845975487    0.0959221849974283     O187
    0.2102681920039924    0.8961932845975487    0.4292555183307616     O188
    0.2102681920039924    0.8961932845975487    0.7625888516640950     O189
