# Amorphous model                       
1.0
       40.3958969116         0.0000000000         0.0000000000
        3.3852842418        40.6033572160         0.0000000000
       18.7962993370         3.5068016822        27.5722538707
    C    H
 1848 3744
Direct
     0.229200795         0.202418163         0.365257472
     0.229200795         0.202418163         0.615257502
     0.229200795         0.202418163         0.865257502
     0.229200795         0.202418163         0.115257472
     0.229200795         0.702418149         0.365257472
     0.229200795         0.702418149         0.615257502
     0.229200795         0.702418149         0.865257502
     0.229200795         0.702418149         0.115257472
     0.562534153         0.202418163         0.365257472
     0.562534153         0.202418163         0.615257502
     0.562534153         0.202418163         0.865257502
     0.562534153         0.202418163         0.115257472
     0.562534153         0.702418149         0.365257472
     0.562534153         0.702418149         0.615257502
     0.562534153         0.702418149         0.865257502
     0.562534153         0.702418149         0.115257472
     0.895867467         0.202418163         0.365257472
     0.895867467         0.202418163         0.615257502
     0.895867467         0.202418163         0.865257502
     0.895867467         0.202418163         0.115257472
     0.895867467         0.702418149         0.365257472
     0.895867467         0.702418149         0.615257502
     0.895867467         0.702418149         0.865257502
     0.895867467         0.702418149         0.115257472
     0.278828532         0.460342705         0.274827302
     0.278828532         0.460342705         0.524827302
     0.278828532         0.460342705         0.774827302
     0.278828532         0.460342705         0.024827302
     0.278828532         0.960342705         0.274827302
     0.278828532         0.960342705         0.524827302
     0.278828532         0.960342705         0.774827302
     0.278828532         0.960342705         0.024827302
     0.612161875         0.460342705         0.274827302
     0.612161875         0.460342705         0.524827302
     0.612161875         0.460342705         0.774827302
     0.612161875         0.460342705         0.024827302
     0.612161875         0.960342705         0.274827302
     0.612161875         0.960342705         0.524827302
     0.612161875         0.960342705         0.774827302
     0.612161875         0.960342705         0.024827302
     0.945495188         0.460342705         0.274827302
     0.945495188         0.460342705         0.524827302
     0.945495188         0.460342705         0.774827302
     0.945495188         0.460342705         0.024827302
     0.945495188         0.960342705         0.274827302
     0.945495188         0.960342705         0.524827302
     0.945495188         0.960342705         0.774827302
     0.945495188         0.960342705         0.024827302
     0.170879051         0.465059340         0.337561041
     0.170879051         0.465059340         0.587561011
     0.170879051         0.465059340         0.837561011
     0.170879051         0.465059340         0.087561041
     0.170879051         0.965059340         0.337561041
     0.170879051         0.965059340         0.587561011
     0.170879051         0.965059340         0.837561011
     0.170879051         0.965059340         0.087561041
     0.504212379         0.465059340         0.337561041
     0.504212379         0.465059340         0.587561011
     0.504212379         0.465059340         0.837561011
     0.504212379         0.465059340         0.087561041
     0.504212379         0.965059340         0.337561041
     0.504212379         0.965059340         0.587561011
     0.504212379         0.965059340         0.837561011
     0.504212379         0.965059340         0.087561041
     0.837545693         0.465059340         0.337561041
     0.837545693         0.465059340         0.587561011
     0.837545693         0.465059340         0.837561011
     0.837545693         0.465059340         0.087561041
     0.837545693         0.965059340         0.337561041
     0.837545693         0.965059340         0.587561011
     0.837545693         0.965059340         0.837561011
     0.837545693         0.965059340         0.087561041
     0.129389212         0.093543984         0.272970825
     0.129389212         0.093543984         0.522970796
     0.129389212         0.093543984         0.772970796
     0.129389212         0.093543984         0.022970825
     0.129389212         0.593544006         0.272970825
     0.129389212         0.593544006         0.522970796
     0.129389212         0.593544006         0.772970796
     0.129389212         0.593544006         0.022970825
     0.462722540         0.093543984         0.272970825
     0.462722540         0.093543984         0.522970796
     0.462722540         0.093543984         0.772970796
     0.462722540         0.093543984         0.022970825
     0.462722540         0.593544006         0.272970825
     0.462722540         0.593544006         0.522970796
     0.462722540         0.593544006         0.772970796
     0.462722540         0.593544006         0.022970825
     0.796055853         0.093543984         0.272970825
     0.796055853         0.093543984         0.522970796
     0.796055853         0.093543984         0.772970796
     0.796055853         0.093543984         0.022970825
     0.796055853         0.593544006         0.272970825
     0.796055853         0.593544006         0.522970796
     0.796055853         0.593544006         0.772970796
     0.796055853         0.593544006         0.022970825
     0.133186951         0.096512958         0.347727239
     0.133186951         0.096512958         0.597727239
     0.133186951         0.096512958         0.847727239
     0.133186951         0.096512958         0.097727239
     0.133186951         0.596512973         0.347727239
     0.133186951         0.596512973         0.597727239
     0.133186951         0.596512973         0.847727239
     0.133186951         0.596512973         0.097727239
     0.466520280         0.096512958         0.347727239
     0.466520280         0.096512958         0.597727239
     0.466520280         0.096512958         0.847727239
     0.466520280         0.096512958         0.097727239
     0.466520280         0.596512973         0.347727239
     0.466520280         0.596512973         0.597727239
     0.466520280         0.596512973         0.847727239
     0.466520280         0.596512973         0.097727239
     0.799853623         0.096512958         0.347727239
     0.799853623         0.096512958         0.597727239
     0.799853623         0.096512958         0.847727239
     0.799853623         0.096512958         0.097727239
     0.799853623         0.596512973         0.347727239
     0.799853623         0.596512973         0.597727239
     0.799853623         0.596512973         0.847727239
     0.799853623         0.596512973         0.097727239
     0.350260496         0.950437069         0.265108258
     0.350260496         0.950437069         0.515108228
     0.350260496         0.950437069         0.765108228
     0.350260496         0.950437069         0.015108258
     0.350260496         0.450437069         0.265108258
     0.350260496         0.450437069         0.515108228
     0.350260496         0.450437069         0.765108228
     0.350260496         0.450437069         0.015108258
     0.683593810         0.950437069         0.265108258
     0.683593810         0.950437069         0.515108228
     0.683593810         0.950437069         0.765108228
     0.683593810         0.950437069         0.015108258
     0.683593810         0.450437069         0.265108258
     0.683593810         0.450437069         0.515108228
     0.683593810         0.450437069         0.765108228
     0.683593810         0.450437069         0.015108258
     0.016927162         0.950437069         0.265108258
     0.016927162         0.950437069         0.515108228
     0.016927162         0.950437069         0.765108228
     0.016927162         0.950437069         0.015108258
     0.016927162         0.450437069         0.265108258
     0.016927162         0.450437069         0.515108228
     0.016927162         0.450437069         0.765108228
     0.016927162         0.450437069         0.015108258
     0.386956185         0.111233041         0.007082598
     0.386956185         0.111233041         0.257082611
     0.386956185         0.111233041         0.507082582
     0.386956185         0.111233041         0.757082582
     0.386956185         0.611233056         0.007082598
     0.386956185         0.611233056         0.257082611
     0.386956185         0.611233056         0.507082582
     0.386956185         0.611233056         0.757082582
     0.720289528         0.111233041         0.007082598
     0.720289528         0.111233041         0.257082611
     0.720289528         0.111233041         0.507082582
     0.720289528         0.111233041         0.757082582
     0.720289528         0.611233056         0.007082598
     0.720289528         0.611233056         0.257082611
     0.720289528         0.611233056         0.507082582
     0.720289528         0.611233056         0.757082582
     0.053622853         0.111233041         0.007082598
     0.053622853         0.111233041         0.257082611
     0.053622853         0.111233041         0.507082582
     0.053622853         0.111233041         0.757082582
     0.053622853         0.611233056         0.007082598
     0.053622853         0.611233056         0.257082611
     0.053622853         0.611233056         0.507082582
     0.053622853         0.611233056         0.757082582
     0.485413879         0.392817974         0.944358349
     0.485413879         0.392817974         0.194358349
     0.485413879         0.392817974         0.444358349
     0.485413879         0.392817974         0.694358349
     0.485413879         0.892817974         0.944358349
     0.485413879         0.892817974         0.194358349
     0.485413879         0.892817974         0.444358349
     0.485413879         0.892817974         0.694358349
     0.818747222         0.392817974         0.944358349
     0.818747222         0.392817974         0.194358349
     0.818747222         0.392817974         0.444358349
     0.818747222         0.392817974         0.694358349
     0.818747222         0.892817974         0.944358349
     0.818747222         0.892817974         0.194358349
     0.818747222         0.892817974         0.444358349
     0.818747222         0.892817974         0.694358349
     0.152080551         0.392817974         0.944358349
     0.152080551         0.392817974         0.194358349
     0.152080551         0.392817974         0.444358349
     0.152080551         0.392817974         0.694358349
     0.152080551         0.892817974         0.944358349
     0.152080551         0.892817974         0.194358349
     0.152080551         0.892817974         0.444358349
     0.152080551         0.892817974         0.694358349
     0.349929720         0.153559417         0.063822150
     0.349929720         0.153559417         0.313822150
     0.349929720         0.153559417         0.563822150
     0.349929720         0.153559417         0.813822150
     0.349929720         0.653559446         0.063822150
     0.349929720         0.653559446         0.313822150
     0.349929720         0.653559446         0.563822150
     0.349929720         0.653559446         0.813822150
     0.683263063         0.153559417         0.063822150
     0.683263063         0.153559417         0.313822150
     0.683263063         0.153559417         0.563822150
     0.683263063         0.153559417         0.813822150
     0.683263063         0.653559446         0.063822150
     0.683263063         0.653559446         0.313822150
     0.683263063         0.653559446         0.563822150
     0.683263063         0.653559446         0.813822150
     0.016596386         0.153559417         0.063822150
     0.016596386         0.153559417         0.313822150
     0.016596386         0.153559417         0.563822150
     0.016596386         0.153559417         0.813822150
     0.016596386         0.653559446         0.063822150
     0.016596386         0.653559446         0.313822150
     0.016596386         0.653559446         0.563822150
     0.016596386         0.653559446         0.813822150
     0.275534719         0.157166898         0.377164215
     0.275534719         0.157166898         0.627164245
     0.275534719         0.157166898         0.877164245
     0.275534719         0.157166898         0.127164215
     0.275534719         0.657166898         0.377164215
     0.275534719         0.657166898         0.627164245
     0.275534719         0.657166898         0.877164245
     0.275534719         0.657166898         0.127164215
     0.608868062         0.157166898         0.377164215
     0.608868062         0.157166898         0.627164245
     0.608868062         0.157166898         0.877164245
     0.608868062         0.157166898         0.127164215
     0.608868062         0.657166898         0.377164215
     0.608868062         0.657166898         0.627164245
     0.608868062         0.657166898         0.877164245
     0.608868062         0.657166898         0.127164215
     0.942201376         0.157166898         0.377164215
     0.942201376         0.157166898         0.627164245
     0.942201376         0.157166898         0.877164245
     0.942201376         0.157166898         0.127164215
     0.942201376         0.657166898         0.377164215
     0.942201376         0.657166898         0.627164245
     0.942201376         0.657166898         0.877164245
     0.942201376         0.657166898         0.127164215
     0.367720604         0.223575741         0.195798650
     0.367720604         0.223575741         0.445798635
     0.367720604         0.223575741         0.695798635
     0.367720604         0.223575741         0.945798635
     0.367720604         0.723575711         0.195798650
     0.367720604         0.723575711         0.445798635
     0.367720604         0.723575711         0.695798635
     0.367720604         0.723575711         0.945798635
     0.701053917         0.223575741         0.195798650
     0.701053917         0.223575741         0.445798635
     0.701053917         0.223575741         0.695798635
     0.701053917         0.223575741         0.945798635
     0.701053917         0.723575711         0.195798650
     0.701053917         0.723575711         0.445798635
     0.701053917         0.723575711         0.695798635
     0.701053917         0.723575711         0.945798635
     0.034387272         0.223575741         0.195798650
     0.034387272         0.223575741         0.445798635
     0.034387272         0.223575741         0.695798635
     0.034387272         0.223575741         0.945798635
     0.034387272         0.723575711         0.195798650
     0.034387272         0.723575711         0.445798635
     0.034387272         0.723575711         0.695798635
     0.034387272         0.723575711         0.945798635
     0.200200677         0.185872629         0.319148004
     0.200200677         0.185872629         0.569148004
     0.200200677         0.185872629         0.819148004
     0.200200677         0.185872629         0.069148004
     0.200200677         0.685872614         0.319148004
     0.200200677         0.685872614         0.569148004
     0.200200677         0.685872614         0.819148004
     0.200200677         0.685872614         0.069148004
     0.533533990         0.185872629         0.319148004
     0.533533990         0.185872629         0.569148004
     0.533533990         0.185872629         0.819148004
     0.533533990         0.185872629         0.069148004
     0.533533990         0.685872614         0.319148004
     0.533533990         0.685872614         0.569148004
     0.533533990         0.685872614         0.819148004
     0.533533990         0.685872614         0.069148004
     0.866867363         0.185872629         0.319148004
     0.866867363         0.185872629         0.569148004
     0.866867363         0.185872629         0.819148004
     0.866867363         0.185872629         0.069148004
     0.866867363         0.685872614         0.319148004
     0.866867363         0.685872614         0.569148004
     0.866867363         0.685872614         0.819148004
     0.866867363         0.685872614         0.069148004
     0.154824987         0.087848164         0.294275701
     0.154824987         0.087848164         0.544275701
     0.154824987         0.087848164         0.794275701
     0.154824987         0.087848164         0.044275701
     0.154824987         0.587848186         0.294275701
     0.154824987         0.587848186         0.544275701
     0.154824987         0.587848186         0.794275701
     0.154824987         0.587848186         0.044275701
     0.488158315         0.087848164         0.294275701
     0.488158315         0.087848164         0.544275701
     0.488158315         0.087848164         0.794275701
     0.488158315         0.087848164         0.044275701
     0.488158315         0.587848186         0.294275701
     0.488158315         0.587848186         0.544275701
     0.488158315         0.587848186         0.794275701
     0.488158315         0.587848186         0.044275701
     0.821491659         0.087848164         0.294275701
     0.821491659         0.087848164         0.544275701
     0.821491659         0.087848164         0.794275701
     0.821491659         0.087848164         0.044275701
     0.821491659         0.587848186         0.294275701
     0.821491659         0.587848186         0.544275701
     0.821491659         0.587848186         0.794275701
     0.821491659         0.587848186         0.044275701
     0.302658290         0.820056796         0.172412902
     0.302658290         0.820056796         0.422412902
     0.302658290         0.820056796         0.672412872
     0.302658290         0.820056796         0.922412872
     0.302658290         0.320056796         0.172412902
     0.302658290         0.320056796         0.422412902
     0.302658290         0.320056796         0.672412872
     0.302658290         0.320056796         0.922412872
     0.635991633         0.820056796         0.172412902
     0.635991633         0.820056796         0.422412902
     0.635991633         0.820056796         0.672412872
     0.635991633         0.820056796         0.922412872
     0.635991633         0.320056796         0.172412902
     0.635991633         0.320056796         0.422412902
     0.635991633         0.320056796         0.672412872
     0.635991633         0.320056796         0.922412872
     0.969324946         0.820056796         0.172412902
     0.969324946         0.820056796         0.422412902
     0.969324946         0.820056796         0.672412872
     0.969324946         0.820056796         0.922412872
     0.969324946         0.320056796         0.172412902
     0.969324946         0.320056796         0.422412902
     0.969324946         0.320056796         0.672412872
     0.969324946         0.320056796         0.922412872
     0.294986188         0.812149405         0.258014888
     0.294986188         0.812149405         0.508014917
     0.294986188         0.812149405         0.758014917
     0.294986188         0.812149405         0.008014888
     0.294986188         0.312149405         0.258014888
     0.294986188         0.312149405         0.508014917
     0.294986188         0.312149405         0.758014917
     0.294986188         0.312149405         0.008014888
     0.628319502         0.812149405         0.258014888
     0.628319502         0.812149405         0.508014917
     0.628319502         0.812149405         0.758014917
     0.628319502         0.812149405         0.008014888
     0.628319502         0.312149405         0.258014888
     0.628319502         0.312149405         0.508014917
     0.628319502         0.312149405         0.758014917
     0.628319502         0.312149405         0.008014888
     0.961652875         0.812149405         0.258014888
     0.961652875         0.812149405         0.508014917
     0.961652875         0.812149405         0.758014917
     0.961652875         0.812149405         0.008014888
     0.961652875         0.312149405         0.258014888
     0.961652875         0.312149405         0.508014917
     0.961652875         0.312149405         0.758014917
     0.961652875         0.312149405         0.008014888
     0.099453539         0.262822479         0.017390912
     0.099453539         0.262822479         0.267390907
     0.099453539         0.262822479         0.517390907
     0.099453539         0.262822479         0.767390907
     0.099453539         0.762822509         0.017390912
     0.099453539         0.762822509         0.267390907
     0.099453539         0.762822509         0.517390907
     0.099453539         0.762822509         0.767390907
     0.432786882         0.262822479         0.017390912
     0.432786882         0.262822479         0.267390907
     0.432786882         0.262822479         0.517390907
     0.432786882         0.262822479         0.767390907
     0.432786882         0.762822509         0.017390912
     0.432786882         0.762822509         0.267390907
     0.432786882         0.762822509         0.517390907
     0.432786882         0.762822509         0.767390907
     0.766120195         0.262822479         0.017390912
     0.766120195         0.262822479         0.267390907
     0.766120195         0.262822479         0.517390907
     0.766120195         0.262822479         0.767390907
     0.766120195         0.762822509         0.017390912
     0.766120195         0.762822509         0.267390907
     0.766120195         0.762822509         0.517390907
     0.766120195         0.762822509         0.767390907
     0.308333129         0.892739952         0.168906748
     0.308333129         0.892739952         0.418906748
     0.308333129         0.892739952         0.668906748
     0.308333129         0.892739952         0.918906748
     0.308333129         0.392739952         0.168906748
     0.308333129         0.392739952         0.418906748
     0.308333129         0.392739952         0.668906748
     0.308333129         0.392739952         0.918906748
     0.641666472         0.892739952         0.168906748
     0.641666472         0.892739952         0.418906748
     0.641666472         0.892739952         0.668906748
     0.641666472         0.892739952         0.918906748
     0.641666472         0.392739952         0.168906748
     0.641666472         0.392739952         0.418906748
     0.641666472         0.392739952         0.668906748
     0.641666472         0.392739952         0.918906748
     0.974999785         0.892739952         0.168906748
     0.974999785         0.892739952         0.418906748
     0.974999785         0.892739952         0.668906748
     0.974999785         0.892739952         0.918906748
     0.974999785         0.392739952         0.168906748
     0.974999785         0.392739952         0.418906748
     0.974999785         0.392739952         0.668906748
     0.974999785         0.392739952         0.918906748
     0.376717716         0.045498881         0.452592313
     0.376717716         0.045498881         0.702592313
     0.376717716         0.045498881         0.952592313
     0.376717716         0.045498881         0.202592313
     0.376717716         0.545498908         0.452592313
     0.376717716         0.545498908         0.702592313
     0.376717716         0.545498908         0.952592313
     0.376717716         0.545498908         0.202592313
     0.710051060         0.045498881         0.452592313
     0.710051060         0.045498881         0.702592313
     0.710051060         0.045498881         0.952592313
     0.710051060         0.045498881         0.202592313
     0.710051060         0.545498908         0.452592313
     0.710051060         0.545498908         0.702592313
     0.710051060         0.545498908         0.952592313
     0.710051060         0.545498908         0.202592313
     0.043384384         0.045498881         0.452592313
     0.043384384         0.045498881         0.702592313
     0.043384384         0.045498881         0.952592313
     0.043384384         0.045498881         0.202592313
     0.043384384         0.545498908         0.452592313
     0.043384384         0.545498908         0.702592313
     0.043384384         0.545498908         0.952592313
     0.043384384         0.545498908         0.202592313
     0.385250568         0.018302344         0.381631285
     0.385250568         0.018302344         0.631631255
     0.385250568         0.018302344         0.881631255
     0.385250568         0.018302344         0.131631285
     0.385250568         0.518302321         0.381631285
     0.385250568         0.518302321         0.631631255
     0.385250568         0.518302321         0.881631255
     0.385250568         0.518302321         0.131631285
     0.718583882         0.018302344         0.381631285
     0.718583882         0.018302344         0.631631255
     0.718583882         0.018302344         0.881631255
     0.718583882         0.018302344         0.131631285
     0.718583882         0.518302321         0.381631285
     0.718583882         0.518302321         0.631631255
     0.718583882         0.518302321         0.881631255
     0.718583882         0.518302321         0.131631285
     0.051917236         0.018302344         0.381631285
     0.051917236         0.018302344         0.631631255
     0.051917236         0.018302344         0.881631255
     0.051917236         0.018302344         0.131631285
     0.051917236         0.518302321         0.381631285
     0.051917236         0.518302321         0.631631255
     0.051917236         0.518302321         0.881631255
     0.051917236         0.518302321         0.131631285
     0.395323187         0.170381993         0.971511185
     0.395323187         0.170381993         0.221511185
     0.395323187         0.170381993         0.471511185
     0.395323187         0.170381993         0.721511185
     0.395323187         0.670382023         0.971511185
     0.395323187         0.670382023         0.221511185
     0.395323187         0.670382023         0.471511185
     0.395323187         0.670382023         0.721511185
     0.728656530         0.170381993         0.971511185
     0.728656530         0.170381993         0.221511185
     0.728656530         0.170381993         0.471511185
     0.728656530         0.170381993         0.721511185
     0.728656530         0.670382023         0.971511185
     0.728656530         0.670382023         0.221511185
     0.728656530         0.670382023         0.471511185
     0.728656530         0.670382023         0.721511185
     0.061989855         0.170381993         0.971511185
     0.061989855         0.170381993         0.221511185
     0.061989855         0.170381993         0.471511185
     0.061989855         0.170381993         0.721511185
     0.061989855         0.670382023         0.971511185
     0.061989855         0.670382023         0.221511185
     0.061989855         0.670382023         0.471511185
     0.061989855         0.670382023         0.721511185
     0.092342198         0.336218029         0.981001854
     0.092342198         0.336218029         0.231001854
     0.092342198         0.336218029         0.481001854
     0.092342198         0.336218029         0.731001854
     0.092342198         0.836217999         0.981001854
     0.092342198         0.836217999         0.231001854
     0.092342198         0.836217999         0.481001854
     0.092342198         0.836217999         0.731001854
     0.425675541         0.336218029         0.981001854
     0.425675541         0.336218029         0.231001854
     0.425675541         0.336218029         0.481001854
     0.425675541         0.336218029         0.731001854
     0.425675541         0.836217999         0.981001854
     0.425675541         0.836217999         0.231001854
     0.425675541         0.836217999         0.481001854
     0.425675541         0.836217999         0.731001854
     0.759008884         0.336218029         0.981001854
     0.759008884         0.336218029         0.231001854
     0.759008884         0.336218029         0.481001854
     0.759008884         0.336218029         0.731001854
     0.759008884         0.836217999         0.981001854
     0.759008884         0.836217999         0.231001854
     0.759008884         0.836217999         0.481001854
     0.759008884         0.836217999         0.731001854
     0.307814032         0.151338696         0.324916989
     0.307814032         0.151338696         0.574916959
     0.307814032         0.151338696         0.824916959
     0.307814032         0.151338696         0.074916989
     0.307814032         0.651338696         0.324916989
     0.307814032         0.651338696         0.574916959
     0.307814032         0.651338696         0.824916959
     0.307814032         0.651338696         0.074916989
     0.641147375         0.151338696         0.324916989
     0.641147375         0.151338696         0.574916959
     0.641147375         0.151338696         0.824916959
     0.641147375         0.151338696         0.074916989
     0.641147375         0.651338696         0.324916989
     0.641147375         0.651338696         0.574916959
     0.641147375         0.651338696         0.824916959
     0.641147375         0.651338696         0.074916989
     0.974480689         0.151338696         0.324916989
     0.974480689         0.151338696         0.574916959
     0.974480689         0.151338696         0.824916959
     0.974480689         0.151338696         0.074916989
     0.974480689         0.651338696         0.324916989
     0.974480689         0.651338696         0.574916959
     0.974480689         0.651338696         0.824916959
     0.974480689         0.651338696         0.074916989
     0.128639206         0.388760418         0.036895230
     0.128639206         0.388760418         0.286895216
     0.128639206         0.388760418         0.536895216
     0.128639206         0.388760418         0.786895216
     0.128639206         0.888760448         0.036895230
     0.128639206         0.888760448         0.286895216
     0.128639206         0.888760448         0.536895216
     0.128639206         0.888760448         0.786895216
     0.461972535         0.388760418         0.036895230
     0.461972535         0.388760418         0.286895216
     0.461972535         0.388760418         0.536895216
     0.461972535         0.388760418         0.786895216
     0.461972535         0.888760448         0.036895230
     0.461972535         0.888760448         0.286895216
     0.461972535         0.888760448         0.536895216
     0.461972535         0.888760448         0.786895216
     0.795305848         0.388760418         0.036895230
     0.795305848         0.388760418         0.286895216
     0.795305848         0.388760418         0.536895216
     0.795305848         0.388760418         0.786895216
     0.795305848         0.888760448         0.036895230
     0.795305848         0.888760448         0.286895216
     0.795305848         0.888760448         0.536895216
     0.795305848         0.888760448         0.786895216
     0.208839595         0.477600038         0.286958545
     0.208839595         0.477600038         0.536958575
     0.208839595         0.477600038         0.786958575
     0.208839595         0.477600038         0.036958545
     0.208839595         0.977600038         0.286958545
     0.208839595         0.977600038         0.536958575
     0.208839595         0.977600038         0.786958575
     0.208839595         0.977600038         0.036958545
     0.542172909         0.477600038         0.286958545
     0.542172909         0.477600038         0.536958575
     0.542172909         0.477600038         0.786958575
     0.542172909         0.477600038         0.036958545
     0.542172909         0.977600038         0.286958545
     0.542172909         0.977600038         0.536958575
     0.542172909         0.977600038         0.786958575
     0.542172909         0.977600038         0.036958545
     0.875506282         0.477600038         0.286958545
     0.875506282         0.477600038         0.536958575
     0.875506282         0.477600038         0.786958575
     0.875506282         0.477600038         0.036958545
     0.875506282         0.977600038         0.286958545
     0.875506282         0.977600038         0.536958575
     0.875506282         0.977600038         0.786958575
     0.875506282         0.977600038         0.036958545
     0.364496708         0.950682461         0.300734013
     0.364496708         0.950682461         0.550734043
     0.364496708         0.950682461         0.800734043
     0.364496708         0.950682461         0.050734013
     0.364496708         0.450682461         0.300734013
     0.364496708         0.450682461         0.550734043
     0.364496708         0.450682461         0.800734043
     0.364496708         0.450682461         0.050734013
     0.697830021         0.950682461         0.300734013
     0.697830021         0.950682461         0.550734043
     0.697830021         0.950682461         0.800734043
     0.697830021         0.950682461         0.050734013
     0.697830021         0.450682461         0.300734013
     0.697830021         0.450682461         0.550734043
     0.697830021         0.450682461         0.800734043
     0.697830021         0.450682461         0.050734013
     0.031163374         0.950682461         0.300734013
     0.031163374         0.950682461         0.550734043
     0.031163374         0.950682461         0.800734043
     0.031163374         0.950682461         0.050734013
     0.031163374         0.450682461         0.300734013
     0.031163374         0.450682461         0.550734043
     0.031163374         0.450682461         0.800734043
     0.031163374         0.450682461         0.050734013
     0.092303276         0.360257566         0.015283527
     0.092303276         0.360257566         0.265283525
     0.092303276         0.360257566         0.515283525
     0.092303276         0.360257566         0.765283525
     0.092303276         0.860257566         0.015283527
     0.092303276         0.860257566         0.265283525
     0.092303276         0.860257566         0.515283525
     0.092303276         0.860257566         0.765283525
     0.425636619         0.360257566         0.015283527
     0.425636619         0.360257566         0.265283525
     0.425636619         0.360257566         0.515283525
     0.425636619         0.360257566         0.765283525
     0.425636619         0.860257566         0.015283527
     0.425636619         0.860257566         0.265283525
     0.425636619         0.860257566         0.515283525
     0.425636619         0.860257566         0.765283525
     0.758969963         0.360257566         0.015283527
     0.758969963         0.360257566         0.265283525
     0.758969963         0.360257566         0.515283525
     0.758969963         0.360257566         0.765283525
     0.758969963         0.860257566         0.015283527
     0.758969963         0.860257566         0.265283525
     0.758969963         0.860257566         0.515283525
     0.758969963         0.860257566         0.765283525
     0.135908023         0.372715682         0.993642032
     0.135908023         0.372715682         0.243642032
     0.135908023         0.372715682         0.493642032
     0.135908023         0.372715682         0.743642032
     0.135908023         0.872715712         0.993642032
     0.135908023         0.872715712         0.243642032
     0.135908023         0.872715712         0.493642032
     0.135908023         0.872715712         0.743642032
     0.469241351         0.372715682         0.993642032
     0.469241351         0.372715682         0.243642032
     0.469241351         0.372715682         0.493642032
     0.469241351         0.372715682         0.743642032
     0.469241351         0.872715712         0.993642032
     0.469241351         0.872715712         0.243642032
     0.469241351         0.872715712         0.493642032
     0.469241351         0.872715712         0.743642032
     0.802574694         0.372715682         0.993642032
     0.802574694         0.372715682         0.243642032
     0.802574694         0.372715682         0.493642032
     0.802574694         0.372715682         0.743642032
     0.802574694         0.872715712         0.993642032
     0.802574694         0.872715712         0.243642032
     0.802574694         0.872715712         0.493642032
     0.802574694         0.872715712         0.743642032
     0.257445604         0.088830583         0.250797302
     0.257445604         0.088830583         0.500797272
     0.257445604         0.088830583         0.750797272
     0.257445604         0.088830583         0.000797302
     0.257445604         0.588830590         0.250797302
     0.257445604         0.588830590         0.500797272
     0.257445604         0.588830590         0.750797272
     0.257445604         0.588830590         0.000797302
     0.590778947         0.088830583         0.250797302
     0.590778947         0.088830583         0.500797272
     0.590778947         0.088830583         0.750797272
     0.590778947         0.088830583         0.000797302
     0.590778947         0.588830590         0.250797302
     0.590778947         0.588830590         0.500797272
     0.590778947         0.588830590         0.750797272
     0.590778947         0.588830590         0.000797302
     0.924112260         0.088830583         0.250797302
     0.924112260         0.088830583         0.500797272
     0.924112260         0.088830583         0.750797272
     0.924112260         0.088830583         0.000797302
     0.924112260         0.588830590         0.250797302
     0.924112260         0.588830590         0.500797272
     0.924112260         0.588830590         0.750797272
     0.924112260         0.588830590         0.000797302
     0.347000837         0.005441495         0.347476900
     0.347000837         0.005441495         0.597476900
     0.347000837         0.005441495         0.847476900
     0.347000837         0.005441495         0.097476900
     0.347000837         0.505441487         0.347476900
     0.347000837         0.505441487         0.597476900
     0.347000837         0.505441487         0.847476900
     0.347000837         0.505441487         0.097476900
     0.680334151         0.005441495         0.347476900
     0.680334151         0.005441495         0.597476900
     0.680334151         0.005441495         0.847476900
     0.680334151         0.005441495         0.097476900
     0.680334151         0.505441487         0.347476900
     0.680334151         0.505441487         0.597476900
     0.680334151         0.505441487         0.847476900
     0.680334151         0.505441487         0.097476900
     0.013667504         0.005441495         0.347476900
     0.013667504         0.005441495         0.597476900
     0.013667504         0.005441495         0.847476900
     0.013667504         0.005441495         0.097476900
     0.013667504         0.505441487         0.347476900
     0.013667504         0.505441487         0.597476900
     0.013667504         0.505441487         0.847476900
     0.013667504         0.505441487         0.097476900
     0.160392597         0.193188503         0.404554904
     0.160392597         0.193188503         0.654554904
     0.160392597         0.193188503         0.904554904
     0.160392597         0.193188503         0.154554904
     0.160392597         0.693188488         0.404554904
     0.160392597         0.693188488         0.654554904
     0.160392597         0.693188488         0.904554904
     0.160392597         0.693188488         0.154554904
     0.493725926         0.193188503         0.404554904
     0.493725926         0.193188503         0.654554904
     0.493725926         0.193188503         0.904554904
     0.493725926         0.193188503         0.154554904
     0.493725926         0.693188488         0.404554904
     0.493725926         0.693188488         0.654554904
     0.493725926         0.693188488         0.904554904
     0.493725926         0.693188488         0.154554904
     0.827059269         0.193188503         0.404554904
     0.827059269         0.193188503         0.654554904
     0.827059269         0.193188503         0.904554904
     0.827059269         0.193188503         0.154554904
     0.827059269         0.693188488         0.404554904
     0.827059269         0.693188488         0.654554904
     0.827059269         0.693188488         0.904554904
     0.827059269         0.693188488         0.154554904
     0.353790611         0.164839610         0.935418367
     0.353790611         0.164839610         0.185418367
     0.353790611         0.164839610         0.435418367
     0.353790611         0.164839610         0.685418367
     0.353790611         0.664839625         0.935418367
     0.353790611         0.664839625         0.185418367
     0.353790611         0.664839625         0.435418367
     0.353790611         0.664839625         0.685418367
     0.687123954         0.164839610         0.935418367
     0.687123954         0.164839610         0.185418367
     0.687123954         0.164839610         0.435418367
     0.687123954         0.164839610         0.685418367
     0.687123954         0.664839625         0.935418367
     0.687123954         0.664839625         0.185418367
     0.687123954         0.664839625         0.435418367
     0.687123954         0.664839625         0.685418367
     0.020457277         0.164839610         0.935418367
     0.020457277         0.164839610         0.185418367
     0.020457277         0.164839610         0.435418367
     0.020457277         0.164839610         0.685418367
     0.020457277         0.664839625         0.935418367
     0.020457277         0.664839625         0.185418367
     0.020457277         0.664839625         0.435418367
     0.020457277         0.664839625         0.685418367
     0.319876462         0.864728987         0.942661583
     0.319876462         0.864728987         0.192661583
     0.319876462         0.864728987         0.442661583
     0.319876462         0.864728987         0.692661583
     0.319876462         0.364728987         0.942661583
     0.319876462         0.364728987         0.192661583
     0.319876462         0.364728987         0.442661583
     0.319876462         0.364728987         0.692661583
     0.653209805         0.864728987         0.942661583
     0.653209805         0.864728987         0.192661583
     0.653209805         0.864728987         0.442661583
     0.653209805         0.864728987         0.692661583
     0.653209805         0.364728987         0.942661583
     0.653209805         0.364728987         0.192661583
     0.653209805         0.364728987         0.442661583
     0.653209805         0.364728987         0.692661583
     0.986543119         0.864728987         0.942661583
     0.986543119         0.864728987         0.192661583
     0.986543119         0.864728987         0.442661583
     0.986543119         0.864728987         0.692661583
     0.986543119         0.364728987         0.942661583
     0.986543119         0.364728987         0.192661583
     0.986543119         0.364728987         0.442661583
     0.986543119         0.364728987         0.692661583
     0.314621359         0.971656680         0.275648713
     0.314621359         0.971656680         0.525648713
     0.314621359         0.971656680         0.775648713
     0.314621359         0.971656680         0.025648713
     0.314621359         0.471656680         0.275648713
     0.314621359         0.471656680         0.525648713
     0.314621359         0.471656680         0.775648713
     0.314621359         0.471656680         0.025648713
     0.647954702         0.971656680         0.275648713
     0.647954702         0.971656680         0.525648713
     0.647954702         0.971656680         0.775648713
     0.647954702         0.971656680         0.025648713
     0.647954702         0.471656680         0.275648713
     0.647954702         0.471656680         0.525648713
     0.647954702         0.471656680         0.775648713
     0.647954702         0.471656680         0.025648713
     0.981288016         0.971656680         0.275648713
     0.981288016         0.971656680         0.525648713
     0.981288016         0.971656680         0.775648713
     0.981288016         0.971656680         0.025648713
     0.981288016         0.471656680         0.275648713
     0.981288016         0.471656680         0.525648713
     0.981288016         0.471656680         0.775648713
     0.981288016         0.471656680         0.025648713
     0.120747089         0.380700409         0.115294933
     0.120747089         0.380700409         0.365294933
     0.120747089         0.380700409         0.615294933
     0.120747089         0.380700409         0.865294933
     0.120747089         0.880700409         0.115294933
     0.120747089         0.880700409         0.365294933
     0.120747089         0.880700409         0.615294933
     0.120747089         0.880700409         0.865294933
     0.454080433         0.380700409         0.115294933
     0.454080433         0.380700409         0.365294933
     0.454080433         0.380700409         0.615294933
     0.454080433         0.380700409         0.865294933
     0.454080433         0.880700409         0.115294933
     0.454080433         0.880700409         0.365294933
     0.454080433         0.880700409         0.615294933
     0.454080433         0.880700409         0.865294933
     0.787413776         0.380700409         0.115294933
     0.787413776         0.380700409         0.365294933
     0.787413776         0.380700409         0.615294933
     0.787413776         0.380700409         0.865294933
     0.787413776         0.880700409         0.115294933
     0.787413776         0.880700409         0.365294933
     0.787413776         0.880700409         0.615294933
     0.787413776         0.880700409         0.865294933
     0.263525307         0.427330077         0.295373976
     0.263525307         0.427330077         0.545373976
     0.263525307         0.427330077         0.795373976
     0.263525307         0.427330077         0.045373976
     0.263525307         0.927330077         0.295373976
     0.263525307         0.927330077         0.545373976
     0.263525307         0.927330077         0.795373976
     0.263525307         0.927330077         0.045373976
     0.596858621         0.427330077         0.295373976
     0.596858621         0.427330077         0.545373976
     0.596858621         0.427330077         0.795373976
     0.596858621         0.427330077         0.045373976
     0.596858621         0.927330077         0.295373976
     0.596858621         0.927330077         0.545373976
     0.596858621         0.927330077         0.795373976
     0.596858621         0.927330077         0.045373976
     0.930191994         0.427330077         0.295373976
     0.930191994         0.427330077         0.545373976
     0.930191994         0.427330077         0.795373976
     0.930191994         0.427330077         0.045373976
     0.930191994         0.927330077         0.295373976
     0.930191994         0.927330077         0.545373976
     0.930191994         0.927330077         0.795373976
     0.930191994         0.927330077         0.045373976
     0.135290146         0.363606960         0.070750788
     0.135290146         0.363606960         0.320750773
     0.135290146         0.363606960         0.570750773
     0.135290146         0.363606960         0.820750773
     0.135290146         0.863606930         0.070750788
     0.135290146         0.863606930         0.320750773
     0.135290146         0.863606930         0.570750773
     0.135290146         0.863606930         0.820750773
     0.468623489         0.363606960         0.070750788
     0.468623489         0.363606960         0.320750773
     0.468623489         0.363606960         0.570750773
     0.468623489         0.363606960         0.820750773
     0.468623489         0.863606930         0.070750788
     0.468623489         0.863606930         0.320750773
     0.468623489         0.863606930         0.570750773
     0.468623489         0.863606930         0.820750773
     0.801956832         0.363606960         0.070750788
     0.801956832         0.363606960         0.320750773
     0.801956832         0.363606960         0.570750773
     0.801956832         0.363606960         0.820750773
     0.801956832         0.863606930         0.070750788
     0.801956832         0.863606930         0.320750773
     0.801956832         0.863606930         0.570750773
     0.801956832         0.863606930         0.820750773
     0.384519905         0.949864626         0.212573960
     0.384519905         0.949864626         0.462573946
     0.384519905         0.949864626         0.712573946
     0.384519905         0.949864626         0.962573946
     0.384519905         0.449864626         0.212573960
     0.384519905         0.449864626         0.462573946
     0.384519905         0.449864626         0.712573946
     0.384519905         0.449864626         0.962573946
     0.717853248         0.949864626         0.212573960
     0.717853248         0.949864626         0.462573946
     0.717853248         0.949864626         0.712573946
     0.717853248         0.949864626         0.962573946
     0.717853248         0.449864626         0.212573960
     0.717853248         0.449864626         0.462573946
     0.717853248         0.449864626         0.712573946
     0.717853248         0.449864626         0.962573946
     0.051186573         0.949864626         0.212573960
     0.051186573         0.949864626         0.462573946
     0.051186573         0.949864626         0.712573946
     0.051186573         0.949864626         0.962573946
     0.051186573         0.449864626         0.212573960
     0.051186573         0.449864626         0.462573946
     0.051186573         0.449864626         0.712573946
     0.051186573         0.449864626         0.962573946
     0.425879806         0.260802358         0.161469162
     0.425879806         0.260802358         0.411469162
     0.425879806         0.260802358         0.661469162
     0.425879806         0.260802358         0.911469162
     0.425879806         0.760802388         0.161469162
     0.425879806         0.760802388         0.411469162
     0.425879806         0.760802388         0.661469162
     0.425879806         0.760802388         0.911469162
     0.759213150         0.260802358         0.161469162
     0.759213150         0.260802358         0.411469162
     0.759213150         0.260802358         0.661469162
     0.759213150         0.260802358         0.911469162
     0.759213150         0.760802388         0.161469162
     0.759213150         0.760802388         0.411469162
     0.759213150         0.760802388         0.661469162
     0.759213150         0.760802388         0.911469162
     0.092546470         0.260802358         0.161469162
     0.092546470         0.260802358         0.411469162
     0.092546470         0.260802358         0.661469162
     0.092546470         0.260802358         0.911469162
     0.092546470         0.760802388         0.161469162
     0.092546470         0.760802388         0.411469162
     0.092546470         0.760802388         0.661469162
     0.092546470         0.760802388         0.911469162
     0.240340769         0.179103851         0.270797372
     0.240340769         0.179103851         0.520797372
     0.240340769         0.179103851         0.770797372
     0.240340769         0.179103851         0.020797372
     0.240340769         0.679103851         0.270797372
     0.240340769         0.679103851         0.520797372
     0.240340769         0.679103851         0.770797372
     0.240340769         0.679103851         0.020797372
     0.573674083         0.179103851         0.270797372
     0.573674083         0.179103851         0.520797372
     0.573674083         0.179103851         0.770797372
     0.573674083         0.179103851         0.020797372
     0.573674083         0.679103851         0.270797372
     0.573674083         0.679103851         0.520797372
     0.573674083         0.679103851         0.770797372
     0.573674083         0.679103851         0.020797372
     0.907007456         0.179103851         0.270797372
     0.907007456         0.179103851         0.520797372
     0.907007456         0.179103851         0.770797372
     0.907007456         0.179103851         0.020797372
     0.907007456         0.679103851         0.270797372
     0.907007456         0.679103851         0.520797372
     0.907007456         0.679103851         0.770797372
     0.907007456         0.679103851         0.020797372
     0.192687139         0.113107353         0.253947586
     0.192687139         0.113107353         0.503947616
     0.192687139         0.113107353         0.753947616
     0.192687139         0.113107353         0.003947586
     0.192687139         0.613107324         0.253947586
     0.192687139         0.613107324         0.503947616
     0.192687139         0.613107324         0.753947616
     0.192687139         0.613107324         0.003947586
     0.526020467         0.113107353         0.253947586
     0.526020467         0.113107353         0.503947616
     0.526020467         0.113107353         0.753947616
     0.526020467         0.113107353         0.003947586
     0.526020467         0.613107324         0.253947586
     0.526020467         0.613107324         0.503947616
     0.526020467         0.613107324         0.753947616
     0.526020467         0.613107324         0.003947586
     0.859353781         0.113107353         0.253947586
     0.859353781         0.113107353         0.503947616
     0.859353781         0.113107353         0.753947616
     0.859353781         0.113107353         0.003947586
     0.859353781         0.613107324         0.253947586
     0.859353781         0.613107324         0.503947616
     0.859353781         0.613107324         0.753947616
     0.859353781         0.613107324         0.003947586
     0.413080007         0.995349228         0.270608097
     0.413080007         0.995349228         0.520608068
     0.413080007         0.995349228         0.770608068
     0.413080007         0.995349228         0.020608097
     0.413080007         0.495349228         0.270608097
     0.413080007         0.495349228         0.520608068
     0.413080007         0.495349228         0.770608068
     0.413080007         0.495349228         0.020608097
     0.746413350         0.995349228         0.270608097
     0.746413350         0.995349228         0.520608068
     0.746413350         0.995349228         0.770608068
     0.746413350         0.995349228         0.020608097
     0.746413350         0.495349228         0.270608097
     0.746413350         0.495349228         0.520608068
     0.746413350         0.495349228         0.770608068
     0.746413350         0.495349228         0.020608097
     0.079746671         0.995349228         0.270608097
     0.079746671         0.995349228         0.520608068
     0.079746671         0.995349228         0.770608068
     0.079746671         0.995349228         0.020608097
     0.079746671         0.495349228         0.270608097
     0.079746671         0.495349228         0.520608068
     0.079746671         0.495349228         0.770608068
     0.079746671         0.495349228         0.020608097
     0.199147865         0.502472401         0.252276301
     0.199147865         0.502472401         0.502276301
     0.199147865         0.502472401         0.752276301
     0.199147865         0.502472401         0.002276301
     0.199147865         0.002472401         0.252276301
     0.199147865         0.002472401         0.502276301
     0.199147865         0.002472401         0.752276301
     0.199147865         0.002472401         0.002276301
     0.532481194         0.502472401         0.252276301
     0.532481194         0.502472401         0.502276301
     0.532481194         0.502472401         0.752276301
     0.532481194         0.502472401         0.002276301
     0.532481194         0.002472401         0.252276301
     0.532481194         0.002472401         0.502276301
     0.532481194         0.002472401         0.752276301
     0.532481194         0.002472401         0.002276301
     0.865814507         0.502472401         0.252276301
     0.865814507         0.502472401         0.502276301
     0.865814507         0.502472401         0.752276301
     0.865814507         0.502472401         0.002276301
     0.865814507         0.002472401         0.252276301
     0.865814507         0.002472401         0.502276301
     0.865814507         0.002472401         0.752276301
     0.865814507         0.002472401         0.002276301
     0.277244657         0.819599926         0.094376110
     0.277244657         0.819599926         0.344376117
     0.277244657         0.819599926         0.594376087
     0.277244657         0.819599926         0.844376087
     0.277244657         0.319599926         0.094376110
     0.277244657         0.319599926         0.344376117
     0.277244657         0.319599926         0.594376087
     0.277244657         0.319599926         0.844376087
     0.610578001         0.819599926         0.094376110
     0.610578001         0.819599926         0.344376117
     0.610578001         0.819599926         0.594376087
     0.610578001         0.819599926         0.844376087
     0.610578001         0.319599926         0.094376110
     0.610578001         0.319599926         0.344376117
     0.610578001         0.319599926         0.594376087
     0.610578001         0.319599926         0.844376087
     0.943911314         0.819599926         0.094376110
     0.943911314         0.819599926         0.344376117
     0.943911314         0.819599926         0.594376087
     0.943911314         0.819599926         0.844376087
     0.943911314         0.319599926         0.094376110
     0.943911314         0.319599926         0.344376117
     0.943911314         0.319599926         0.594376087
     0.943911314         0.319599926         0.844376087
     0.114391536         0.036751151         0.378971159
     0.114391536         0.036751151         0.628971159
     0.114391536         0.036751151         0.878971159
     0.114391536         0.036751151         0.128971159
     0.114391536         0.536751151         0.378971159
     0.114391536         0.536751151         0.628971159
     0.114391536         0.536751151         0.878971159
     0.114391536         0.536751151         0.128971159
     0.447724879         0.036751151         0.378971159
     0.447724879         0.036751151         0.628971159
     0.447724879         0.036751151         0.878971159
     0.447724879         0.036751151         0.128971159
     0.447724879         0.536751151         0.378971159
     0.447724879         0.536751151         0.628971159
     0.447724879         0.536751151         0.878971159
     0.447724879         0.536751151         0.128971159
     0.781058192         0.036751151         0.378971159
     0.781058192         0.036751151         0.628971159
     0.781058192         0.036751151         0.878971159
     0.781058192         0.036751151         0.128971159
     0.781058192         0.536751151         0.378971159
     0.781058192         0.536751151         0.628971159
     0.781058192         0.536751151         0.878971159
     0.781058192         0.536751151         0.128971159
     0.134321362         0.066005819         0.380709946
     0.134321362         0.066005819         0.630709946
     0.134321362         0.066005819         0.880709946
     0.134321362         0.066005819         0.130709946
     0.134321362         0.566005826         0.380709946
     0.134321362         0.566005826         0.630709946
     0.134321362         0.566005826         0.880709946
     0.134321362         0.566005826         0.130709946
     0.467654705         0.066005819         0.380709946
     0.467654705         0.066005819         0.630709946
     0.467654705         0.066005819         0.880709946
     0.467654705         0.066005819         0.130709946
     0.467654705         0.566005826         0.380709946
     0.467654705         0.566005826         0.630709946
     0.467654705         0.566005826         0.880709946
     0.467654705         0.566005826         0.130709946
     0.800988019         0.066005819         0.380709946
     0.800988019         0.066005819         0.630709946
     0.800988019         0.066005819         0.880709946
     0.800988019         0.066005819         0.130709946
     0.800988019         0.566005826         0.380709946
     0.800988019         0.566005826         0.630709946
     0.800988019         0.566005826         0.880709946
     0.800988019         0.566005826         0.130709946
     0.246981457         0.488859564         0.286572814
     0.246981457         0.488859564         0.536572814
     0.246981457         0.488859564         0.786572814
     0.246981457         0.488859564         0.036572814
     0.246981457         0.988859534         0.286572814
     0.246981457         0.988859534         0.536572814
     0.246981457         0.988859534         0.786572814
     0.246981457         0.988859534         0.036572814
     0.580314815         0.488859564         0.286572814
     0.580314815         0.488859564         0.536572814
     0.580314815         0.488859564         0.786572814
     0.580314815         0.488859564         0.036572814
     0.580314815         0.988859534         0.286572814
     0.580314815         0.988859534         0.536572814
     0.580314815         0.988859534         0.786572814
     0.580314815         0.988859534         0.036572814
     0.913648129         0.488859564         0.286572814
     0.913648129         0.488859564         0.536572814
     0.913648129         0.488859564         0.786572814
     0.913648129         0.488859564         0.036572814
     0.913648129         0.988859534         0.286572814
     0.913648129         0.988859534         0.536572814
     0.913648129         0.988859534         0.786572814
     0.913648129         0.988859534         0.036572814
     0.376553267         0.976618111         0.317918301
     0.376553267         0.976618111         0.567918301
     0.376553267         0.976618111         0.817918301
     0.376553267         0.976618111         0.067918301
     0.376553267         0.476618111         0.317918301
     0.376553267         0.476618111         0.567918301
     0.376553267         0.476618111         0.817918301
     0.376553267         0.476618111         0.067918301
     0.709886611         0.976618111         0.317918301
     0.709886611         0.976618111         0.567918301
     0.709886611         0.976618111         0.817918301
     0.709886611         0.976618111         0.067918301
     0.709886611         0.476618111         0.317918301
     0.709886611         0.476618111         0.567918301
     0.709886611         0.476618111         0.817918301
     0.709886611         0.476618111         0.067918301
     0.043219935         0.976618111         0.317918301
     0.043219935         0.976618111         0.567918301
     0.043219935         0.976618111         0.817918301
     0.043219935         0.976618111         0.067918301
     0.043219935         0.476618111         0.317918301
     0.043219935         0.476618111         0.567918301
     0.043219935         0.476618111         0.817918301
     0.043219935         0.476618111         0.067918301
     0.298620462         0.119183883         0.313014150
     0.298620462         0.119183883         0.563014150
     0.298620462         0.119183883         0.813014150
     0.298620462         0.119183883         0.063014150
     0.298620462         0.619183898         0.313014150
     0.298620462         0.619183898         0.563014150
     0.298620462         0.619183898         0.813014150
     0.298620462         0.619183898         0.063014150
     0.631953776         0.119183883         0.313014150
     0.631953776         0.119183883         0.563014150
     0.631953776         0.119183883         0.813014150
     0.631953776         0.119183883         0.063014150
     0.631953776         0.619183898         0.313014150
     0.631953776         0.619183898         0.563014150
     0.631953776         0.619183898         0.813014150
     0.631953776         0.619183898         0.063014150
     0.965287149         0.119183883         0.313014150
     0.965287149         0.119183883         0.563014150
     0.965287149         0.119183883         0.813014150
     0.965287149         0.119183883         0.063014150
     0.965287149         0.619183898         0.313014150
     0.965287149         0.619183898         0.563014150
     0.965287149         0.619183898         0.813014150
     0.965287149         0.619183898         0.063014150
     0.201231763         0.180761784         0.364791900
     0.201231763         0.180761784         0.614791870
     0.201231763         0.180761784         0.864791870
     0.201231763         0.180761784         0.114791900
     0.201231763         0.680761814         0.364791900
     0.201231763         0.680761814         0.614791870
     0.201231763         0.680761814         0.864791870
     0.201231763         0.680761814         0.114791900
     0.534565091         0.180761784         0.364791900
     0.534565091         0.180761784         0.614791870
     0.534565091         0.180761784         0.864791870
     0.534565091         0.180761784         0.114791900
     0.534565091         0.680761814         0.364791900
     0.534565091         0.680761814         0.614791870
     0.534565091         0.680761814         0.864791870
     0.534565091         0.680761814         0.114791900
     0.867898405         0.180761784         0.364791900
     0.867898405         0.180761784         0.614791870
     0.867898405         0.180761784         0.864791870
     0.867898405         0.180761784         0.114791900
     0.867898405         0.680761814         0.364791900
     0.867898405         0.680761814         0.614791870
     0.867898405         0.680761814         0.864791870
     0.867898405         0.680761814         0.114791900
     0.389668614         0.146205768         0.263316423
     0.389668614         0.146205768         0.513316393
     0.389668614         0.146205768         0.763316393
     0.389668614         0.146205768         0.013316423
     0.389668614         0.646205783         0.263316423
     0.389668614         0.646205783         0.513316393
     0.389668614         0.646205783         0.763316393
     0.389668614         0.646205783         0.013316423
     0.723001957         0.146205768         0.263316423
     0.723001957         0.146205768         0.513316393
     0.723001957         0.146205768         0.763316393
     0.723001957         0.146205768         0.013316423
     0.723001957         0.646205783         0.263316423
     0.723001957         0.646205783         0.513316393
     0.723001957         0.646205783         0.763316393
     0.723001957         0.646205783         0.013316423
     0.056335282         0.146205768         0.263316423
     0.056335282         0.146205768         0.513316393
     0.056335282         0.146205768         0.763316393
     0.056335282         0.146205768         0.013316423
     0.056335282         0.646205783         0.263316423
     0.056335282         0.646205783         0.513316393
     0.056335282         0.646205783         0.763316393
     0.056335282         0.646205783         0.013316423
     0.177348390         0.061096545         0.368860871
     0.177348390         0.061096545         0.618860841
     0.177348390         0.061096545         0.868860841
     0.177348390         0.061096545         0.118860871
     0.177348390         0.561096549         0.368860871
     0.177348390         0.561096549         0.618860841
     0.177348390         0.561096549         0.868860841
     0.177348390         0.561096549         0.118860871
     0.510681748         0.061096545         0.368860871
     0.510681748         0.061096545         0.618860841
     0.510681748         0.061096545         0.868860841
     0.510681748         0.061096545         0.118860871
     0.510681748         0.561096549         0.368860871
     0.510681748         0.561096549         0.618860841
     0.510681748         0.561096549         0.868860841
     0.510681748         0.561096549         0.118860871
     0.844015062         0.061096545         0.368860871
     0.844015062         0.061096545         0.618860841
     0.844015062         0.061096545         0.868860841
     0.844015062         0.061096545         0.118860871
     0.844015062         0.561096549         0.368860871
     0.844015062         0.561096549         0.618860841
     0.844015062         0.561096549         0.868860841
     0.844015062         0.561096549         0.118860871
     0.260065764         0.212537572         0.235702515
     0.260065764         0.212537572         0.485702515
     0.260065764         0.212537572         0.735702515
     0.260065764         0.212537572         0.985702515
     0.260065764         0.712537587         0.235702515
     0.260065764         0.712537587         0.485702515
     0.260065764         0.712537587         0.735702515
     0.260065764         0.712537587         0.985702515
     0.593399107         0.212537572         0.235702515
     0.593399107         0.212537572         0.485702515
     0.593399107         0.212537572         0.735702515
     0.593399107         0.212537572         0.985702515
     0.593399107         0.712537587         0.235702515
     0.593399107         0.712537587         0.485702515
     0.593399107         0.712537587         0.735702515
     0.593399107         0.712537587         0.985702515
     0.926732421         0.212537572         0.235702515
     0.926732421         0.212537572         0.485702515
     0.926732421         0.212537572         0.735702515
     0.926732421         0.212537572         0.985702515
     0.926732421         0.712537587         0.235702515
     0.926732421         0.712537587         0.485702515
     0.926732421         0.712537587         0.735702515
     0.926732421         0.712537587         0.985702515
     0.229650453         0.491171122         0.197923079
     0.229650453         0.491171122         0.447923064
     0.229650453         0.491171122         0.697923064
     0.229650453         0.491171122         0.947923064
     0.229650453         0.991171122         0.197923079
     0.229650453         0.991171122         0.447923064
     0.229650453         0.991171122         0.697923064
     0.229650453         0.991171122         0.947923064
     0.562983811         0.491171122         0.197923079
     0.562983811         0.491171122         0.447923064
     0.562983811         0.491171122         0.697923064
     0.562983811         0.491171122         0.947923064
     0.562983811         0.991171122         0.197923079
     0.562983811         0.991171122         0.447923064
     0.562983811         0.991171122         0.697923064
     0.562983811         0.991171122         0.947923064
     0.896317124         0.491171122         0.197923079
     0.896317124         0.491171122         0.447923064
     0.896317124         0.491171122         0.697923064
     0.896317124         0.491171122         0.947923064
     0.896317124         0.991171122         0.197923079
     0.896317124         0.991171122         0.447923064
     0.896317124         0.991171122         0.697923064
     0.896317124         0.991171122         0.947923064
     0.187918529         0.792388320         0.071493790
     0.187918529         0.792388320         0.321493804
     0.187918529         0.792388320         0.571493804
     0.187918529         0.792388320         0.821493804
     0.187918529         0.292388320         0.071493790
     0.187918529         0.292388320         0.321493804
     0.187918529         0.292388320         0.571493804
     0.187918529         0.292388320         0.821493804
     0.521251857         0.792388320         0.071493790
     0.521251857         0.792388320         0.321493804
     0.521251857         0.792388320         0.571493804
     0.521251857         0.792388320         0.821493804
     0.521251857         0.292388320         0.071493790
     0.521251857         0.292388320         0.321493804
     0.521251857         0.292388320         0.571493804
     0.521251857         0.292388320         0.821493804
     0.854585171         0.792388320         0.071493790
     0.854585171         0.792388320         0.321493804
     0.854585171         0.792388320         0.571493804
     0.854585171         0.792388320         0.821493804
     0.854585171         0.292388320         0.071493790
     0.854585171         0.292388320         0.321493804
     0.854585171         0.292388320         0.571493804
     0.854585171         0.292388320         0.821493804
     0.169869229         0.264638901         0.948002458
     0.169869229         0.264638901         0.198002458
     0.169869229         0.264638901         0.448002458
     0.169869229         0.264638901         0.698002458
     0.169869229         0.764638901         0.948002458
     0.169869229         0.764638901         0.198002458
     0.169869229         0.764638901         0.448002458
     0.169869229         0.764638901         0.698002458
     0.503202558         0.264638901         0.948002458
     0.503202558         0.264638901         0.198002458
     0.503202558         0.264638901         0.448002458
     0.503202558         0.264638901         0.698002458
     0.503202558         0.764638901         0.948002458
     0.503202558         0.764638901         0.198002458
     0.503202558         0.764638901         0.448002458
     0.503202558         0.764638901         0.698002458
     0.836535871         0.264638901         0.948002458
     0.836535871         0.264638901         0.198002458
     0.836535871         0.264638901         0.448002458
     0.836535871         0.264638901         0.698002458
     0.836535871         0.764638901         0.948002458
     0.836535871         0.764638901         0.198002458
     0.836535871         0.764638901         0.448002458
     0.836535871         0.764638901         0.698002458
     0.240525171         0.517655313         0.157504171
     0.240525171         0.517655313         0.407504171
     0.240525171         0.517655313         0.657504201
     0.240525171         0.517655313         0.907504201
     0.240525171         0.017655313         0.157504171
     0.240525171         0.017655313         0.407504171
     0.240525171         0.017655313         0.657504201
     0.240525171         0.017655313         0.907504201
     0.573858500         0.517655313         0.157504171
     0.573858500         0.517655313         0.407504171
     0.573858500         0.517655313         0.657504201
     0.573858500         0.517655313         0.907504201
     0.573858500         0.017655313         0.157504171
     0.573858500         0.017655313         0.407504171
     0.573858500         0.017655313         0.657504201
     0.573858500         0.017655313         0.907504201
     0.907191813         0.517655313         0.157504171
     0.907191813         0.517655313         0.407504171
     0.907191813         0.517655313         0.657504201
     0.907191813         0.517655313         0.907504201
     0.907191813         0.017655313         0.157504171
     0.907191813         0.017655313         0.407504171
     0.907191813         0.017655313         0.657504201
     0.907191813         0.017655313         0.907504201
     0.133241877         0.285347700         0.983614862
     0.133241877         0.285347700         0.233614862
     0.133241877         0.285347700         0.483614862
     0.133241877         0.285347700         0.733614862
     0.133241877         0.785347700         0.983614862
     0.133241877         0.785347700         0.233614862
     0.133241877         0.785347700         0.483614862
     0.133241877         0.785347700         0.733614862
     0.466575205         0.285347700         0.983614862
     0.466575205         0.285347700         0.233614862
     0.466575205         0.285347700         0.483614862
     0.466575205         0.285347700         0.733614862
     0.466575205         0.785347700         0.983614862
     0.466575205         0.785347700         0.233614862
     0.466575205         0.785347700         0.483614862
     0.466575205         0.785347700         0.733614862
     0.799908519         0.285347700         0.983614862
     0.799908519         0.285347700         0.233614862
     0.799908519         0.285347700         0.483614862
     0.799908519         0.285347700         0.733614862
     0.799908519         0.785347700         0.983614862
     0.799908519         0.785347700         0.233614862
     0.799908519         0.785347700         0.483614862
     0.799908519         0.785347700         0.733614862
     0.290982544         0.835150003         0.967320919
     0.290982544         0.835150003         0.217320919
     0.290982544         0.835150003         0.467320919
     0.290982544         0.835150003         0.717320919
     0.290982544         0.335150003         0.967320919
     0.290982544         0.335150003         0.217320919
     0.290982544         0.335150003         0.467320919
     0.290982544         0.335150003         0.717320919
     0.624315858         0.835150003         0.967320919
     0.624315858         0.835150003         0.217320919
     0.624315858         0.835150003         0.467320919
     0.624315858         0.835150003         0.717320919
     0.624315858         0.335150003         0.967320919
     0.624315858         0.335150003         0.217320919
     0.624315858         0.335150003         0.467320919
     0.624315858         0.335150003         0.717320919
     0.957649231         0.835150003         0.967320919
     0.957649231         0.835150003         0.217320919
     0.957649231         0.835150003         0.467320919
     0.957649231         0.835150003         0.717320919
     0.957649231         0.335150003         0.967320919
     0.957649231         0.335150003         0.217320919
     0.957649231         0.335150003         0.467320919
     0.957649231         0.335150003         0.717320919
     0.229925975         0.839255452         0.068706334
     0.229925975         0.839255452         0.318706334
     0.229925975         0.839255452         0.568706334
     0.229925975         0.839255452         0.818706334
     0.229925975         0.339255452         0.068706334
     0.229925975         0.339255452         0.318706334
     0.229925975         0.339255452         0.568706334
     0.229925975         0.339255452         0.818706334
     0.563259304         0.839255452         0.068706334
     0.563259304         0.839255452         0.318706334
     0.563259304         0.839255452         0.568706334
     0.563259304         0.839255452         0.818706334
     0.563259304         0.339255452         0.068706334
     0.563259304         0.339255452         0.318706334
     0.563259304         0.339255452         0.568706334
     0.563259304         0.339255452         0.818706334
     0.896592617         0.839255452         0.068706334
     0.896592617         0.839255452         0.318706334
     0.896592617         0.839255452         0.568706334
     0.896592617         0.839255452         0.818706334
     0.896592617         0.339255452         0.068706334
     0.896592617         0.339255452         0.318706334
     0.896592617         0.339255452         0.568706334
     0.896592617         0.339255452         0.818706334
     0.408441931         0.251310021         0.105371885
     0.408441931         0.251310021         0.355371892
     0.408441931         0.251310021         0.605371892
     0.408441931         0.251310021         0.855371892
     0.408441931         0.751309991         0.105371885
     0.408441931         0.751309991         0.355371892
     0.408441931         0.751309991         0.605371892
     0.408441931         0.751309991         0.855371892
     0.741775274         0.251310021         0.105371885
     0.741775274         0.251310021         0.355371892
     0.741775274         0.251310021         0.605371892
     0.741775274         0.251310021         0.855371892
     0.741775274         0.751309991         0.105371885
     0.741775274         0.751309991         0.355371892
     0.741775274         0.751309991         0.605371892
     0.741775274         0.751309991         0.855371892
     0.075108595         0.251310021         0.105371885
     0.075108595         0.251310021         0.355371892
     0.075108595         0.251310021         0.605371892
     0.075108595         0.251310021         0.855371892
     0.075108595         0.751309991         0.105371885
     0.075108595         0.751309991         0.355371892
     0.075108595         0.751309991         0.605371892
     0.075108595         0.751309991         0.855371892
     0.100251533         0.204070091         0.054530691
     0.100251533         0.204070091         0.304530680
     0.100251533         0.204070091         0.554530680
     0.100251533         0.204070091         0.804530680
     0.100251533         0.704070091         0.054530691
     0.100251533         0.704070091         0.304530680
     0.100251533         0.704070091         0.554530680
     0.100251533         0.704070091         0.804530680
     0.433584869         0.204070091         0.054530691
     0.433584869         0.204070091         0.304530680
     0.433584869         0.204070091         0.554530680
     0.433584869         0.204070091         0.804530680
     0.433584869         0.704070091         0.054530691
     0.433584869         0.704070091         0.304530680
     0.433584869         0.704070091         0.554530680
     0.433584869         0.704070091         0.804530680
     0.766918182         0.204070091         0.054530691
     0.766918182         0.204070091         0.304530680
     0.766918182         0.204070091         0.554530680
     0.766918182         0.204070091         0.804530680
     0.766918182         0.704070091         0.054530691
     0.766918182         0.704070091         0.304530680
     0.766918182         0.704070091         0.554530680
     0.766918182         0.704070091         0.804530680
     0.126190796         0.311863601         0.953066766
     0.126190796         0.311863601         0.203066766
     0.126190796         0.311863601         0.453066766
     0.126190796         0.311863601         0.703066766
     0.126190796         0.811863601         0.953066766
     0.126190796         0.811863601         0.203066766
     0.126190796         0.811863601         0.453066766
     0.126190796         0.811863601         0.703066766
     0.459524125         0.311863601         0.953066766
     0.459524125         0.311863601         0.203066766
     0.459524125         0.311863601         0.453066766
     0.459524125         0.311863601         0.703066766
     0.459524125         0.811863601         0.953066766
     0.459524125         0.811863601         0.203066766
     0.459524125         0.811863601         0.453066766
     0.459524125         0.811863601         0.703066766
     0.792857468         0.311863601         0.953066766
     0.792857468         0.311863601         0.203066766
     0.792857468         0.311863601         0.453066766
     0.792857468         0.311863601         0.703066766
     0.792857468         0.811863601         0.953066766
     0.792857468         0.811863601         0.203066766
     0.792857468         0.811863601         0.453066766
     0.792857468         0.811863601         0.703066766
     0.224431083         0.117642745         0.267951548
     0.224431083         0.117642745         0.517951548
     0.224431083         0.117642745         0.767951548
     0.224431083         0.117642745         0.017951548
     0.224431083         0.617642760         0.267951548
     0.224431083         0.617642760         0.517951548
     0.224431083         0.617642760         0.767951548
     0.224431083         0.617642760         0.017951548
     0.557764411         0.117642745         0.267951548
     0.557764411         0.117642745         0.517951548
     0.557764411         0.117642745         0.767951548
     0.557764411         0.117642745         0.017951548
     0.557764411         0.617642760         0.267951548
     0.557764411         0.617642760         0.517951548
     0.557764411         0.617642760         0.767951548
     0.557764411         0.617642760         0.017951548
     0.891097724         0.117642745         0.267951548
     0.891097724         0.117642745         0.517951548
     0.891097724         0.117642745         0.767951548
     0.891097724         0.117642745         0.017951548
     0.891097724         0.617642760         0.267951548
     0.891097724         0.617642760         0.517951548
     0.891097724         0.617642760         0.767951548
     0.891097724         0.617642760         0.017951548
     0.245942295         0.152942225         0.240241602
     0.245942295         0.152942225         0.490241587
     0.245942295         0.152942225         0.740241587
     0.245942295         0.152942225         0.990241587
     0.245942295         0.652942240         0.240241602
     0.245942295         0.652942240         0.490241587
     0.245942295         0.652942240         0.740241587
     0.245942295         0.652942240         0.990241587
     0.579275608         0.152942225         0.240241602
     0.579275608         0.152942225         0.490241587
     0.579275608         0.152942225         0.740241587
     0.579275608         0.152942225         0.990241587
     0.579275608         0.652942240         0.240241602
     0.579275608         0.652942240         0.490241587
     0.579275608         0.652942240         0.740241587
     0.579275608         0.652942240         0.990241587
     0.912608981         0.152942225         0.240241602
     0.912608981         0.152942225         0.490241587
     0.912608981         0.152942225         0.740241587
     0.912608981         0.152942225         0.990241587
     0.912608981         0.652942240         0.240241602
     0.912608981         0.652942240         0.490241587
     0.912608981         0.652942240         0.740241587
     0.912608981         0.652942240         0.990241587
     0.379664809         0.326497585         0.004025150
     0.379664809         0.326497585         0.254025161
     0.379664809         0.326497585         0.504025161
     0.379664809         0.326497585         0.754025161
     0.379664809         0.826497555         0.004025150
     0.379664809         0.826497555         0.254025161
     0.379664809         0.826497555         0.504025161
     0.379664809         0.826497555         0.754025161
     0.712998152         0.326497585         0.004025150
     0.712998152         0.326497585         0.254025161
     0.712998152         0.326497585         0.504025161
     0.712998152         0.326497585         0.754025161
     0.712998152         0.826497555         0.004025150
     0.712998152         0.826497555         0.254025161
     0.712998152         0.826497555         0.504025161
     0.712998152         0.826497555         0.754025161
     0.046331476         0.326497585         0.004025150
     0.046331476         0.326497585         0.254025161
     0.046331476         0.326497585         0.504025161
     0.046331476         0.326497585         0.754025161
     0.046331476         0.826497555         0.004025150
     0.046331476         0.826497555         0.254025161
     0.046331476         0.826497555         0.504025161
     0.046331476         0.826497555         0.754025161
     0.249482676         0.188692436         0.387896180
     0.249482676         0.188692436         0.637896180
     0.249482676         0.188692436         0.887896180
     0.249482676         0.188692436         0.137896180
     0.249482676         0.688692451         0.387896180
     0.249482676         0.688692451         0.637896180
     0.249482676         0.688692451         0.887896180
     0.249482676         0.688692451         0.137896180
     0.582816005         0.188692436         0.387896180
     0.582816005         0.188692436         0.637896180
     0.582816005         0.188692436         0.887896180
     0.582816005         0.188692436         0.137896180
     0.582816005         0.688692451         0.387896180
     0.582816005         0.688692451         0.637896180
     0.582816005         0.688692451         0.887896180
     0.582816005         0.688692451         0.137896180
     0.916149318         0.188692436         0.387896180
     0.916149318         0.188692436         0.637896180
     0.916149318         0.188692436         0.887896180
     0.916149318         0.188692436         0.137896180
     0.916149318         0.688692451         0.387896180
     0.916149318         0.688692451         0.637896180
     0.916149318         0.688692451         0.887896180
     0.916149318         0.688692451         0.137896180
     0.188546076         0.828171611         0.077250861
     0.188546076         0.828171611         0.327250868
     0.188546076         0.828171611         0.577250838
     0.188546076         0.828171611         0.827250838
     0.188546076         0.328171611         0.077250861
     0.188546076         0.328171611         0.327250868
     0.188546076         0.328171611         0.577250838
     0.188546076         0.328171611         0.827250838
     0.521879435         0.828171611         0.077250861
     0.521879435         0.828171611         0.327250868
     0.521879435         0.828171611         0.577250838
     0.521879435         0.828171611         0.827250838
     0.521879435         0.328171611         0.077250861
     0.521879435         0.328171611         0.327250868
     0.521879435         0.328171611         0.577250838
     0.521879435         0.328171611         0.827250838
     0.855212748         0.828171611         0.077250861
     0.855212748         0.828171611         0.327250868
     0.855212748         0.828171611         0.577250838
     0.855212748         0.828171611         0.827250838
     0.855212748         0.328171611         0.077250861
     0.855212748         0.328171611         0.327250868
     0.855212748         0.328171611         0.577250838
     0.855212748         0.328171611         0.827250838
     0.406507134         0.235758722         0.150662407
     0.406507134         0.235758722         0.400662422
     0.406507134         0.235758722         0.650662422
     0.406507134         0.235758722         0.900662422
     0.406507134         0.735758722         0.150662407
     0.406507134         0.735758722         0.400662422
     0.406507134         0.735758722         0.650662422
     0.406507134         0.735758722         0.900662422
     0.739840448         0.235758722         0.150662407
     0.739840448         0.235758722         0.400662422
     0.739840448         0.235758722         0.650662422
     0.739840448         0.235758722         0.900662422
     0.739840448         0.735758722         0.150662407
     0.739840448         0.735758722         0.400662422
     0.739840448         0.735758722         0.650662422
     0.739840448         0.735758722         0.900662422
     0.073173799         0.235758722         0.150662407
     0.073173799         0.235758722         0.400662422
     0.073173799         0.235758722         0.650662422
     0.073173799         0.235758722         0.900662422
     0.073173799         0.735758722         0.150662407
     0.073173799         0.735758722         0.400662422
     0.073173799         0.735758722         0.650662422
     0.073173799         0.735758722         0.900662422
     0.363361388         0.183800712         0.964409947
     0.363361388         0.183800712         0.214409947
     0.363361388         0.183800712         0.464409947
     0.363361388         0.183800712         0.714409947
     0.363361388         0.683800697         0.964409947
     0.363361388         0.683800697         0.214409947
     0.363361388         0.683800697         0.464409947
     0.363361388         0.683800697         0.714409947
     0.696694732         0.183800712         0.964409947
     0.696694732         0.183800712         0.214409947
     0.696694732         0.183800712         0.464409947
     0.696694732         0.183800712         0.714409947
     0.696694732         0.683800697         0.964409947
     0.696694732         0.683800697         0.214409947
     0.696694732         0.683800697         0.464409947
     0.696694732         0.683800697         0.714409947
     0.030028054         0.183800712         0.964409947
     0.030028054         0.183800712         0.214409947
     0.030028054         0.183800712         0.464409947
     0.030028054         0.183800712         0.714409947
     0.030028054         0.683800697         0.964409947
     0.030028054         0.683800697         0.214409947
     0.030028054         0.683800697         0.464409947
     0.030028054         0.683800697         0.714409947
     0.178061590         0.850456595         0.043166164
     0.178061590         0.850456595         0.293166161
     0.178061590         0.850456595         0.543166161
     0.178061590         0.850456595         0.793166161
     0.178061590         0.350456595         0.043166164
     0.178061590         0.350456595         0.293166161
     0.178061590         0.350456595         0.543166161
     0.178061590         0.350456595         0.793166161
     0.511394918         0.850456595         0.043166164
     0.511394918         0.850456595         0.293166161
     0.511394918         0.850456595         0.543166161
     0.511394918         0.850456595         0.793166161
     0.511394918         0.350456595         0.043166164
     0.511394918         0.350456595         0.293166161
     0.511394918         0.350456595         0.543166161
     0.511394918         0.350456595         0.793166161
     0.844728231         0.850456595         0.043166164
     0.844728231         0.850456595         0.293166161
     0.844728231         0.850456595         0.543166161
     0.844728231         0.850456595         0.793166161
     0.844728231         0.350456595         0.043166164
     0.844728231         0.350456595         0.293166161
     0.844728231         0.350456595         0.543166161
     0.844728231         0.350456595         0.793166161
     0.278345942         0.216901183         0.377490759
     0.278345942         0.216901183         0.627490759
     0.278345942         0.216901183         0.877490759
     0.278345942         0.216901183         0.127490759
     0.278345942         0.716901183         0.377490759
     0.278345942         0.716901183         0.627490759
     0.278345942         0.716901183         0.877490759
     0.278345942         0.716901183         0.127490759
     0.611679256         0.216901183         0.377490759
     0.611679256         0.216901183         0.627490759
     0.611679256         0.216901183         0.877490759
     0.611679256         0.216901183         0.127490759
     0.611679256         0.716901183         0.377490759
     0.611679256         0.716901183         0.627490759
     0.611679256         0.716901183         0.877490759
     0.611679256         0.716901183         0.127490759
     0.945012629         0.216901183         0.377490759
     0.945012629         0.216901183         0.627490759
     0.945012629         0.216901183         0.877490759
     0.945012629         0.216901183         0.127490759
     0.945012629         0.716901183         0.377490759
     0.945012629         0.716901183         0.627490759
     0.945012629         0.716901183         0.877490759
     0.945012629         0.716901183         0.127490759
     0.322480768         0.054077547         0.392769009
     0.322480768         0.054077547         0.642768979
     0.322480768         0.054077547         0.892768979
     0.322480768         0.054077547         0.142769009
     0.322480768         0.554077566         0.392769009
     0.322480768         0.554077566         0.642768979
     0.322480768         0.554077566         0.892768979
     0.322480768         0.554077566         0.142769009
     0.655814111         0.054077547         0.392769009
     0.655814111         0.054077547         0.642768979
     0.655814111         0.054077547         0.892768979
     0.655814111         0.054077547         0.142769009
     0.655814111         0.554077566         0.392769009
     0.655814111         0.554077566         0.642768979
     0.655814111         0.554077566         0.892768979
     0.655814111         0.554077566         0.142769009
     0.989147425         0.054077547         0.392769009
     0.989147425         0.054077547         0.642768979
     0.989147425         0.054077547         0.892768979
     0.989147425         0.054077547         0.142769009
     0.989147425         0.554077566         0.392769009
     0.989147425         0.554077566         0.642768979
     0.989147425         0.554077566         0.892768979
     0.989147425         0.554077566         0.142769009
     0.069814391         0.043180212         0.397369623
     0.069814391         0.043180212         0.647369623
     0.069814391         0.043180212         0.897369623
     0.069814391         0.043180212         0.147369623
     0.069814391         0.543180227         0.397369623
     0.069814391         0.543180227         0.647369623
     0.069814391         0.543180227         0.897369623
     0.069814391         0.543180227         0.147369623
     0.403147727         0.043180212         0.397369623
     0.403147727         0.043180212         0.647369623
     0.403147727         0.043180212         0.897369623
     0.403147727         0.043180212         0.147369623
     0.403147727         0.543180227         0.397369623
     0.403147727         0.543180227         0.647369623
     0.403147727         0.543180227         0.897369623
     0.403147727         0.543180227         0.147369623
     0.736481071         0.043180212         0.397369623
     0.736481071         0.043180212         0.647369623
     0.736481071         0.043180212         0.897369623
     0.736481071         0.043180212         0.147369623
     0.736481071         0.543180227         0.397369623
     0.736481071         0.543180227         0.647369623
     0.736481071         0.543180227         0.897369623
     0.736481071         0.543180227         0.147369623
     0.260138631         0.811970294         0.065447211
     0.260138631         0.811970294         0.315447211
     0.260138631         0.811970294         0.565447211
     0.260138631         0.811970294         0.815447211
     0.260138631         0.311970294         0.065447211
     0.260138631         0.311970294         0.315447211
     0.260138631         0.311970294         0.565447211
     0.260138631         0.311970294         0.815447211
     0.593471944         0.811970294         0.065447211
     0.593471944         0.811970294         0.315447211
     0.593471944         0.811970294         0.565447211
     0.593471944         0.811970294         0.815447211
     0.593471944         0.311970294         0.065447211
     0.593471944         0.311970294         0.315447211
     0.593471944         0.311970294         0.565447211
     0.593471944         0.311970294         0.815447211
     0.926805317         0.811970294         0.065447211
     0.926805317         0.811970294         0.315447211
     0.926805317         0.811970294         0.565447211
     0.926805317         0.811970294         0.815447211
     0.926805317         0.311970294         0.065447211
     0.926805317         0.311970294         0.315447211
     0.926805317         0.311970294         0.565447211
     0.926805317         0.311970294         0.815447211
     0.359458566         0.032977976         0.362147212
     0.359458566         0.032977976         0.612147212
     0.359458566         0.032977976         0.862147212
     0.359458566         0.032977976         0.112147212
     0.359458566         0.532977998         0.362147212
     0.359458566         0.532977998         0.612147212
     0.359458566         0.532977998         0.862147212
     0.359458566         0.532977998         0.112147212
     0.692791879         0.032977976         0.362147212
     0.692791879         0.032977976         0.612147212
     0.692791879         0.032977976         0.862147212
     0.692791879         0.032977976         0.112147212
     0.692791879         0.532977998         0.362147212
     0.692791879         0.532977998         0.612147212
     0.692791879         0.532977998         0.862147212
     0.692791879         0.532977998         0.112147212
     0.026125232         0.032977976         0.362147212
     0.026125232         0.032977976         0.612147212
     0.026125232         0.032977976         0.862147212
     0.026125232         0.032977976         0.112147212
     0.026125232         0.532977998         0.362147212
     0.026125232         0.532977998         0.612147212
     0.026125232         0.532977998         0.862147212
     0.026125232         0.532977998         0.112147212
     0.439314008         0.239922568         0.052268010
     0.439314008         0.239922568         0.302267998
     0.439314008         0.239922568         0.552268028
     0.439314008         0.239922568         0.802268028
     0.439314008         0.739922583         0.052268010
     0.439314008         0.739922583         0.302267998
     0.439314008         0.739922583         0.552268028
     0.439314008         0.739922583         0.802268028
     0.772647321         0.239922568         0.052268010
     0.772647321         0.239922568         0.302267998
     0.772647321         0.239922568         0.552268028
     0.772647321         0.239922568         0.802268028
     0.772647321         0.739922583         0.052268010
     0.772647321         0.739922583         0.302267998
     0.772647321         0.739922583         0.552268028
     0.772647321         0.739922583         0.802268028
     0.105980672         0.239922568         0.052268010
     0.105980672         0.239922568         0.302267998
     0.105980672         0.239922568         0.552268028
     0.105980672         0.239922568         0.802268028
     0.105980672         0.739922583         0.052268010
     0.105980672         0.739922583         0.302267998
     0.105980672         0.739922583         0.552268028
     0.105980672         0.739922583         0.802268028
     0.216183543         0.459082276         0.192453548
     0.216183543         0.459082276         0.442453563
     0.216183543         0.459082276         0.692453563
     0.216183543         0.459082276         0.942453563
     0.216183543         0.959082246         0.192453548
     0.216183543         0.959082246         0.442453563
     0.216183543         0.959082246         0.692453563
     0.216183543         0.959082246         0.942453563
     0.549516857         0.459082276         0.192453548
     0.549516857         0.459082276         0.442453563
     0.549516857         0.459082276         0.692453563
     0.549516857         0.459082276         0.942453563
     0.549516857         0.959082246         0.192453548
     0.549516857         0.959082246         0.442453563
     0.549516857         0.959082246         0.692453563
     0.549516857         0.959082246         0.942453563
     0.882850230         0.459082276         0.192453548
     0.882850230         0.459082276         0.442453563
     0.882850230         0.459082276         0.692453563
     0.882850230         0.459082276         0.942453563
     0.882850230         0.959082246         0.192453548
     0.882850230         0.959082246         0.442453563
     0.882850230         0.959082246         0.692453563
     0.882850230         0.959082246         0.942453563
     0.253166139         0.131298810         0.397194058
     0.253166139         0.131298810         0.647194028
     0.253166139         0.131298810         0.897194028
     0.253166139         0.131298810         0.147194058
     0.253166139         0.631298780         0.397194058
     0.253166139         0.631298780         0.647194028
     0.253166139         0.631298780         0.897194028
     0.253166139         0.631298780         0.147194058
     0.586499453         0.131298810         0.397194058
     0.586499453         0.131298810         0.647194028
     0.586499453         0.131298810         0.897194028
     0.586499453         0.131298810         0.147194058
     0.586499453         0.631298780         0.397194058
     0.586499453         0.631298780         0.647194028
     0.586499453         0.631298780         0.897194028
     0.586499453         0.631298780         0.147194058
     0.919832826         0.131298810         0.397194058
     0.919832826         0.131298810         0.647194028
     0.919832826         0.131298810         0.897194028
     0.919832826         0.131298810         0.147194058
     0.919832826         0.631298780         0.397194058
     0.919832826         0.631298780         0.647194028
     0.919832826         0.631298780         0.897194028
     0.919832826         0.631298780         0.147194058
     0.201524258         0.056598574         0.332163334
     0.201524258         0.056598574         0.582163334
     0.201524258         0.056598574         0.832163334
     0.201524258         0.056598574         0.082163334
     0.201524258         0.556598544         0.332163334
     0.201524258         0.556598544         0.582163334
     0.201524258         0.556598544         0.832163334
     0.201524258         0.556598544         0.082163334
     0.534857571         0.056598574         0.332163334
     0.534857571         0.056598574         0.582163334
     0.534857571         0.056598574         0.832163334
     0.534857571         0.056598574         0.082163334
     0.534857571         0.556598544         0.332163334
     0.534857571         0.556598544         0.582163334
     0.534857571         0.556598544         0.832163334
     0.534857571         0.556598544         0.082163334
     0.868190944         0.056598574         0.332163334
     0.868190944         0.056598574         0.582163334
     0.868190944         0.056598574         0.832163334
     0.868190944         0.056598574         0.082163334
     0.868190944         0.556598544         0.332163334
     0.868190944         0.556598544         0.582163334
     0.868190944         0.556598544         0.832163334
     0.868190944         0.556598544         0.082163334
     0.301829964         0.206684902         0.381041765
     0.301829964         0.206684902         0.631041765
     0.301829964         0.206684902         0.881041765
     0.301829964         0.206684902         0.131041765
     0.301829964         0.706684887         0.381041765
     0.301829964         0.706684887         0.631041765
     0.301829964         0.706684887         0.881041765
     0.301829964         0.706684887         0.131041765
     0.635163307         0.206684902         0.381041765
     0.635163307         0.206684902         0.631041765
     0.635163307         0.206684902         0.881041765
     0.635163307         0.206684902         0.131041765
     0.635163307         0.706684887         0.381041765
     0.635163307         0.706684887         0.631041765
     0.635163307         0.706684887         0.881041765
     0.635163307         0.706684887         0.131041765
     0.968496621         0.206684902         0.381041765
     0.968496621         0.206684902         0.631041765
     0.968496621         0.206684902         0.881041765
     0.968496621         0.206684902         0.131041765
     0.968496621         0.706684887         0.381041765
     0.968496621         0.706684887         0.631041765
     0.968496621         0.706684887         0.881041765
     0.968496621         0.706684887         0.131041765
     0.337268800         0.937227190         0.335351110
     0.337268800         0.937227190         0.585351110
     0.337268800         0.937227190         0.835351110
     0.337268800         0.937227190         0.085351110
     0.337268800         0.437227190         0.335351110
     0.337268800         0.437227190         0.585351110
     0.337268800         0.437227190         0.835351110
     0.337268800         0.437227190         0.085351110
     0.670602143         0.937227190         0.335351110
     0.670602143         0.937227190         0.585351110
     0.670602143         0.937227190         0.835351110
     0.670602143         0.937227190         0.085351110
     0.670602143         0.437227190         0.335351110
     0.670602143         0.437227190         0.585351110
     0.670602143         0.437227190         0.835351110
     0.670602143         0.437227190         0.085351110
     0.003935466         0.937227190         0.335351110
     0.003935466         0.937227190         0.585351110
     0.003935466         0.937227190         0.835351110
     0.003935466         0.937227190         0.085351110
     0.003935466         0.437227190         0.335351110
     0.003935466         0.437227190         0.585351110
     0.003935466         0.437227190         0.835351110
     0.003935466         0.437227190         0.085351110
     0.370585173         0.998078763         0.409549057
     0.370585173         0.998078763         0.659549057
     0.370585173         0.998078763         0.909549057
     0.370585173         0.998078763         0.159549057
     0.370585173         0.498078763         0.409549057
     0.370585173         0.498078763         0.659549057
     0.370585173         0.498078763         0.909549057
     0.370585173         0.498078763         0.159549057
     0.703918517         0.998078763         0.409549057
     0.703918517         0.998078763         0.659549057
     0.703918517         0.998078763         0.909549057
     0.703918517         0.998078763         0.159549057
     0.703918517         0.498078763         0.409549057
     0.703918517         0.498078763         0.659549057
     0.703918517         0.498078763         0.909549057
     0.703918517         0.498078763         0.159549057
     0.037251841         0.998078763         0.409549057
     0.037251841         0.998078763         0.659549057
     0.037251841         0.998078763         0.909549057
     0.037251841         0.998078763         0.159549057
     0.037251841         0.498078763         0.409549057
     0.037251841         0.498078763         0.659549057
     0.037251841         0.498078763         0.909549057
     0.037251841         0.498078763         0.159549057
     0.332667053         0.015842313         0.327345610
     0.332667053         0.015842313         0.577345610
     0.332667053         0.015842313         0.827345610
     0.332667053         0.015842313         0.077345610
     0.332667053         0.515842319         0.327345610
     0.332667053         0.515842319         0.577345610
     0.332667053         0.515842319         0.827345610
     0.332667053         0.515842319         0.077345610
     0.666000366         0.015842313         0.327345610
     0.666000366         0.015842313         0.577345610
     0.666000366         0.015842313         0.827345610
     0.666000366         0.015842313         0.077345610
     0.666000366         0.515842319         0.327345610
     0.666000366         0.515842319         0.577345610
     0.666000366         0.515842319         0.827345610
     0.666000366         0.515842319         0.077345610
     0.999333739         0.015842313         0.327345610
     0.999333739         0.015842313         0.577345610
     0.999333739         0.015842313         0.827345610
     0.999333739         0.015842313         0.077345610
     0.999333739         0.515842319         0.327345610
     0.999333739         0.515842319         0.577345610
     0.999333739         0.515842319         0.827345610
     0.999333739         0.515842319         0.077345610
     0.322996020         0.073563762         0.410980612
     0.322996020         0.073563762         0.660980582
     0.322996020         0.073563762         0.910980582
     0.322996020         0.073563762         0.160980612
     0.322996020         0.573563755         0.410980612
     0.322996020         0.573563755         0.660980582
     0.322996020         0.573563755         0.910980582
     0.322996020         0.573563755         0.160980612
     0.656329334         0.073563762         0.410980612
     0.656329334         0.073563762         0.660980582
     0.656329334         0.073563762         0.910980582
     0.656329334         0.073563762         0.160980612
     0.656329334         0.573563755         0.410980612
     0.656329334         0.573563755         0.660980582
     0.656329334         0.573563755         0.910980582
     0.656329334         0.573563755         0.160980612
     0.989662707         0.073563762         0.410980612
     0.989662707         0.073563762         0.660980582
     0.989662707         0.073563762         0.910980582
     0.989662707         0.073563762         0.160980612
     0.989662707         0.573563755         0.410980612
     0.989662707         0.573563755         0.660980582
     0.989662707         0.573563755         0.910980582
     0.989662707         0.573563755         0.160980612
     0.445634842         0.687805891         0.072633721
     0.445634842         0.687805891         0.322633713
     0.445634842         0.687805891         0.572633743
     0.445634842         0.687805891         0.822633743
     0.445634842         0.187805891         0.072633721
     0.445634842         0.187805891         0.322633713
     0.445634842         0.187805891         0.572633743
     0.445634842         0.187805891         0.822633743
     0.778968155         0.687805891         0.072633721
     0.778968155         0.687805891         0.322633713
     0.778968155         0.687805891         0.572633743
     0.778968155         0.687805891         0.822633743
     0.778968155         0.187805891         0.072633721
     0.778968155         0.187805891         0.322633713
     0.778968155         0.187805891         0.572633743
     0.778968155         0.187805891         0.822633743
     0.112301506         0.687805891         0.072633721
     0.112301506         0.687805891         0.322633713
     0.112301506         0.687805891         0.572633743
     0.112301506         0.687805891         0.822633743
     0.112301506         0.187805891         0.072633721
     0.112301506         0.187805891         0.322633713
     0.112301506         0.187805891         0.572633743
     0.112301506         0.187805891         0.822633743
     0.257844478         0.233495072         0.254193395
     0.257844478         0.233495072         0.504193425
     0.257844478         0.233495072         0.754193425
     0.257844478         0.233495072         0.004193395
     0.257844478         0.733495057         0.254193395
     0.257844478         0.733495057         0.504193425
     0.257844478         0.733495057         0.754193425
     0.257844478         0.733495057         0.004193395
     0.591177821         0.233495072         0.254193395
     0.591177821         0.233495072         0.504193425
     0.591177821         0.233495072         0.754193425
     0.591177821         0.233495072         0.004193395
     0.591177821         0.733495057         0.254193395
     0.591177821         0.733495057         0.504193425
     0.591177821         0.733495057         0.754193425
     0.591177821         0.733495057         0.004193395
     0.924511135         0.233495072         0.254193395
     0.924511135         0.233495072         0.504193425
     0.924511135         0.233495072         0.754193425
     0.924511135         0.233495072         0.004193395
     0.924511135         0.733495057         0.254193395
     0.924511135         0.733495057         0.504193425
     0.924511135         0.733495057         0.754193425
     0.924511135         0.733495057         0.004193395
     0.245739594         0.218176588         0.217562079
     0.245739594         0.218176588         0.467562079
     0.245739594         0.218176588         0.717562079
     0.245739594         0.218176588         0.967562079
     0.245739594         0.718176603         0.217562079
     0.245739594         0.718176603         0.467562079
     0.245739594         0.718176603         0.717562079
     0.245739594         0.718176603         0.967562079
     0.579072952         0.218176588         0.217562079
     0.579072952         0.218176588         0.467562079
     0.579072952         0.218176588         0.717562079
     0.579072952         0.218176588         0.967562079
     0.579072952         0.718176603         0.217562079
     0.579072952         0.718176603         0.467562079
     0.579072952         0.718176603         0.717562079
     0.579072952         0.718176603         0.967562079
     0.912406266         0.218176588         0.217562079
     0.912406266         0.218176588         0.467562079
     0.912406266         0.218176588         0.717562079
     0.912406266         0.218176588         0.967562079
     0.912406266         0.718176603         0.217562079
     0.912406266         0.718176603         0.467562079
     0.912406266         0.718176603         0.717562079
     0.912406266         0.718176603         0.967562079
     0.303059131         0.095551737         0.330374509
     0.303059131         0.095551737         0.580374479
     0.303059131         0.095551737         0.830374479
     0.303059131         0.095551737         0.080374509
     0.303059131         0.595551729         0.330374509
     0.303059131         0.595551729         0.580374479
     0.303059131         0.595551729         0.830374479
     0.303059131         0.595551729         0.080374509
     0.636392474         0.095551737         0.330374509
     0.636392474         0.095551737         0.580374479
     0.636392474         0.095551737         0.830374479
     0.636392474         0.095551737         0.080374509
     0.636392474         0.595551729         0.330374509
     0.636392474         0.595551729         0.580374479
     0.636392474         0.595551729         0.830374479
     0.636392474         0.595551729         0.080374509
     0.969725788         0.095551737         0.330374509
     0.969725788         0.095551737         0.580374479
     0.969725788         0.095551737         0.830374479
     0.969725788         0.095551737         0.080374509
     0.969725788         0.595551729         0.330374509
     0.969725788         0.595551729         0.580374479
     0.969725788         0.595551729         0.830374479
     0.969725788         0.595551729         0.080374509
     0.414922684         0.995588660         0.237062752
     0.414922684         0.995588660         0.487062752
     0.414922684         0.995588660         0.737062752
     0.414922684         0.995588660         0.987062752
     0.414922684         0.495588660         0.237062752
     0.414922684         0.495588660         0.487062752
     0.414922684         0.495588660         0.737062752
     0.414922684         0.495588660         0.987062752
     0.748256028         0.995588660         0.237062752
     0.748256028         0.995588660         0.487062752
     0.748256028         0.995588660         0.737062752
     0.748256028         0.995588660         0.987062752
     0.748256028         0.495588660         0.237062752
     0.748256028         0.495588660         0.487062752
     0.748256028         0.495588660         0.737062752
     0.748256028         0.495588660         0.987062752
     0.081589349         0.995588660         0.237062752
     0.081589349         0.995588660         0.487062752
     0.081589349         0.995588660         0.737062752
     0.081589349         0.995588660         0.987062752
     0.081589349         0.495588660         0.237062752
     0.081589349         0.495588660         0.487062752
     0.081589349         0.495588660         0.737062752
     0.081589349         0.495588660         0.987062752
     0.298253894         0.036081072         0.424253076
     0.298253894         0.036081072         0.674253106
     0.298253894         0.036081072         0.924253106
     0.298253894         0.036081072         0.174253076
     0.298253894         0.536081076         0.424253076
     0.298253894         0.536081076         0.674253106
     0.298253894         0.536081076         0.924253106
     0.298253894         0.536081076         0.174253076
     0.631587207         0.036081072         0.424253076
     0.631587207         0.036081072         0.674253106
     0.631587207         0.036081072         0.924253106
     0.631587207         0.036081072         0.174253076
     0.631587207         0.536081076         0.424253076
     0.631587207         0.536081076         0.674253106
     0.631587207         0.536081076         0.924253106
     0.631587207         0.536081076         0.174253076
     0.964920580         0.036081072         0.424253076
     0.964920580         0.036081072         0.674253106
     0.964920580         0.036081072         0.924253106
     0.964920580         0.036081072         0.174253076
     0.964920580         0.536081076         0.424253076
     0.964920580         0.536081076         0.674253106
     0.964920580         0.536081076         0.924253106
     0.964920580         0.536081076         0.174253076
     0.191863343         0.211901307         0.311604023
     0.191863343         0.211901307         0.561604023
     0.191863343         0.211901307         0.811604023
     0.191863343         0.211901307         0.061604023
     0.191863343         0.711901307         0.311604023
     0.191863343         0.711901307         0.561604023
     0.191863343         0.711901307         0.811604023
     0.191863343         0.711901307         0.061604023
     0.525196671         0.211901307         0.311604023
     0.525196671         0.211901307         0.561604023
     0.525196671         0.211901307         0.811604023
     0.525196671         0.211901307         0.061604023
     0.525196671         0.711901307         0.311604023
     0.525196671         0.711901307         0.561604023
     0.525196671         0.711901307         0.811604023
     0.525196671         0.711901307         0.061604023
     0.858529985         0.211901307         0.311604023
     0.858529985         0.211901307         0.561604023
     0.858529985         0.211901307         0.811604023
     0.858529985         0.211901307         0.061604023
     0.858529985         0.711901307         0.311604023
     0.858529985         0.711901307         0.561604023
     0.858529985         0.711901307         0.811604023
     0.858529985         0.711901307         0.061604023
     0.420849711         0.020025184         0.274254113
     0.420849711         0.020025184         0.524254084
     0.420849711         0.020025184         0.774254084
     0.420849711         0.020025184         0.024254113
     0.420849711         0.520025194         0.274254113
     0.420849711         0.520025194         0.524254084
     0.420849711         0.520025194         0.774254084
     0.420849711         0.520025194         0.024254113
     0.754183054         0.020025184         0.274254113
     0.754183054         0.020025184         0.524254084
     0.754183054         0.020025184         0.774254084
     0.754183054         0.020025184         0.024254113
     0.754183054         0.520025194         0.274254113
     0.754183054         0.520025194         0.524254084
     0.754183054         0.520025194         0.774254084
     0.754183054         0.520025194         0.024254113
     0.087516375         0.020025184         0.274254113
     0.087516375         0.020025184         0.524254084
     0.087516375         0.020025184         0.774254084
     0.087516375         0.020025184         0.024254113
     0.087516375         0.520025194         0.274254113
     0.087516375         0.520025194         0.524254084
     0.087516375         0.520025194         0.774254084
     0.087516375         0.520025194         0.024254113
     0.211659297         0.153783664         0.366769910
     0.211659297         0.153783664         0.616769910
     0.211659297         0.153783664         0.866769910
     0.211659297         0.153783664         0.116769910
     0.211659297         0.653783679         0.366769910
     0.211659297         0.653783679         0.616769910
     0.211659297         0.653783679         0.866769910
     0.211659297         0.653783679         0.116769910
     0.544992626         0.153783664         0.366769910
     0.544992626         0.153783664         0.616769910
     0.544992626         0.153783664         0.866769910
     0.544992626         0.153783664         0.116769910
     0.544992626         0.653783679         0.366769910
     0.544992626         0.653783679         0.616769910
     0.544992626         0.653783679         0.866769910
     0.544992626         0.653783679         0.116769910
     0.878325939         0.153783664         0.366769910
     0.878325939         0.153783664         0.616769910
     0.878325939         0.153783664         0.866769910
     0.878325939         0.153783664         0.116769910
     0.878325939         0.653783679         0.366769910
     0.878325939         0.653783679         0.616769910
     0.878325939         0.653783679         0.866769910
     0.878325939         0.653783679         0.116769910
     0.291832119         0.224968001         0.338128775
     0.291832119         0.224968001         0.588128805
     0.291832119         0.224968001         0.838128805
     0.291832119         0.224968001         0.088128775
     0.291832119         0.724968016         0.338128775
     0.291832119         0.724968016         0.588128805
     0.291832119         0.724968016         0.838128805
     0.291832119         0.724968016         0.088128775
     0.625165462         0.224968001         0.338128775
     0.625165462         0.224968001         0.588128805
     0.625165462         0.224968001         0.838128805
     0.625165462         0.224968001         0.088128775
     0.625165462         0.724968016         0.338128775
     0.625165462         0.724968016         0.588128805
     0.625165462         0.724968016         0.838128805
     0.625165462         0.724968016         0.088128775
     0.958498776         0.224968001         0.338128775
     0.958498776         0.224968001         0.588128805
     0.958498776         0.224968001         0.838128805
     0.958498776         0.224968001         0.088128775
     0.958498776         0.724968016         0.338128775
     0.958498776         0.724968016         0.588128805
     0.958498776         0.724968016         0.838128805
     0.958498776         0.724968016         0.088128775
     0.293565243         0.216108605         0.207253873
     0.293565243         0.216108605         0.457253873
     0.293565243         0.216108605         0.707253873
     0.293565243         0.216108605         0.957253873
     0.293565243         0.716108620         0.207253873
     0.293565243         0.716108620         0.457253873
     0.293565243         0.716108620         0.707253873
     0.293565243         0.716108620         0.957253873
     0.626898587         0.216108605         0.207253873
     0.626898587         0.216108605         0.457253873
     0.626898587         0.216108605         0.707253873
     0.626898587         0.216108605         0.957253873
     0.626898587         0.716108620         0.207253873
     0.626898587         0.716108620         0.457253873
     0.626898587         0.716108620         0.707253873
     0.626898587         0.716108620         0.957253873
     0.960231900         0.216108605         0.207253873
     0.960231900         0.216108605         0.457253873
     0.960231900         0.216108605         0.707253873
     0.960231900         0.216108605         0.957253873
     0.960231900         0.716108620         0.207253873
     0.960231900         0.716108620         0.457253873
     0.960231900         0.716108620         0.707253873
     0.960231900         0.716108620         0.957253873
     0.465227097         0.391568214         0.929356515
     0.465227097         0.391568214         0.179356515
     0.465227097         0.391568214         0.429356515
     0.465227097         0.391568214         0.679356515
     0.465227097         0.891568184         0.929356515
     0.465227097         0.891568184         0.179356515
     0.465227097         0.891568184         0.429356515
     0.465227097         0.891568184         0.679356515
     0.798560441         0.391568214         0.929356515
     0.798560441         0.391568214         0.179356515
     0.798560441         0.391568214         0.429356515
     0.798560441         0.391568214         0.679356515
     0.798560441         0.891568184         0.929356515
     0.798560441         0.891568184         0.179356515
     0.798560441         0.891568184         0.429356515
     0.798560441         0.891568184         0.679356515
     0.131893769         0.391568214         0.929356515
     0.131893769         0.391568214         0.179356515
     0.131893769         0.391568214         0.429356515
     0.131893769         0.391568214         0.679356515
     0.131893769         0.891568184         0.929356515
     0.131893769         0.891568184         0.179356515
     0.131893769         0.891568184         0.429356515
     0.131893769         0.891568184         0.679356515
     0.630560756         0.787204862         0.244266942
     0.630560756         0.787204862         0.494266927
     0.630560756         0.787204862         0.744266927
     0.630560756         0.787204862         0.994266927
     0.630560756         0.287204862         0.244266942
     0.630560756         0.287204862         0.494266927
     0.630560756         0.287204862         0.744266927
     0.630560756         0.287204862         0.994266927
     0.963894069         0.787204862         0.244266942
     0.963894069         0.787204862         0.494266927
     0.963894069         0.787204862         0.744266927
     0.963894069         0.787204862         0.994266927
     0.963894069         0.287204862         0.244266942
     0.963894069         0.287204862         0.494266927
     0.963894069         0.287204862         0.744266927
     0.963894069         0.287204862         0.994266927
     0.297227412         0.787204862         0.244266942
     0.297227412         0.787204862         0.494266927
     0.297227412         0.787204862         0.744266927
     0.297227412         0.787204862         0.994266927
     0.297227412         0.287204862         0.244266942
     0.297227412         0.287204862         0.494266927
     0.297227412         0.287204862         0.744266927
     0.297227412         0.287204862         0.994266927
     0.369896144         0.351536363         0.993336022
     0.369896144         0.351536363         0.243336022
     0.369896144         0.351536363         0.493336022
     0.369896144         0.351536363         0.743336022
     0.369896144         0.851536393         0.993336022
     0.369896144         0.851536393         0.243336022
     0.369896144         0.851536393         0.493336022
     0.369896144         0.851536393         0.743336022
     0.703229487         0.351536363         0.993336022
     0.703229487         0.351536363         0.243336022
     0.703229487         0.351536363         0.493336022
     0.703229487         0.351536363         0.743336022
     0.703229487         0.851536393         0.993336022
     0.703229487         0.851536393         0.243336022
     0.703229487         0.851536393         0.493336022
     0.703229487         0.851536393         0.743336022
     0.036562812         0.351536363         0.993336022
     0.036562812         0.351536363         0.243336022
     0.036562812         0.351536363         0.493336022
     0.036562812         0.351536363         0.743336022
     0.036562812         0.851536393         0.993336022
     0.036562812         0.851536393         0.243336022
     0.036562812         0.851536393         0.493336022
     0.036562812         0.851536393         0.743336022
     0.381176025         0.301983863         0.989730477
     0.381176025         0.301983863         0.239730477
     0.381176025         0.301983863         0.489730477
     0.381176025         0.301983863         0.739730477
     0.381176025         0.801983833         0.989730477
     0.381176025         0.801983833         0.239730477
     0.381176025         0.801983833         0.489730477
     0.381176025         0.801983833         0.739730477
     0.714509368         0.301983863         0.989730477
     0.714509368         0.301983863         0.239730477
     0.714509368         0.301983863         0.489730477
     0.714509368         0.301983863         0.739730477
     0.714509368         0.801983833         0.989730477
     0.714509368         0.801983833         0.239730477
     0.714509368         0.801983833         0.489730477
     0.714509368         0.801983833         0.739730477
     0.047842693         0.301983863         0.989730477
     0.047842693         0.301983863         0.239730477
     0.047842693         0.301983863         0.489730477
     0.047842693         0.301983863         0.739730477
     0.047842693         0.801983833         0.989730477
     0.047842693         0.801983833         0.239730477
     0.047842693         0.801983833         0.489730477
     0.047842693         0.801983833         0.739730477
     0.413841963         0.280715406         0.096597023
     0.413841963         0.280715406         0.346597016
     0.413841963         0.280715406         0.596597016
     0.413841963         0.280715406         0.846597016
     0.413841963         0.780715406         0.096597023
     0.413841963         0.780715406         0.346597016
     0.413841963         0.780715406         0.596597016
     0.413841963         0.780715406         0.846597016
     0.747175276         0.280715406         0.096597023
     0.747175276         0.280715406         0.346597016
     0.747175276         0.280715406         0.596597016
     0.747175276         0.280715406         0.846597016
     0.747175276         0.780715406         0.096597023
     0.747175276         0.780715406         0.346597016
     0.747175276         0.780715406         0.596597016
     0.747175276         0.780715406         0.846597016
     0.080508627         0.280715406         0.096597023
     0.080508627         0.280715406         0.346597016
     0.080508627         0.280715406         0.596597016
     0.080508627         0.280715406         0.846597016
     0.080508627         0.780715406         0.096597023
     0.080508627         0.780715406         0.346597016
     0.080508627         0.780715406         0.596597016
     0.080508627         0.780715406         0.846597016
     0.342577189         0.232607678         0.195104763
     0.342577189         0.232607678         0.445104778
     0.342577189         0.232607678         0.695104778
     0.342577189         0.232607678         0.945104778
     0.342577189         0.732607663         0.195104763
     0.342577189         0.732607663         0.445104778
     0.342577189         0.732607663         0.695104778
     0.342577189         0.732607663         0.945104778
     0.675910532         0.232607678         0.195104763
     0.675910532         0.232607678         0.445104778
     0.675910532         0.232607678         0.695104778
     0.675910532         0.232607678         0.945104778
     0.675910532         0.732607663         0.195104763
     0.675910532         0.732607663         0.445104778
     0.675910532         0.732607663         0.695104778
     0.675910532         0.732607663         0.945104778
     0.009243856         0.232607678         0.195104763
     0.009243856         0.232607678         0.445104778
     0.009243856         0.232607678         0.695104778
     0.009243856         0.232607678         0.945104778
     0.009243856         0.732607663         0.195104763
     0.009243856         0.732607663         0.445104778
     0.009243856         0.732607663         0.695104778
     0.009243856         0.732607663         0.945104778
     0.364636749         0.228894681         0.227258980
     0.364636749         0.228894681         0.477258980
     0.364636749         0.228894681         0.727258980
     0.364636749         0.228894681         0.977258980
     0.364636749         0.728894711         0.227258980
     0.364636749         0.728894711         0.477258980
     0.364636749         0.728894711         0.727258980
     0.364636749         0.728894711         0.977258980
     0.697970092         0.228894681         0.227258980
     0.697970092         0.228894681         0.477258980
     0.697970092         0.228894681         0.727258980
     0.697970092         0.228894681         0.977258980
     0.697970092         0.728894711         0.227258980
     0.697970092         0.728894711         0.477258980
     0.697970092         0.728894711         0.727258980
     0.697970092         0.728894711         0.977258980
     0.031303417         0.228894681         0.227258980
     0.031303417         0.228894681         0.477258980
     0.031303417         0.228894681         0.727258980
     0.031303417         0.228894681         0.977258980
     0.031303417         0.728894711         0.227258980
     0.031303417         0.728894711         0.477258980
     0.031303417         0.728894711         0.727258980
     0.031303417         0.728894711         0.977258980
     0.426483244         0.212947622         0.144100294
     0.426483244         0.212947622         0.394100308
     0.426483244         0.212947622         0.644100308
     0.426483244         0.212947622         0.894100308
     0.426483244         0.712947607         0.144100294
     0.426483244         0.712947607         0.394100308
     0.426483244         0.712947607         0.644100308
     0.426483244         0.712947607         0.894100308
     0.759816587         0.212947622         0.144100294
     0.759816587         0.212947622         0.394100308
     0.759816587         0.212947622         0.644100308
     0.759816587         0.212947622         0.894100308
     0.759816587         0.712947607         0.144100294
     0.759816587         0.712947607         0.394100308
     0.759816587         0.712947607         0.644100308
     0.759816587         0.712947607         0.894100308
     0.093149908         0.212947622         0.144100294
     0.093149908         0.212947622         0.394100308
     0.093149908         0.212947622         0.644100308
     0.093149908         0.212947622         0.894100308
     0.093149908         0.712947607         0.144100294
     0.093149908         0.712947607         0.394100308
     0.093149908         0.712947607         0.644100308
     0.093149908         0.712947607         0.894100308
     0.204276368         0.441211820         0.220788792
     0.204276368         0.441211820         0.470788777
     0.204276368         0.441211820         0.720788777
     0.204276368         0.441211820         0.970788777
     0.204276368         0.941211820         0.220788792
     0.204276368         0.941211820         0.470788777
     0.204276368         0.941211820         0.720788777
     0.204276368         0.941211820         0.970788777
     0.537609696         0.441211820         0.220788792
     0.537609696         0.441211820         0.470788777
     0.537609696         0.441211820         0.720788777
     0.537609696         0.441211820         0.970788777
     0.537609696         0.941211820         0.220788792
     0.537609696         0.941211820         0.470788777
     0.537609696         0.941211820         0.720788777
     0.537609696         0.941211820         0.970788777
     0.870943010         0.441211820         0.220788792
     0.870943010         0.441211820         0.470788777
     0.870943010         0.441211820         0.720788777
     0.870943010         0.441211820         0.970788777
     0.870943010         0.941211820         0.220788792
     0.870943010         0.941211820         0.470788777
     0.870943010         0.941211820         0.720788777
     0.870943010         0.941211820         0.970788777
     0.456721753         0.260625869         0.133590549
     0.456721753         0.260625869         0.383590549
     0.456721753         0.260625869         0.633590579
     0.456721753         0.260625869         0.883590579
     0.456721753         0.760625839         0.133590549
     0.456721753         0.760625839         0.383590549
     0.456721753         0.760625839         0.633590579
     0.456721753         0.760625839         0.883590579
     0.790055096         0.260625869         0.133590549
     0.790055096         0.260625869         0.383590549
     0.790055096         0.260625869         0.633590579
     0.790055096         0.260625869         0.883590579
     0.790055096         0.760625839         0.133590549
     0.790055096         0.760625839         0.383590549
     0.790055096         0.760625839         0.633590579
     0.790055096         0.760625839         0.883590579
     0.123388417         0.260625869         0.133590549
     0.123388417         0.260625869         0.383590549
     0.123388417         0.260625869         0.633590579
     0.123388417         0.260625869         0.883590579
     0.123388417         0.760625839         0.133590549
     0.123388417         0.760625839         0.383590549
     0.123388417         0.760625839         0.633590579
     0.123388417         0.760625839         0.883590579
     0.425174385         0.256204993         0.194527626
     0.425174385         0.256204993         0.444527626
     0.425174385         0.256204993         0.694527626
     0.425174385         0.256204993         0.944527626
     0.425174385         0.756204963         0.194527626
     0.425174385         0.756204963         0.444527626
     0.425174385         0.756204963         0.694527626
     0.425174385         0.756204963         0.944527626
     0.758507729         0.256204993         0.194527626
     0.758507729         0.256204993         0.444527626
     0.758507729         0.256204993         0.694527626
     0.758507729         0.256204993         0.944527626
     0.758507729         0.756204963         0.194527626
     0.758507729         0.756204963         0.444527626
     0.758507729         0.756204963         0.694527626
     0.758507729         0.756204963         0.944527626
     0.091841049         0.256204993         0.194527626
     0.091841049         0.256204993         0.444527626
     0.091841049         0.256204993         0.694527626
     0.091841049         0.256204993         0.944527626
     0.091841049         0.756204963         0.194527626
     0.091841049         0.756204963         0.444527626
     0.091841049         0.756204963         0.694527626
     0.091841049         0.756204963         0.944527626
     0.169250742         0.492848933         0.268436283
     0.169250742         0.492848933         0.518436313
     0.169250742         0.492848933         0.768436313
     0.169250742         0.492848933         0.018436283
     0.169250742         0.992848933         0.268436283
     0.169250742         0.992848933         0.518436313
     0.169250742         0.992848933         0.768436313
     0.169250742         0.992848933         0.018436283
     0.502584100         0.492848933         0.268436283
     0.502584100         0.492848933         0.518436313
     0.502584100         0.492848933         0.768436313
     0.502584100         0.492848933         0.018436283
     0.502584100         0.992848933         0.268436283
     0.502584100         0.992848933         0.518436313
     0.502584100         0.992848933         0.768436313
     0.502584100         0.992848933         0.018436283
     0.835917413         0.492848933         0.268436283
     0.835917413         0.492848933         0.518436313
     0.835917413         0.492848933         0.768436313
     0.835917413         0.492848933         0.018436283
     0.835917413         0.992848933         0.268436283
     0.835917413         0.992848933         0.518436313
     0.835917413         0.992848933         0.768436313
     0.835917413         0.992848933         0.018436283
     0.180545524         0.439783990         0.346033543
     0.180545524         0.439783990         0.596033573
     0.180545524         0.439783990         0.846033573
     0.180545524         0.439783990         0.096033543
     0.180545524         0.939783990         0.346033543
     0.180545524         0.939783990         0.596033573
     0.180545524         0.939783990         0.846033573
     0.180545524         0.939783990         0.096033543
     0.513878882         0.439783990         0.346033543
     0.513878882         0.439783990         0.596033573
     0.513878882         0.439783990         0.846033573
     0.513878882         0.439783990         0.096033543
     0.513878882         0.939783990         0.346033543
     0.513878882         0.939783990         0.596033573
     0.513878882         0.939783990         0.846033573
     0.513878882         0.939783990         0.096033543
     0.847212195         0.439783990         0.346033543
     0.847212195         0.439783990         0.596033573
     0.847212195         0.439783990         0.846033573
     0.847212195         0.439783990         0.096033543
     0.847212195         0.939783990         0.346033543
     0.847212195         0.939783990         0.596033573
     0.847212195         0.939783990         0.846033573
     0.847212195         0.939783990         0.096033543
     0.411587447         0.284675211         0.162959158
     0.411587447         0.284675211         0.412959158
     0.411587447         0.284675211         0.662959158
     0.411587447         0.284675211         0.912959158
     0.411587447         0.784675241         0.162959158
     0.411587447         0.784675241         0.412959158
     0.411587447         0.784675241         0.662959158
     0.411587447         0.784675241         0.912959158
     0.744920790         0.284675211         0.162959158
     0.744920790         0.284675211         0.412959158
     0.744920790         0.284675211         0.662959158
     0.744920790         0.284675211         0.912959158
     0.744920790         0.784675241         0.162959158
     0.744920790         0.784675241         0.412959158
     0.744920790         0.784675241         0.662959158
     0.744920790         0.784675241         0.912959158
     0.078254111         0.284675211         0.162959158
     0.078254111         0.284675211         0.412959158
     0.078254111         0.284675211         0.662959158
     0.078254111         0.284675211         0.912959158
     0.078254111         0.784675241         0.162959158
     0.078254111         0.784675241         0.412959158
     0.078254111         0.784675241         0.662959158
     0.078254111         0.784675241         0.912959158
     0.415970832         0.153237775         0.259366304
     0.415970832         0.153237775         0.509366274
     0.415970832         0.153237775         0.759366274
     0.415970832         0.153237775         0.009366304
     0.415970832         0.653237760         0.259366304
     0.415970832         0.653237760         0.509366274
     0.415970832         0.653237760         0.759366274
     0.415970832         0.653237760         0.009366304
     0.749304175         0.153237775         0.259366304
     0.749304175         0.153237775         0.509366274
     0.749304175         0.153237775         0.759366274
     0.749304175         0.153237775         0.009366304
     0.749304175         0.653237760         0.259366304
     0.749304175         0.653237760         0.509366274
     0.749304175         0.653237760         0.759366274
     0.749304175         0.653237760         0.009366304
     0.082637496         0.153237775         0.259366304
     0.082637496         0.153237775         0.509366274
     0.082637496         0.153237775         0.759366274
     0.082637496         0.153237775         0.009366304
     0.082637496         0.653237760         0.259366304
     0.082637496         0.653237760         0.509366274
     0.082637496         0.653237760         0.759366274
     0.082637496         0.653237760         0.009366304
     0.266534001         0.119058520         0.326759130
     0.266534001         0.119058520         0.576759100
     0.266534001         0.119058520         0.826759100
     0.266534001         0.119058520         0.076759130
     0.266534001         0.619058490         0.326759130
     0.266534001         0.619058490         0.576759100
     0.266534001         0.619058490         0.826759100
     0.266534001         0.619058490         0.076759130
     0.599867344         0.119058520         0.326759130
     0.599867344         0.119058520         0.576759100
     0.599867344         0.119058520         0.826759100
     0.599867344         0.119058520         0.076759130
     0.599867344         0.619058490         0.326759130
     0.599867344         0.619058490         0.576759100
     0.599867344         0.619058490         0.826759100
     0.599867344         0.619058490         0.076759130
     0.933200657         0.119058520         0.326759130
     0.933200657         0.119058520         0.576759100
     0.933200657         0.119058520         0.826759100
     0.933200657         0.119058520         0.076759130
     0.933200657         0.619058490         0.326759130
     0.933200657         0.619058490         0.576759100
     0.933200657         0.619058490         0.826759100
     0.933200657         0.619058490         0.076759130
     0.255180180         0.479884326         0.200555116
     0.255180180         0.479884326         0.450555116
     0.255180180         0.479884326         0.700555086
     0.255180180         0.479884326         0.950555086
     0.255180180         0.979884326         0.200555116
     0.255180180         0.979884326         0.450555116
     0.255180180         0.979884326         0.700555086
     0.255180180         0.979884326         0.950555086
     0.588513494         0.479884326         0.200555116
     0.588513494         0.479884326         0.450555116
     0.588513494         0.479884326         0.700555086
     0.588513494         0.479884326         0.950555086
     0.588513494         0.979884326         0.200555116
     0.588513494         0.979884326         0.450555116
     0.588513494         0.979884326         0.700555086
     0.588513494         0.979884326         0.950555086
     0.921846867         0.479884326         0.200555116
     0.921846867         0.479884326         0.450555116
     0.921846867         0.479884326         0.700555086
     0.921846867         0.479884326         0.950555086
     0.921846867         0.979884326         0.200555116
     0.921846867         0.979884326         0.450555116
     0.921846867         0.979884326         0.700555086
     0.921846867         0.979884326         0.950555086
     0.195992604         0.528574169         0.254924774
     0.195992604         0.528574169         0.504924774
     0.195992604         0.528574169         0.754924774
     0.195992604         0.528574169         0.004924774
     0.195992604         0.028574169         0.254924774
     0.195992604         0.028574169         0.504924774
     0.195992604         0.028574169         0.754924774
     0.195992604         0.028574169         0.004924774
     0.529325962         0.528574169         0.254924774
     0.529325962         0.528574169         0.504924774
     0.529325962         0.528574169         0.754924774
     0.529325962         0.528574169         0.004924774
     0.529325962         0.028574169         0.254924774
     0.529325962         0.028574169         0.504924774
     0.529325962         0.028574169         0.754924774
     0.529325962         0.028574169         0.004924774
     0.862659276         0.528574169         0.254924774
     0.862659276         0.528574169         0.504924774
     0.862659276         0.528574169         0.754924774
     0.862659276         0.528574169         0.004924774
     0.862659276         0.028574169         0.254924774
     0.862659276         0.028574169         0.504924774
     0.862659276         0.028574169         0.754924774
     0.862659276         0.028574169         0.004924774
     0.338142395         0.185624570         0.251330167
     0.338142395         0.185624570         0.501330137
     0.338142395         0.185624570         0.751330137
     0.338142395         0.185624570         0.001330167
     0.338142395         0.685624599         0.251330167
     0.338142395         0.685624599         0.501330137
     0.338142395         0.685624599         0.751330137
     0.338142395         0.685624599         0.001330167
     0.671475708         0.185624570         0.251330167
     0.671475708         0.185624570         0.501330137
     0.671475708         0.185624570         0.751330137
     0.671475708         0.185624570         0.001330167
     0.671475708         0.685624599         0.251330167
     0.671475708         0.685624599         0.501330137
     0.671475708         0.685624599         0.751330137
     0.671475708         0.685624599         0.001330167
     0.004809062         0.185624570         0.251330167
     0.004809062         0.185624570         0.501330137
     0.004809062         0.185624570         0.751330137
     0.004809062         0.185624570         0.001330167
     0.004809062         0.685624599         0.251330167
     0.004809062         0.685624599         0.501330137
     0.004809062         0.685624599         0.751330137
     0.004809062         0.685624599         0.001330167
     0.349254698         0.136839002         0.345653147
     0.349254698         0.136839002         0.595653176
     0.349254698         0.136839002         0.845653176
     0.349254698         0.136839002         0.095653147
     0.349254698         0.636839032         0.345653147
     0.349254698         0.636839032         0.595653176
     0.349254698         0.636839032         0.845653176
     0.349254698         0.636839032         0.095653147
     0.682588041         0.136839002         0.345653147
     0.682588041         0.136839002         0.595653176
     0.682588041         0.136839002         0.845653176
     0.682588041         0.136839002         0.095653147
     0.682588041         0.636839032         0.345653147
     0.682588041         0.636839032         0.595653176
     0.682588041         0.636839032         0.845653176
     0.682588041         0.636839032         0.095653147
     0.015921364         0.136839002         0.345653147
     0.015921364         0.136839002         0.595653176
     0.015921364         0.136839002         0.845653176
     0.015921364         0.136839002         0.095653147
     0.015921364         0.636839032         0.345653147
     0.015921364         0.636839032         0.595653176
     0.015921364         0.636839032         0.845653176
     0.015921364         0.636839032         0.095653147
     0.302791387         0.172493488         0.304722220
     0.302791387         0.172493488         0.554722190
     0.302791387         0.172493488         0.804722190
     0.302791387         0.172493488         0.054722220
     0.302791387         0.672493458         0.304722220
     0.302791387         0.672493458         0.554722190
     0.302791387         0.672493458         0.804722190
     0.302791387         0.672493458         0.054722220
     0.636124730         0.172493488         0.304722220
     0.636124730         0.172493488         0.554722190
     0.636124730         0.172493488         0.804722190
     0.636124730         0.172493488         0.054722220
     0.636124730         0.672493458         0.304722220
     0.636124730         0.672493458         0.554722190
     0.636124730         0.672493458         0.804722190
     0.636124730         0.672493458         0.054722220
     0.969458044         0.172493488         0.304722220
     0.969458044         0.172493488         0.554722190
     0.969458044         0.172493488         0.804722190
     0.969458044         0.172493488         0.054722220
     0.969458044         0.672493458         0.304722220
     0.969458044         0.672493458         0.554722190
     0.969458044         0.672493458         0.804722190
     0.969458044         0.672493458         0.054722220
     0.468859226         0.246762395         0.041929226
     0.468859226         0.246762395         0.291929215
     0.468859226         0.246762395         0.541929245
     0.468859226         0.246762395         0.791929245
     0.468859226         0.746762395         0.041929226
     0.468859226         0.746762395         0.291929215
     0.468859226         0.746762395         0.541929245
     0.468859226         0.746762395         0.791929245
     0.802192569         0.246762395         0.041929226
     0.802192569         0.246762395         0.291929215
     0.802192569         0.246762395         0.541929245
     0.802192569         0.246762395         0.791929245
     0.802192569         0.746762395         0.041929226
     0.802192569         0.746762395         0.291929215
     0.802192569         0.746762395         0.541929245
     0.802192569         0.746762395         0.791929245
     0.135525897         0.246762395         0.041929226
     0.135525897         0.246762395         0.291929215
     0.135525897         0.246762395         0.541929245
     0.135525897         0.246762395         0.791929245
     0.135525897         0.746762395         0.041929226
     0.135525897         0.746762395         0.291929215
     0.135525897         0.746762395         0.541929245
     0.135525897         0.746762395         0.791929245
     0.404547483         0.381939024         0.025052471
     0.404547483         0.381939024         0.275052458
     0.404547483         0.381939024         0.525052488
     0.404547483         0.381939024         0.775052488
     0.404547483         0.881939054         0.025052471
     0.404547483         0.881939054         0.275052458
     0.404547483         0.881939054         0.525052488
     0.404547483         0.881939054         0.775052488
     0.737880826         0.381939024         0.025052471
     0.737880826         0.381939024         0.275052458
     0.737880826         0.381939024         0.525052488
     0.737880826         0.381939024         0.775052488
     0.737880826         0.881939054         0.025052471
     0.737880826         0.881939054         0.275052458
     0.737880826         0.881939054         0.525052488
     0.737880826         0.881939054         0.775052488
     0.071214147         0.381939024         0.025052471
     0.071214147         0.381939024         0.275052458
     0.071214147         0.381939024         0.525052488
     0.071214147         0.381939024         0.775052488
     0.071214147         0.881939054         0.025052471
     0.071214147         0.881939054         0.275052458
     0.071214147         0.881939054         0.525052488
     0.071214147         0.881939054         0.775052488
     0.265447348         0.505676210         0.252630115
     0.265447348         0.505676210         0.502630115
     0.265447348         0.505676210         0.752630115
     0.265447348         0.505676210         0.002630115
     0.265447348         0.005676210         0.252630115
     0.265447348         0.005676210         0.502630115
     0.265447348         0.005676210         0.752630115
     0.265447348         0.005676210         0.002630115
     0.598780692         0.505676210         0.252630115
     0.598780692         0.505676210         0.502630115
     0.598780692         0.505676210         0.752630115
     0.598780692         0.505676210         0.002630115
     0.598780692         0.005676210         0.252630115
     0.598780692         0.005676210         0.502630115
     0.598780692         0.005676210         0.752630115
     0.598780692         0.005676210         0.002630115
     0.932114005         0.505676210         0.252630115
     0.932114005         0.505676210         0.502630115
     0.932114005         0.505676210         0.752630115
     0.932114005         0.505676210         0.002630115
     0.932114005         0.005676210         0.252630115
     0.932114005         0.005676210         0.502630115
     0.932114005         0.005676210         0.752630115
     0.932114005         0.005676210         0.002630115
     0.516267478         0.382304847         0.916370213
     0.516267478         0.382304847         0.166370213
     0.516267478         0.382304847         0.416370213
     0.516267478         0.382304847         0.666370213
     0.516267478         0.882304847         0.916370213
     0.516267478         0.882304847         0.166370213
     0.516267478         0.882304847         0.416370213
     0.516267478         0.882304847         0.666370213
     0.849600792         0.382304847         0.916370213
     0.849600792         0.382304847         0.166370213
     0.849600792         0.382304847         0.416370213
     0.849600792         0.382304847         0.666370213
     0.849600792         0.882304847         0.916370213
     0.849600792         0.882304847         0.166370213
     0.849600792         0.882304847         0.416370213
     0.849600792         0.882304847         0.666370213
     0.182934150         0.382304847         0.916370213
     0.182934150         0.382304847         0.166370213
     0.182934150         0.382304847         0.416370213
     0.182934150         0.382304847         0.666370213
     0.182934150         0.882304847         0.916370213
     0.182934150         0.882304847         0.166370213
     0.182934150         0.882304847         0.416370213
     0.182934150         0.882304847         0.666370213
     0.354682773         0.176206186         0.073652208
     0.354682773         0.176206186         0.323652208
     0.354682773         0.176206186         0.573652208
     0.354682773         0.176206186         0.823652208
     0.354682773         0.676206172         0.073652208
     0.354682773         0.676206172         0.323652208
     0.354682773         0.676206172         0.573652208
     0.354682773         0.676206172         0.823652208
     0.688016117         0.176206186         0.073652208
     0.688016117         0.176206186         0.323652208
     0.688016117         0.176206186         0.573652208
     0.688016117         0.176206186         0.823652208
     0.688016117         0.676206172         0.073652208
     0.688016117         0.676206172         0.323652208
     0.688016117         0.676206172         0.573652208
     0.688016117         0.676206172         0.823652208
     0.021349439         0.176206186         0.073652208
     0.021349439         0.176206186         0.323652208
     0.021349439         0.176206186         0.573652208
     0.021349439         0.176206186         0.823652208
     0.021349439         0.676206172         0.073652208
     0.021349439         0.676206172         0.323652208
     0.021349439         0.676206172         0.573652208
     0.021349439         0.676206172         0.823652208
     0.404674321         0.193019271         0.977448463
     0.404674321         0.193019271         0.227448463
     0.404674321         0.193019271         0.477448463
     0.404674321         0.193019271         0.727448463
     0.404674321         0.693019271         0.977448463
     0.404674321         0.693019271         0.227448463
     0.404674321         0.693019271         0.477448463
     0.404674321         0.693019271         0.727448463
     0.738007665         0.193019271         0.977448463
     0.738007665         0.193019271         0.227448463
     0.738007665         0.193019271         0.477448463
     0.738007665         0.193019271         0.727448463
     0.738007665         0.693019271         0.977448463
     0.738007665         0.693019271         0.227448463
     0.738007665         0.693019271         0.477448463
     0.738007665         0.693019271         0.727448463
     0.071340986         0.193019271         0.977448463
     0.071340986         0.193019271         0.227448463
     0.071340986         0.193019271         0.477448463
     0.071340986         0.193019271         0.727448463
     0.071340986         0.693019271         0.977448463
     0.071340986         0.693019271         0.227448463
     0.071340986         0.693019271         0.477448463
     0.071340986         0.693019271         0.727448463
     0.367240787         0.320748359         0.040641531
     0.367240787         0.320748359         0.290641546
     0.367240787         0.320748359         0.540641546
     0.367240787         0.320748359         0.790641546
     0.367240787         0.820748329         0.040641531
     0.367240787         0.820748329         0.290641546
     0.367240787         0.820748329         0.540641546
     0.367240787         0.820748329         0.790641546
     0.700574100         0.320748359         0.040641531
     0.700574100         0.320748359         0.290641546
     0.700574100         0.320748359         0.540641546
     0.700574100         0.320748359         0.790641546
     0.700574100         0.820748329         0.040641531
     0.700574100         0.820748329         0.290641546
     0.700574100         0.820748329         0.540641546
     0.700574100         0.820748329         0.790641546
     0.033907454         0.320748359         0.040641531
     0.033907454         0.320748359         0.290641546
     0.033907454         0.320748359         0.540641546
     0.033907454         0.320748359         0.790641546
     0.033907454         0.820748329         0.040641531
     0.033907454         0.820748329         0.290641546
     0.033907454         0.820748329         0.540641546
     0.033907454         0.820748329         0.790641546
     0.238657713         0.504400969         0.311942220
     0.238657713         0.504400969         0.561942220
     0.238657713         0.504400969         0.811942220
     0.238657713         0.504400969         0.061942220
     0.238657713         0.004400969         0.311942220
     0.238657713         0.004400969         0.561942220
     0.238657713         0.004400969         0.811942220
     0.238657713         0.004400969         0.061942220
     0.571991026         0.504400969         0.311942220
     0.571991026         0.504400969         0.561942220
     0.571991026         0.504400969         0.811942220
     0.571991026         0.504400969         0.061942220
     0.571991026         0.004400969         0.311942220
     0.571991026         0.004400969         0.561942220
     0.571991026         0.004400969         0.811942220
     0.571991026         0.004400969         0.061942220
     0.905324399         0.504400969         0.311942220
     0.905324399         0.504400969         0.561942220
     0.905324399         0.504400969         0.811942220
     0.905324399         0.504400969         0.061942220
     0.905324399         0.004400969         0.311942220
     0.905324399         0.004400969         0.561942220
     0.905324399         0.004400969         0.811942220
     0.905324399         0.004400969         0.061942220
     0.383253962         0.159884483         0.903524041
     0.383253962         0.159884483         0.153524041
     0.383253962         0.159884483         0.403524041
     0.383253962         0.159884483         0.653524041
     0.383253962         0.659884453         0.903524041
     0.383253962         0.659884453         0.153524041
     0.383253962         0.659884453         0.403524041
     0.383253962         0.659884453         0.653524041
     0.716587305         0.159884483         0.903524041
     0.716587305         0.159884483         0.153524041
     0.716587305         0.159884483         0.403524041
     0.716587305         0.159884483         0.653524041
     0.716587305         0.659884453         0.903524041
     0.716587305         0.659884453         0.153524041
     0.716587305         0.659884453         0.403524041
     0.716587305         0.659884453         0.653524041
     0.049920630         0.159884483         0.903524041
     0.049920630         0.159884483         0.153524041
     0.049920630         0.159884483         0.403524041
     0.049920630         0.159884483         0.653524041
     0.049920630         0.659884453         0.903524041
     0.049920630         0.659884453         0.153524041
     0.049920630         0.659884453         0.403524041
     0.049920630         0.659884453         0.653524041
     0.420092225         0.161920384         0.937717438
     0.420092225         0.161920384         0.187717438
     0.420092225         0.161920384         0.437717438
     0.420092225         0.161920384         0.687717438
     0.420092225         0.661920369         0.937717438
     0.420092225         0.661920369         0.187717438
     0.420092225         0.661920369         0.437717438
     0.420092225         0.661920369         0.687717438
     0.753425539         0.161920384         0.937717438
     0.753425539         0.161920384         0.187717438
     0.753425539         0.161920384         0.437717438
     0.753425539         0.161920384         0.687717438
     0.753425539         0.661920369         0.937717438
     0.753425539         0.661920369         0.187717438
     0.753425539         0.661920369         0.437717438
     0.753425539         0.661920369         0.687717438
     0.086758889         0.161920384         0.937717438
     0.086758889         0.161920384         0.187717438
     0.086758889         0.161920384         0.437717438
     0.086758889         0.161920384         0.687717438
     0.086758889         0.661920369         0.937717438
     0.086758889         0.661920369         0.187717438
     0.086758889         0.661920369         0.437717438
     0.086758889         0.661920369         0.687717438
     0.245517313         0.414291352         0.285473347
     0.245517313         0.414291352         0.535473347
     0.245517313         0.414291352         0.785473347
     0.245517313         0.414291352         0.035473347
     0.245517313         0.914291382         0.285473347
     0.245517313         0.914291382         0.535473347
     0.245517313         0.914291382         0.785473347
     0.245517313         0.914291382         0.035473347
     0.578850627         0.414291352         0.285473347
     0.578850627         0.414291352         0.535473347
     0.578850627         0.414291352         0.785473347
     0.578850627         0.414291352         0.035473347
     0.578850627         0.914291382         0.285473347
     0.578850627         0.914291382         0.535473347
     0.578850627         0.914291382         0.785473347
     0.578850627         0.914291382         0.035473347
     0.912184000         0.414291352         0.285473347
     0.912184000         0.414291352         0.535473347
     0.912184000         0.414291352         0.785473347
     0.912184000         0.414291352         0.035473347
     0.912184000         0.914291382         0.285473347
     0.912184000         0.914291382         0.535473347
     0.912184000         0.914291382         0.785473347
     0.912184000         0.914291382         0.035473347
     0.334320277         0.142730042         0.952502906
     0.334320277         0.142730042         0.202502906
     0.334320277         0.142730042         0.452502906
     0.334320277         0.142730042         0.702502906
     0.334320277         0.642730057         0.952502906
     0.334320277         0.642730057         0.202502906
     0.334320277         0.642730057         0.452502906
     0.334320277         0.642730057         0.702502906
     0.667653620         0.142730042         0.952502906
     0.667653620         0.142730042         0.202502906
     0.667653620         0.142730042         0.452502906
     0.667653620         0.142730042         0.702502906
     0.667653620         0.642730057         0.952502906
     0.667653620         0.642730057         0.202502906
     0.667653620         0.642730057         0.452502906
     0.667653620         0.642730057         0.702502906
     0.000986944         0.142730042         0.952502906
     0.000986944         0.142730042         0.202502906
     0.000986944         0.142730042         0.452502906
     0.000986944         0.142730042         0.702502906
     0.000986944         0.642730057         0.952502906
     0.000986944         0.642730057         0.202502906
     0.000986944         0.642730057         0.452502906
     0.000986944         0.642730057         0.702502906
     0.146807611         0.458795428         0.332108080
     0.146807611         0.458795428         0.582108080
     0.146807611         0.458795428         0.832108080
     0.146807611         0.458795428         0.082108080
     0.146807611         0.958795428         0.332108080
     0.146807611         0.958795428         0.582108080
     0.146807611         0.958795428         0.832108080
     0.146807611         0.958795428         0.082108080
     0.480140954         0.458795428         0.332108080
     0.480140954         0.458795428         0.582108080
     0.480140954         0.458795428         0.832108080
     0.480140954         0.458795428         0.082108080
     0.480140954         0.958795428         0.332108080
     0.480140954         0.958795428         0.582108080
     0.480140954         0.958795428         0.832108080
     0.480140954         0.958795428         0.082108080
     0.813474298         0.458795428         0.332108080
     0.813474298         0.458795428         0.582108080
     0.813474298         0.458795428         0.832108080
     0.813474298         0.458795428         0.082108080
     0.813474298         0.958795428         0.332108080
     0.813474298         0.958795428         0.582108080
     0.813474298         0.958795428         0.832108080
     0.813474298         0.958795428         0.082108080
     0.490517825         0.418230474         0.944401324
     0.490517825         0.418230474         0.194401324
     0.490517825         0.418230474         0.444401324
     0.490517825         0.418230474         0.694401324
     0.490517825         0.918230474         0.944401324
     0.490517825         0.918230474         0.194401324
     0.490517825         0.918230474         0.444401324
     0.490517825         0.918230474         0.694401324
     0.823851168         0.418230474         0.944401324
     0.823851168         0.418230474         0.194401324
     0.823851168         0.418230474         0.444401324
     0.823851168         0.418230474         0.694401324
     0.823851168         0.918230474         0.944401324
     0.823851168         0.918230474         0.194401324
     0.823851168         0.918230474         0.444401324
     0.823851168         0.918230474         0.694401324
     0.157184497         0.418230474         0.944401324
     0.157184497         0.418230474         0.194401324
     0.157184497         0.418230474         0.444401324
     0.157184497         0.418230474         0.694401324
     0.157184497         0.918230474         0.944401324
     0.157184497         0.918230474         0.194401324
     0.157184497         0.918230474         0.444401324
     0.157184497         0.918230474         0.694401324
     0.372725248         0.111384287         0.985623598
     0.372725248         0.111384287         0.235623598
     0.372725248         0.111384287         0.485623598
     0.372725248         0.111384287         0.735623598
     0.372725248         0.611384273         0.985623598
     0.372725248         0.611384273         0.235623598
     0.372725248         0.611384273         0.485623598
     0.372725248         0.611384273         0.735623598
     0.706058562         0.111384287         0.985623598
     0.706058562         0.111384287         0.235623598
     0.706058562         0.111384287         0.485623598
     0.706058562         0.111384287         0.735623598
     0.706058562         0.611384273         0.985623598
     0.706058562         0.611384273         0.235623598
     0.706058562         0.611384273         0.485623598
     0.706058562         0.611384273         0.735623598
     0.039391916         0.111384287         0.985623598
     0.039391916         0.111384287         0.235623598
     0.039391916         0.111384287         0.485623598
     0.039391916         0.111384287         0.735623598
     0.039391916         0.611384273         0.985623598
     0.039391916         0.611384273         0.235623598
     0.039391916         0.611384273         0.485623598
     0.039391916         0.611384273         0.735623598
     0.219228521         0.455156833         0.268266976
     0.219228521         0.455156833         0.518266976
     0.219228521         0.455156833         0.768266976
     0.219228521         0.455156833         0.018266976
     0.219228521         0.955156803         0.268266976
     0.219228521         0.955156803         0.518266976
     0.219228521         0.955156803         0.768266976
     0.219228521         0.955156803         0.018266976
     0.552561879         0.455156833         0.268266976
     0.552561879         0.455156833         0.518266976
     0.552561879         0.455156833         0.768266976
     0.552561879         0.455156833         0.018266976
     0.552561879         0.955156803         0.268266976
     0.552561879         0.955156803         0.518266976
     0.552561879         0.955156803         0.768266976
     0.552561879         0.955156803         0.018266976
     0.885895193         0.455156833         0.268266976
     0.885895193         0.455156833         0.518266976
     0.885895193         0.455156833         0.768266976
     0.885895193         0.455156833         0.018266976
     0.885895193         0.955156803         0.268266976
     0.885895193         0.955156803         0.518266976
     0.885895193         0.955156803         0.768266976
     0.885895193         0.955156803         0.018266976
     0.289992720         0.412760675         0.287153214
     0.289992720         0.412760675         0.537153244
     0.289992720         0.412760675         0.787153244
     0.289992720         0.412760675         0.037153214
     0.289992720         0.912760675         0.287153214
     0.289992720         0.912760675         0.537153244
     0.289992720         0.912760675         0.787153244
     0.289992720         0.912760675         0.037153214
     0.623326063         0.412760675         0.287153214
     0.623326063         0.412760675         0.537153244
     0.623326063         0.412760675         0.787153244
     0.623326063         0.412760675         0.037153214
     0.623326063         0.912760675         0.287153214
     0.623326063         0.912760675         0.537153244
     0.623326063         0.912760675         0.787153244
     0.623326063         0.912760675         0.037153214
     0.956659377         0.412760675         0.287153214
     0.956659377         0.412760675         0.537153244
     0.956659377         0.412760675         0.787153244
     0.956659377         0.412760675         0.037153214
     0.956659377         0.912760675         0.287153214
     0.956659377         0.912760675         0.537153244
     0.956659377         0.912760675         0.787153244
     0.956659377         0.912760675         0.037153214
     0.338962197         0.178866237         0.920430005
     0.338962197         0.178866237         0.170430005
     0.338962197         0.178866237         0.420430005
     0.338962197         0.178866237         0.670430005
     0.338962197         0.678866267         0.920430005
     0.338962197         0.678866267         0.170430005
     0.338962197         0.678866267         0.420430005
     0.338962197         0.678866267         0.670430005
     0.672295511         0.178866237         0.920430005
     0.672295511         0.178866237         0.170430005
     0.672295511         0.178866237         0.420430005
     0.672295511         0.178866237         0.670430005
     0.672295511         0.678866267         0.920430005
     0.672295511         0.678866267         0.170430005
     0.672295511         0.678866267         0.420430005
     0.672295511         0.678866267         0.670430005
     0.005628864         0.178866237         0.920430005
     0.005628864         0.178866237         0.170430005
     0.005628864         0.178866237         0.420430005
     0.005628864         0.178866237         0.670430005
     0.005628864         0.678866267         0.920430005
     0.005628864         0.678866267         0.170430005
     0.005628864         0.678866267         0.420430005
     0.005628864         0.678866267         0.670430005
     0.383366436         0.068447985         0.461590260
     0.383366436         0.068447985         0.711590290
     0.383366436         0.068447985         0.961590290
     0.383366436         0.068447985         0.211590260
     0.383366436         0.568448007         0.461590260
     0.383366436         0.568448007         0.711590290
     0.383366436         0.568448007         0.961590290
     0.383366436         0.568448007         0.211590260
     0.716699779         0.068447985         0.461590260
     0.716699779         0.068447985         0.711590290
     0.716699779         0.068447985         0.961590290
     0.716699779         0.068447985         0.211590260
     0.716699779         0.568448007         0.461590260
     0.716699779         0.568448007         0.711590290
     0.716699779         0.568448007         0.961590290
     0.716699779         0.568448007         0.211590260
     0.050033104         0.068447985         0.461590260
     0.050033104         0.068447985         0.711590290
     0.050033104         0.068447985         0.961590290
     0.050033104         0.068447985         0.211590260
     0.050033104         0.568448007         0.461590260
     0.050033104         0.568448007         0.711590290
     0.050033104         0.568448007         0.961590290
     0.050033104         0.568448007         0.211590260
     0.377579302         0.248867810         0.107130773
     0.377579302         0.248867810         0.357130766
     0.377579302         0.248867810         0.607130766
     0.377579302         0.248867810         0.857130766
     0.377579302         0.748867810         0.107130773
     0.377579302         0.748867810         0.357130766
     0.377579302         0.748867810         0.607130766
     0.377579302         0.748867810         0.857130766
     0.710912645         0.248867810         0.107130773
     0.710912645         0.248867810         0.357130766
     0.710912645         0.248867810         0.607130766
     0.710912645         0.248867810         0.857130766
     0.710912645         0.748867810         0.107130773
     0.710912645         0.748867810         0.357130766
     0.710912645         0.748867810         0.607130766
     0.710912645         0.748867810         0.857130766
     0.044245970         0.248867810         0.107130773
     0.044245970         0.248867810         0.357130766
     0.044245970         0.248867810         0.607130766
     0.044245970         0.248867810         0.857130766
     0.044245970         0.748867810         0.107130773
     0.044245970         0.748867810         0.357130766
     0.044245970         0.748867810         0.607130766
     0.044245970         0.748867810         0.857130766
     0.384653419         0.046086304         0.326787591
     0.384653419         0.046086304         0.576787591
     0.384653419         0.046086304         0.826787591
     0.384653419         0.046086304         0.076787591
     0.384653419         0.546086311         0.326787591
     0.384653419         0.546086311         0.576787591
     0.384653419         0.546086311         0.826787591
     0.384653419         0.546086311         0.076787591
     0.717986763         0.046086304         0.326787591
     0.717986763         0.046086304         0.576787591
     0.717986763         0.046086304         0.826787591
     0.717986763         0.046086304         0.076787591
     0.717986763         0.546086311         0.326787591
     0.717986763         0.546086311         0.576787591
     0.717986763         0.546086311         0.826787591
     0.717986763         0.546086311         0.076787591
     0.051320087         0.046086304         0.326787591
     0.051320087         0.046086304         0.576787591
     0.051320087         0.046086304         0.826787591
     0.051320087         0.046086304         0.076787591
     0.051320087         0.546086311         0.326787591
     0.051320087         0.546086311         0.576787591
     0.051320087         0.546086311         0.826787591
     0.051320087         0.546086311         0.076787591
     0.344666034         0.923734844         0.273200303
     0.344666034         0.923734844         0.523200274
     0.344666034         0.923734844         0.773200274
     0.344666034         0.923734844         0.023200303
     0.344666034         0.423734844         0.273200303
     0.344666034         0.423734844         0.523200274
     0.344666034         0.423734844         0.773200274
     0.344666034         0.423734844         0.023200303
     0.677999377         0.923734844         0.273200303
     0.677999377         0.923734844         0.523200274
     0.677999377         0.923734844         0.773200274
     0.677999377         0.923734844         0.023200303
     0.677999377         0.423734844         0.273200303
     0.677999377         0.423734844         0.523200274
     0.677999377         0.423734844         0.773200274
     0.677999377         0.423734844         0.023200303
     0.011332701         0.923734844         0.273200303
     0.011332701         0.923734844         0.523200274
     0.011332701         0.923734844         0.773200274
     0.011332701         0.923734844         0.023200303
     0.011332701         0.423734844         0.273200303
     0.011332701         0.423734844         0.523200274
     0.011332701         0.423734844         0.773200274
     0.011332701         0.423734844         0.023200303
     0.317530066         0.064565010         0.365762979
     0.317530066         0.064565010         0.615762949
     0.317530066         0.064565010         0.865762949
     0.317530066         0.064565010         0.115762979
     0.317530066         0.564565003         0.365762979
     0.317530066         0.564565003         0.615762949
     0.317530066         0.564565003         0.865762949
     0.317530066         0.564565003         0.115762979
     0.650863409         0.064565010         0.365762979
     0.650863409         0.064565010         0.615762949
     0.650863409         0.064565010         0.865762949
     0.650863409         0.064565010         0.115762979
     0.650863409         0.564565003         0.365762979
     0.650863409         0.564565003         0.615762949
     0.650863409         0.564565003         0.865762949
     0.650863409         0.564565003         0.115762979
     0.984196723         0.064565010         0.365762979
     0.984196723         0.064565010         0.615762949
     0.984196723         0.064565010         0.865762949
     0.984196723         0.064565010         0.115762979
     0.984196723         0.564565003         0.365762979
     0.984196723         0.564565003         0.615762949
     0.984196723         0.564565003         0.865762949
     0.984196723         0.564565003         0.115762979
     0.272363782         0.097572632         0.268430412
     0.272363782         0.097572632         0.518430412
     0.272363782         0.097572632         0.768430412
     0.272363782         0.097572632         0.018430412
     0.272363782         0.597572625         0.268430412
     0.272363782         0.597572625         0.518430412
     0.272363782         0.597572625         0.768430412
     0.272363782         0.597572625         0.018430412
     0.605697095         0.097572632         0.268430412
     0.605697095         0.097572632         0.518430412
     0.605697095         0.097572632         0.768430412
     0.605697095         0.097572632         0.018430412
     0.605697095         0.597572625         0.268430412
     0.605697095         0.597572625         0.518430412
     0.605697095         0.597572625         0.768430412
     0.605697095         0.597572625         0.018430412
     0.939030468         0.097572632         0.268430412
     0.939030468         0.097572632         0.518430412
     0.939030468         0.097572632         0.768430412
     0.939030468         0.097572632         0.018430412
     0.939030468         0.597572625         0.268430412
     0.939030468         0.597572625         0.518430412
     0.939030468         0.597572625         0.768430412
     0.939030468         0.597572625         0.018430412
     0.179279387         0.133870378         0.246165201
     0.179279387         0.133870378         0.496165216
     0.179279387         0.133870378         0.746165216
     0.179279387         0.133870378         0.996165216
     0.179279387         0.633870363         0.246165201
     0.179279387         0.633870363         0.496165216
     0.179279387         0.633870363         0.746165216
     0.179279387         0.633870363         0.996165216
     0.512612700         0.133870378         0.246165201
     0.512612700         0.133870378         0.496165216
     0.512612700         0.133870378         0.746165216
     0.512612700         0.133870378         0.996165216
     0.512612700         0.633870363         0.246165201
     0.512612700         0.633870363         0.496165216
     0.512612700         0.633870363         0.746165216
     0.512612700         0.633870363         0.996165216
     0.845946074         0.133870378         0.246165201
     0.845946074         0.133870378         0.496165216
     0.845946074         0.133870378         0.746165216
     0.845946074         0.133870378         0.996165216
     0.845946074         0.633870363         0.246165201
     0.845946074         0.633870363         0.496165216
     0.845946074         0.633870363         0.746165216
     0.845946074         0.633870363         0.996165216
     0.229697406         0.168023840         0.227510989
     0.229697406         0.168023840         0.477510989
     0.229697406         0.168023840         0.727510989
     0.229697406         0.168023840         0.977510989
     0.229697406         0.668023825         0.227510989
     0.229697406         0.668023825         0.477510989
     0.229697406         0.668023825         0.727510989
     0.229697406         0.668023825         0.977510989
     0.563030720         0.168023840         0.227510989
     0.563030720         0.168023840         0.477510989
     0.563030720         0.168023840         0.727510989
     0.563030720         0.168023840         0.977510989
     0.563030720         0.668023825         0.227510989
     0.563030720         0.668023825         0.477510989
     0.563030720         0.668023825         0.727510989
     0.563030720         0.668023825         0.977510989
     0.896364093         0.168023840         0.227510989
     0.896364093         0.168023840         0.477510989
     0.896364093         0.168023840         0.727510989
     0.896364093         0.168023840         0.977510989
     0.896364093         0.668023825         0.227510989
     0.896364093         0.668023825         0.477510989
     0.896364093         0.668023825         0.727510989
     0.896364093         0.668023825         0.977510989
     0.325733095         0.816329539         0.251465470
     0.325733095         0.816329539         0.501465440
     0.325733095         0.816329539         0.751465440
     0.325733095         0.816329539         0.001465470
     0.325733095         0.316329539         0.251465470
     0.325733095         0.316329539         0.501465440
     0.325733095         0.316329539         0.751465440
     0.325733095         0.316329539         0.001465470
     0.659066439         0.816329539         0.251465470
     0.659066439         0.816329539         0.501465440
     0.659066439         0.816329539         0.751465440
     0.659066439         0.816329539         0.001465470
     0.659066439         0.316329539         0.251465470
     0.659066439         0.316329539         0.501465440
     0.659066439         0.316329539         0.751465440
     0.659066439         0.316329539         0.001465470
     0.992399752         0.816329539         0.251465470
     0.992399752         0.816329539         0.501465440
     0.992399752         0.816329539         0.751465440
     0.992399752         0.816329539         0.001465470
     0.992399752         0.316329539         0.251465470
     0.992399752         0.316329539         0.501465440
     0.992399752         0.316329539         0.751465440
     0.992399752         0.316329539         0.001465470
     0.176661476         0.170148388         0.322710693
     0.176661476         0.170148388         0.572710693
     0.176661476         0.170148388         0.822710693
     0.176661476         0.170148388         0.072710693
     0.176661476         0.670148373         0.322710693
     0.176661476         0.670148373         0.572710693
     0.176661476         0.670148373         0.822710693
     0.176661476         0.670148373         0.072710693
     0.509994805         0.170148388         0.322710693
     0.509994805         0.170148388         0.572710693
     0.509994805         0.170148388         0.822710693
     0.509994805         0.170148388         0.072710693
     0.509994805         0.670148373         0.322710693
     0.509994805         0.670148373         0.572710693
     0.509994805         0.670148373         0.822710693
     0.509994805         0.670148373         0.072710693
     0.843328118         0.170148388         0.322710693
     0.843328118         0.170148388         0.572710693
     0.843328118         0.170148388         0.822710693
     0.843328118         0.170148388         0.072710693
     0.843328118         0.670148373         0.322710693
     0.843328118         0.670148373         0.572710693
     0.843328118         0.670148373         0.822710693
     0.843328118         0.670148373         0.072710693
     0.164051190         0.063715324         0.293421388
     0.164051190         0.063715324         0.543421388
     0.164051190         0.063715324         0.793421388
     0.164051190         0.063715324         0.043421388
     0.164051190         0.563715339         0.293421388
     0.164051190         0.563715339         0.543421388
     0.164051190         0.563715339         0.793421388
     0.164051190         0.563715339         0.043421388
     0.497384518         0.063715324         0.293421388
     0.497384518         0.063715324         0.543421388
     0.497384518         0.063715324         0.793421388
     0.497384518         0.063715324         0.043421388
     0.497384518         0.563715339         0.293421388
     0.497384518         0.563715339         0.543421388
     0.497384518         0.563715339         0.793421388
     0.497384518         0.563715339         0.043421388
     0.830717862         0.063715324         0.293421388
     0.830717862         0.063715324         0.543421388
     0.830717862         0.063715324         0.793421388
     0.830717862         0.063715324         0.043421388
     0.830717862         0.563715339         0.293421388
     0.830717862         0.563715339         0.543421388
     0.830717862         0.563715339         0.793421388
     0.830717862         0.563715339         0.043421388
     0.275150895         0.145679116         0.212046906
     0.275150895         0.145679116         0.462046921
     0.275150895         0.145679116         0.712046921
     0.275150895         0.145679116         0.962046921
     0.275150895         0.645679116         0.212046906
     0.275150895         0.645679116         0.462046921
     0.275150895         0.645679116         0.712046921
     0.275150895         0.645679116         0.962046921
     0.608484209         0.145679116         0.212046906
     0.608484209         0.145679116         0.462046921
     0.608484209         0.145679116         0.712046921
     0.608484209         0.145679116         0.962046921
     0.608484209         0.645679116         0.212046906
     0.608484209         0.645679116         0.462046921
     0.608484209         0.645679116         0.712046921
     0.608484209         0.645679116         0.962046921
     0.941817582         0.145679116         0.212046906
     0.941817582         0.145679116         0.462046921
     0.941817582         0.145679116         0.712046921
     0.941817582         0.145679116         0.962046921
     0.941817582         0.645679116         0.212046906
     0.941817582         0.645679116         0.462046921
     0.941817582         0.645679116         0.712046921
     0.941817582         0.645679116         0.962046921
     0.276891798         0.085211024         0.211972937
     0.276891798         0.085211024         0.461972952
     0.276891798         0.085211024         0.711972952
     0.276891798         0.085211024         0.961972952
     0.276891798         0.585211039         0.211972937
     0.276891798         0.585211039         0.461972952
     0.276891798         0.585211039         0.711972952
     0.276891798         0.585211039         0.961972952
     0.610225141         0.085211024         0.211972937
     0.610225141         0.085211024         0.461972952
     0.610225141         0.085211024         0.711972952
     0.610225141         0.085211024         0.961972952
     0.610225141         0.585211039         0.211972937
     0.610225141         0.585211039         0.461972952
     0.610225141         0.585211039         0.711972952
     0.610225141         0.585211039         0.961972952
     0.943558455         0.085211024         0.211972937
     0.943558455         0.085211024         0.461972952
     0.943558455         0.085211024         0.711972952
     0.943558455         0.085211024         0.961972952
     0.943558455         0.585211039         0.211972937
     0.943558455         0.585211039         0.461972952
     0.943558455         0.585211039         0.711972952
     0.943558455         0.585211039         0.961972952
     0.247152567         0.063398391         0.268314540
     0.247152567         0.063398391         0.518314540
     0.247152567         0.063398391         0.768314540
     0.247152567         0.063398391         0.018314540
     0.247152567         0.563398361         0.268314540
     0.247152567         0.563398361         0.518314540
     0.247152567         0.563398361         0.768314540
     0.247152567         0.563398361         0.018314540
     0.580485880         0.063398391         0.268314540
     0.580485880         0.063398391         0.518314540
     0.580485880         0.063398391         0.768314540
     0.580485880         0.063398391         0.018314540
     0.580485880         0.563398361         0.268314540
     0.580485880         0.563398361         0.518314540
     0.580485880         0.563398361         0.768314540
     0.580485880         0.563398361         0.018314540
     0.913819253         0.063398391         0.268314540
     0.913819253         0.063398391         0.518314540
     0.913819253         0.063398391         0.768314540
     0.913819253         0.063398391         0.018314540
     0.913819253         0.563398361         0.268314540
     0.913819253         0.563398361         0.518314540
     0.913819253         0.563398361         0.768314540
     0.913819253         0.563398361         0.018314540
     0.297614634         0.914618790         0.191413894
     0.297614634         0.914618790         0.441413879
     0.297614634         0.914618790         0.691413879
     0.297614634         0.914618790         0.941413879
     0.297614634         0.414618790         0.191413894
     0.297614634         0.414618790         0.441413879
     0.297614634         0.414618790         0.691413879
     0.297614634         0.414618790         0.941413879
     0.630947948         0.914618790         0.191413894
     0.630947948         0.914618790         0.441413879
     0.630947948         0.914618790         0.691413879
     0.630947948         0.914618790         0.941413879
     0.630947948         0.414618790         0.191413894
     0.630947948         0.414618790         0.441413879
     0.630947948         0.414618790         0.691413879
     0.630947948         0.414618790         0.941413879
     0.964281321         0.914618790         0.191413894
     0.964281321         0.914618790         0.441413879
     0.964281321         0.914618790         0.691413879
     0.964281321         0.914618790         0.941413879
     0.964281321         0.414618790         0.191413894
     0.964281321         0.414618790         0.441413879
     0.964281321         0.414618790         0.691413879
     0.964281321         0.414618790         0.941413879
     0.204414725         0.103982978         0.219561473
     0.204414725         0.103982978         0.469561458
     0.204414725         0.103982978         0.719561458
     0.204414725         0.103982978         0.969561458
     0.204414725         0.603982985         0.219561473
     0.204414725         0.603982985         0.469561458
     0.204414725         0.603982985         0.719561458
     0.204414725         0.603982985         0.969561458
     0.537748039         0.103982978         0.219561473
     0.537748039         0.103982978         0.469561458
     0.537748039         0.103982978         0.719561458
     0.537748039         0.103982978         0.969561458
     0.537748039         0.603982985         0.219561473
     0.537748039         0.603982985         0.469561458
     0.537748039         0.603982985         0.719561458
     0.537748039         0.603982985         0.969561458
     0.871081412         0.103982978         0.219561473
     0.871081412         0.103982978         0.469561458
     0.871081412         0.103982978         0.719561458
     0.871081412         0.103982978         0.969561458
     0.871081412         0.603982985         0.219561473
     0.871081412         0.603982985         0.469561458
     0.871081412         0.603982985         0.719561458
     0.871081412         0.603982985         0.969561458
     0.160285905         0.218586132         0.386870950
     0.160285905         0.218586132         0.636870980
     0.160285905         0.218586132         0.886870980
     0.160285905         0.218586132         0.136870950
     0.160285905         0.718586147         0.386870950
     0.160285905         0.718586147         0.636870980
     0.160285905         0.718586147         0.886870980
     0.160285905         0.718586147         0.136870950
     0.493619233         0.218586132         0.386870950
     0.493619233         0.218586132         0.636870980
     0.493619233         0.218586132         0.886870980
     0.493619233         0.218586132         0.136870950
     0.493619233         0.718586147         0.386870950
     0.493619233         0.718586147         0.636870980
     0.493619233         0.718586147         0.886870980
     0.493619233         0.718586147         0.136870950
     0.826952577         0.218586132         0.386870950
     0.826952577         0.218586132         0.636870980
     0.826952577         0.218586132         0.886870980
     0.826952577         0.218586132         0.136870950
     0.826952577         0.718586147         0.386870950
     0.826952577         0.718586147         0.636870980
     0.826952577         0.718586147         0.886870980
     0.826952577         0.718586147         0.136870950
     0.240941837         0.861821771         0.291398972
     0.240941837         0.861821771         0.541399002
     0.240941837         0.861821771         0.791399002
     0.240941837         0.861821771         0.041398972
     0.240941837         0.361821771         0.291398972
     0.240941837         0.361821771         0.541399002
     0.240941837         0.361821771         0.791399002
     0.240941837         0.361821771         0.041398972
     0.574275196         0.861821771         0.291398972
     0.574275196         0.861821771         0.541399002
     0.574275196         0.861821771         0.791399002
     0.574275196         0.861821771         0.041398972
     0.574275196         0.361821771         0.291398972
     0.574275196         0.361821771         0.541399002
     0.574275196         0.361821771         0.791399002
     0.574275196         0.361821771         0.041398972
     0.907608509         0.861821771         0.291398972
     0.907608509         0.861821771         0.541399002
     0.907608509         0.861821771         0.791399002
     0.907608509         0.861821771         0.041398972
     0.907608509         0.361821771         0.291398972
     0.907608509         0.361821771         0.541399002
     0.907608509         0.361821771         0.791399002
     0.907608509         0.361821771         0.041398972
     0.114420660         0.340288699         0.083226793
     0.114420660         0.340288699         0.333226800
     0.114420660         0.340288699         0.583226800
     0.114420660         0.340288699         0.833226800
     0.114420660         0.840288699         0.083226793
     0.114420660         0.840288699         0.333226800
     0.114420660         0.840288699         0.583226800
     0.114420660         0.840288699         0.833226800
     0.447753996         0.340288699         0.083226793
     0.447753996         0.340288699         0.333226800
     0.447753996         0.340288699         0.583226800
     0.447753996         0.340288699         0.833226800
     0.447753996         0.840288699         0.083226793
     0.447753996         0.840288699         0.333226800
     0.447753996         0.840288699         0.583226800
     0.447753996         0.840288699         0.833226800
     0.781087339         0.340288699         0.083226793
     0.781087339         0.340288699         0.333226800
     0.781087339         0.340288699         0.583226800
     0.781087339         0.340288699         0.833226800
     0.781087339         0.840288699         0.083226793
     0.781087339         0.840288699         0.333226800
     0.781087339         0.840288699         0.583226800
     0.781087339         0.840288699         0.833226800
     0.092084318         0.393944472         0.061080698
     0.092084318         0.393944472         0.311080694
     0.092084318         0.393944472         0.561080694
     0.092084318         0.393944472         0.811080694
     0.092084318         0.893944502         0.061080698
     0.092084318         0.893944502         0.311080694
     0.092084318         0.893944502         0.561080694
     0.092084318         0.893944502         0.811080694
     0.425417662         0.393944472         0.061080698
     0.425417662         0.393944472         0.311080694
     0.425417662         0.393944472         0.561080694
     0.425417662         0.393944472         0.811080694
     0.425417662         0.893944502         0.061080698
     0.425417662         0.893944502         0.311080694
     0.425417662         0.893944502         0.561080694
     0.425417662         0.893944502         0.811080694
     0.758750975         0.393944472         0.061080698
     0.758750975         0.393944472         0.311080694
     0.758750975         0.393944472         0.561080694
     0.758750975         0.393944472         0.811080694
     0.758750975         0.893944502         0.061080698
     0.758750975         0.893944502         0.311080694
     0.758750975         0.893944502         0.561080694
     0.758750975         0.893944502         0.811080694
     0.143939301         0.414779574         0.029475471
     0.143939301         0.414779574         0.279475480
     0.143939301         0.414779574         0.529475451
     0.143939301         0.414779574         0.779475451
     0.143939301         0.914779544         0.029475471
     0.143939301         0.914779544         0.279475480
     0.143939301         0.914779544         0.529475451
     0.143939301         0.914779544         0.779475451
     0.477272630         0.414779574         0.029475471
     0.477272630         0.414779574         0.279475480
     0.477272630         0.414779574         0.529475451
     0.477272630         0.414779574         0.779475451
     0.477272630         0.914779544         0.029475471
     0.477272630         0.914779544         0.279475480
     0.477272630         0.914779544         0.529475451
     0.477272630         0.914779544         0.779475451
     0.810605943         0.414779574         0.029475471
     0.810605943         0.414779574         0.279475480
     0.810605943         0.414779574         0.529475451
     0.810605943         0.414779574         0.779475451
     0.810605943         0.914779544         0.029475471
     0.810605943         0.914779544         0.279475480
     0.810605943         0.914779544         0.529475451
     0.810605943         0.914779544         0.779475451
     0.092829369         0.375790715         0.148453385
     0.092829369         0.375790715         0.398453385
     0.092829369         0.375790715         0.648453355
     0.092829369         0.375790715         0.898453355
     0.092829369         0.875790715         0.148453385
     0.092829369         0.875790715         0.398453385
     0.092829369         0.875790715         0.648453355
     0.092829369         0.875790715         0.898453355
     0.426162690         0.375790715         0.148453385
     0.426162690         0.375790715         0.398453385
     0.426162690         0.375790715         0.648453355
     0.426162690         0.375790715         0.898453355
     0.426162690         0.875790715         0.148453385
     0.426162690         0.875790715         0.398453385
     0.426162690         0.875790715         0.648453355
     0.426162690         0.875790715         0.898453355
     0.759496033         0.375790715         0.148453385
     0.759496033         0.375790715         0.398453385
     0.759496033         0.375790715         0.648453355
     0.759496033         0.375790715         0.898453355
     0.759496033         0.875790715         0.148453385
     0.759496033         0.875790715         0.398453385
     0.759496033         0.875790715         0.648453355
     0.759496033         0.875790715         0.898453355
     0.080650590         0.343486249         0.056269694
     0.080650590         0.343486249         0.306269705
     0.080650590         0.343486249         0.556269705
     0.080650590         0.343486249         0.806269705
     0.080650590         0.843486249         0.056269694
     0.080650590         0.843486249         0.306269705
     0.080650590         0.843486249         0.556269705
     0.080650590         0.843486249         0.806269705
     0.413983911         0.343486249         0.056269694
     0.413983911         0.343486249         0.306269705
     0.413983911         0.343486249         0.556269705
     0.413983911         0.343486249         0.806269705
     0.413983911         0.843486249         0.056269694
     0.413983911         0.843486249         0.306269705
     0.413983911         0.843486249         0.556269705
     0.413983911         0.843486249         0.806269705
     0.747317255         0.343486249         0.056269694
     0.747317255         0.343486249         0.306269705
     0.747317255         0.343486249         0.556269705
     0.747317255         0.343486249         0.806269705
     0.747317255         0.843486249         0.056269694
     0.747317255         0.843486249         0.306269705
     0.747317255         0.843486249         0.556269705
     0.747317255         0.843486249         0.806269705
     0.326190829         0.873484850         0.966905713
     0.326190829         0.873484850         0.216905713
     0.326190829         0.873484850         0.466905713
     0.326190829         0.873484850         0.716905713
     0.326190829         0.373484850         0.966905713
     0.326190829         0.373484850         0.216905713
     0.326190829         0.373484850         0.466905713
     0.326190829         0.373484850         0.716905713
     0.659524143         0.873484850         0.966905713
     0.659524143         0.873484850         0.216905713
     0.659524143         0.873484850         0.466905713
     0.659524143         0.873484850         0.716905713
     0.659524143         0.373484850         0.966905713
     0.659524143         0.373484850         0.216905713
     0.659524143         0.373484850         0.466905713
     0.659524143         0.373484850         0.716905713
     0.992857516         0.873484850         0.966905713
     0.992857516         0.873484850         0.216905713
     0.992857516         0.873484850         0.466905713
     0.992857516         0.873484850         0.716905713
     0.992857516         0.373484850         0.966905713
     0.992857516         0.373484850         0.216905713
     0.992857516         0.373484850         0.466905713
     0.992857516         0.373484850         0.716905713
     0.128585845         0.407348037         0.103324652
     0.128585845         0.407348037         0.353324652
     0.128585845         0.407348037         0.603324652
     0.128585845         0.407348037         0.853324652
     0.128585845         0.907348037         0.103324652
     0.128585845         0.907348037         0.353324652
     0.128585845         0.907348037         0.603324652
     0.128585845         0.907348037         0.853324652
     0.461919188         0.407348037         0.103324652
     0.461919188         0.407348037         0.353324652
     0.461919188         0.407348037         0.603324652
     0.461919188         0.407348037         0.853324652
     0.461919188         0.907348037         0.103324652
     0.461919188         0.907348037         0.353324652
     0.461919188         0.907348037         0.603324652
     0.461919188         0.907348037         0.853324652
     0.795252502         0.407348037         0.103324652
     0.795252502         0.407348037         0.353324652
     0.795252502         0.407348037         0.603324652
     0.795252502         0.407348037         0.853324652
     0.795252502         0.907348037         0.103324652
     0.795252502         0.907348037         0.353324652
     0.795252502         0.907348037         0.603324652
     0.795252502         0.907348037         0.853324652
     0.078364715         0.006817988         0.353867084
     0.078364715         0.006817988         0.603867054
     0.078364715         0.006817988         0.853867054
     0.078364715         0.006817988         0.103867084
     0.078364715         0.506817997         0.353867084
     0.078364715         0.506817997         0.603867054
     0.078364715         0.506817997         0.853867054
     0.078364715         0.506817997         0.103867084
     0.411698043         0.006817988         0.353867084
     0.411698043         0.006817988         0.603867054
     0.411698043         0.006817988         0.853867054
     0.411698043         0.006817988         0.103867084
     0.411698043         0.506817997         0.353867084
     0.411698043         0.506817997         0.603867054
     0.411698043         0.506817997         0.853867054
     0.411698043         0.506817997         0.103867084
     0.745031357         0.006817988         0.353867084
     0.745031357         0.006817988         0.603867054
     0.745031357         0.006817988         0.853867054
     0.745031357         0.006817988         0.103867084
     0.745031357         0.506817997         0.353867084
     0.745031357         0.506817997         0.603867054
     0.745031357         0.506817997         0.853867054
     0.745031357         0.506817997         0.103867084
     0.145120278         0.373901516         0.120814145
     0.145120278         0.373901516         0.370814145
     0.145120278         0.373901516         0.620814145
     0.145120278         0.373901516         0.870814145
     0.145120278         0.873901486         0.120814145
     0.145120278         0.873901486         0.370814145
     0.145120278         0.873901486         0.620814145
     0.145120278         0.873901486         0.870814145
     0.478453606         0.373901516         0.120814145
     0.478453606         0.373901516         0.370814145
     0.478453606         0.373901516         0.620814145
     0.478453606         0.373901516         0.870814145
     0.478453606         0.873901486         0.120814145
     0.478453606         0.873901486         0.370814145
     0.478453606         0.873901486         0.620814145
     0.478453606         0.873901486         0.870814145
     0.811786950         0.373901516         0.120814145
     0.811786950         0.373901516         0.370814145
     0.811786950         0.373901516         0.620814145
     0.811786950         0.373901516         0.870814145
     0.811786950         0.873901486         0.120814145
     0.811786950         0.873901486         0.370814145
     0.811786950         0.873901486         0.620814145
     0.811786950         0.873901486         0.870814145
     0.208447516         0.115177780         0.307877570
     0.208447516         0.115177780         0.557877541
     0.208447516         0.115177780         0.807877541
     0.208447516         0.115177780         0.057877570
     0.208447516         0.615177751         0.307877570
     0.208447516         0.615177751         0.557877541
     0.208447516         0.615177751         0.807877541
     0.208447516         0.615177751         0.057877570
     0.541780829         0.115177780         0.307877570
     0.541780829         0.115177780         0.557877541
     0.541780829         0.115177780         0.807877541
     0.541780829         0.115177780         0.057877570
     0.541780829         0.615177751         0.307877570
     0.541780829         0.615177751         0.557877541
     0.541780829         0.615177751         0.807877541
     0.541780829         0.615177751         0.057877570
     0.875114202         0.115177780         0.307877570
     0.875114202         0.115177780         0.557877541
     0.875114202         0.115177780         0.807877541
     0.875114202         0.115177780         0.057877570
     0.875114202         0.615177751         0.307877570
     0.875114202         0.615177751         0.557877541
     0.875114202         0.615177751         0.807877541
     0.875114202         0.615177751         0.057877570
     0.107020162         0.695299149         0.020683547
     0.107020162         0.695299149         0.270683557
     0.107020162         0.695299149         0.520683527
     0.107020162         0.695299149         0.770683527
     0.107020162         0.195299149         0.020683547
     0.107020162         0.195299149         0.270683557
     0.107020162         0.195299149         0.520683527
     0.107020162         0.195299149         0.770683527
     0.440353483         0.695299149         0.020683547
     0.440353483         0.695299149         0.270683557
     0.440353483         0.695299149         0.520683527
     0.440353483         0.695299149         0.770683527
     0.440353483         0.195299149         0.020683547
     0.440353483         0.195299149         0.270683557
     0.440353483         0.195299149         0.520683527
     0.440353483         0.195299149         0.770683527
     0.773686826         0.695299149         0.020683547
     0.773686826         0.695299149         0.270683557
     0.773686826         0.695299149         0.520683527
     0.773686826         0.695299149         0.770683527
     0.773686826         0.195299149         0.020683547
     0.773686826         0.195299149         0.270683557
     0.773686826         0.195299149         0.520683527
     0.773686826         0.195299149         0.770683527
     0.187755346         0.838890493         0.008502490
     0.187755346         0.838890493         0.258502483
     0.187755346         0.838890493         0.508502483
     0.187755346         0.838890493         0.758502483
     0.187755346         0.338890493         0.008502490
     0.187755346         0.338890493         0.258502483
     0.187755346         0.338890493         0.508502483
     0.187755346         0.338890493         0.758502483
     0.521088660         0.838890493         0.008502490
     0.521088660         0.838890493         0.258502483
     0.521088660         0.838890493         0.508502483
     0.521088660         0.838890493         0.758502483
     0.521088660         0.338890493         0.008502490
     0.521088660         0.338890493         0.258502483
     0.521088660         0.338890493         0.508502483
     0.521088660         0.338890493         0.758502483
     0.854422033         0.838890493         0.008502490
     0.854422033         0.838890493         0.258502483
     0.854422033         0.838890493         0.508502483
     0.854422033         0.838890493         0.758502483
     0.854422033         0.338890493         0.008502490
     0.854422033         0.338890493         0.258502483
     0.854422033         0.338890493         0.508502483
     0.854422033         0.338890493         0.758502483
     0.112998612         0.070393302         0.420030206
     0.112998612         0.070393302         0.670030236
     0.112998612         0.070393302         0.920030236
     0.112998612         0.070393302         0.170030206
     0.112998612         0.570393324         0.420030206
     0.112998612         0.570393324         0.670030236
     0.112998612         0.570393324         0.920030236
     0.112998612         0.570393324         0.170030206
     0.446331948         0.070393302         0.420030206
     0.446331948         0.070393302         0.670030236
     0.446331948         0.070393302         0.920030236
     0.446331948         0.070393302         0.170030206
     0.446331948         0.570393324         0.420030206
     0.446331948         0.570393324         0.670030236
     0.446331948         0.570393324         0.920030236
     0.446331948         0.570393324         0.170030206
     0.779665291         0.070393302         0.420030206
     0.779665291         0.070393302         0.670030236
     0.779665291         0.070393302         0.920030236
     0.779665291         0.070393302         0.170030206
     0.779665291         0.570393324         0.420030206
     0.779665291         0.570393324         0.670030236
     0.779665291         0.570393324         0.920030236
     0.779665291         0.570393324         0.170030206
     0.217068315         0.790911615         0.038730264
     0.217068315         0.790911615         0.288730264
     0.217068315         0.790911615         0.538730264
     0.217068315         0.790911615         0.788730264
     0.217068315         0.290911615         0.038730264
     0.217068315         0.290911615         0.288730264
     0.217068315         0.290911615         0.538730264
     0.217068315         0.290911615         0.788730264
     0.550401628         0.790911615         0.038730264
     0.550401628         0.790911615         0.288730264
     0.550401628         0.790911615         0.538730264
     0.550401628         0.790911615         0.788730264
     0.550401628         0.290911615         0.038730264
     0.550401628         0.290911615         0.288730264
     0.550401628         0.290911615         0.538730264
     0.550401628         0.290911615         0.788730264
     0.883735001         0.790911615         0.038730264
     0.883735001         0.790911615         0.288730264
     0.883735001         0.790911615         0.538730264
     0.883735001         0.790911615         0.788730264
     0.883735001         0.290911615         0.038730264
     0.883735001         0.290911615         0.288730264
     0.883735001         0.290911615         0.538730264
     0.883735001         0.290911615         0.788730264
     0.062187299         0.066862449         0.382708579
     0.062187299         0.066862449         0.632708549
     0.062187299         0.066862449         0.882708549
     0.062187299         0.066862449         0.132708579
     0.062187299         0.566862464         0.382708579
     0.062187299         0.566862464         0.632708549
     0.062187299         0.566862464         0.882708549
     0.062187299         0.566862464         0.132708579
     0.395520627         0.066862449         0.382708579
     0.395520627         0.066862449         0.632708549
     0.395520627         0.066862449         0.882708549
     0.395520627         0.066862449         0.132708579
     0.395520627         0.566862464         0.382708579
     0.395520627         0.566862464         0.632708549
     0.395520627         0.566862464         0.882708549
     0.395520627         0.566862464         0.132708579
     0.728853941         0.066862449         0.382708579
     0.728853941         0.066862449         0.632708549
     0.728853941         0.066862449         0.882708549
     0.728853941         0.066862449         0.132708579
     0.728853941         0.566862464         0.382708579
     0.728853941         0.566862464         0.632708549
     0.728853941         0.566862464         0.882708549
     0.728853941         0.566862464         0.132708579
     0.163022220         0.785055995         0.070866741
     0.163022220         0.785055995         0.320866734
     0.163022220         0.785055995         0.570866764
     0.163022220         0.785055995         0.820866764
     0.163022220         0.285055995         0.070866741
     0.163022220         0.285055995         0.320866734
     0.163022220         0.285055995         0.570866764
     0.163022220         0.285055995         0.820866764
     0.496355563         0.785055995         0.070866741
     0.496355563         0.785055995         0.320866734
     0.496355563         0.785055995         0.570866764
     0.496355563         0.785055995         0.820866764
     0.496355563         0.285055995         0.070866741
     0.496355563         0.285055995         0.320866734
     0.496355563         0.285055995         0.570866764
     0.496355563         0.285055995         0.820866764
     0.829688907         0.785055995         0.070866741
     0.829688907         0.785055995         0.320866734
     0.829688907         0.785055995         0.570866764
     0.829688907         0.785055995         0.820866764
     0.829688907         0.285055995         0.070866741
     0.829688907         0.285055995         0.320866734
     0.829688907         0.285055995         0.570866764
     0.829688907         0.285055995         0.820866764
     0.291591018         0.795414150         0.099466413
     0.291591018         0.795414150         0.349466413
     0.291591018         0.795414150         0.599466443
     0.291591018         0.795414150         0.849466443
     0.291591018         0.295414150         0.099466413
     0.291591018         0.295414150         0.349466413
     0.291591018         0.295414150         0.599466443
     0.291591018         0.295414150         0.849466443
     0.624924362         0.795414150         0.099466413
     0.624924362         0.795414150         0.349466413
     0.624924362         0.795414150         0.599466443
     0.624924362         0.795414150         0.849466443
     0.624924362         0.295414150         0.099466413
     0.624924362         0.295414150         0.349466413
     0.624924362         0.295414150         0.599466443
     0.624924362         0.295414150         0.849466443
     0.958257675         0.795414150         0.099466413
     0.958257675         0.795414150         0.349466413
     0.958257675         0.795414150         0.599466443
     0.958257675         0.795414150         0.849466443
     0.958257675         0.295414150         0.099466413
     0.958257675         0.295414150         0.349466413
     0.958257675         0.295414150         0.599466443
     0.958257675         0.295414150         0.849466443
     0.247274637         0.786816895         0.085383579
     0.247274637         0.786816895         0.335383594
     0.247274637         0.786816895         0.585383594
     0.247274637         0.786816895         0.835383594
     0.247274637         0.286816895         0.085383579
     0.247274637         0.286816895         0.335383594
     0.247274637         0.286816895         0.585383594
     0.247274637         0.286816895         0.835383594
     0.580607951         0.786816895         0.085383579
     0.580607951         0.786816895         0.335383594
     0.580607951         0.786816895         0.585383594
     0.580607951         0.786816895         0.835383594
     0.580607951         0.286816895         0.085383579
     0.580607951         0.286816895         0.335383594
     0.580607951         0.286816895         0.585383594
     0.580607951         0.286816895         0.835383594
     0.913941324         0.786816895         0.085383579
     0.913941324         0.786816895         0.335383594
     0.913941324         0.786816895         0.585383594
     0.913941324         0.786816895         0.835383594
     0.913941324         0.286816895         0.085383579
     0.913941324         0.286816895         0.335383594
     0.913941324         0.286816895         0.585383594
     0.913941324         0.286816895         0.835383594
     0.162150517         0.830168903         0.109469153
     0.162150517         0.830168903         0.359469146
     0.162150517         0.830168903         0.609469175
     0.162150517         0.830168903         0.859469175
     0.162150517         0.330168903         0.109469153
     0.162150517         0.330168903         0.359469146
     0.162150517         0.330168903         0.609469175
     0.162150517         0.330168903         0.859469175
     0.495483845         0.830168903         0.109469153
     0.495483845         0.830168903         0.359469146
     0.495483845         0.830168903         0.609469175
     0.495483845         0.830168903         0.859469175
     0.495483845         0.330168903         0.109469153
     0.495483845         0.330168903         0.359469146
     0.495483845         0.330168903         0.609469175
     0.495483845         0.330168903         0.859469175
     0.828817189         0.830168903         0.109469153
     0.828817189         0.830168903         0.359469146
     0.828817189         0.830168903         0.609469175
     0.828817189         0.830168903         0.859469175
     0.828817189         0.330168903         0.109469153
     0.828817189         0.330168903         0.359469146
     0.828817189         0.330168903         0.609469175
     0.828817189         0.330168903         0.859469175
     0.297354102         0.840835690         0.072100282
     0.297354102         0.840835690         0.322100282
     0.297354102         0.840835690         0.572100282
     0.297354102         0.840835690         0.822100282
     0.297354102         0.340835690         0.072100282
     0.297354102         0.340835690         0.322100282
     0.297354102         0.340835690         0.572100282
     0.297354102         0.340835690         0.822100282
     0.630687416         0.840835690         0.072100282
     0.630687416         0.840835690         0.322100282
     0.630687416         0.840835690         0.572100282
     0.630687416         0.840835690         0.822100282
     0.630687416         0.340835690         0.072100282
     0.630687416         0.340835690         0.322100282
     0.630687416         0.340835690         0.572100282
     0.630687416         0.340835690         0.822100282
     0.964020789         0.840835690         0.072100282
     0.964020789         0.840835690         0.322100282
     0.964020789         0.840835690         0.572100282
     0.964020789         0.840835690         0.822100282
     0.964020789         0.340835690         0.072100282
     0.964020789         0.340835690         0.322100282
     0.964020789         0.340835690         0.572100282
     0.964020789         0.340835690         0.822100282
     0.145467624         0.101492375         0.231109440
     0.145467624         0.101492375         0.481109440
     0.145467624         0.101492375         0.731109440
     0.145467624         0.101492375         0.981109440
     0.145467624         0.601492405         0.231109440
     0.145467624         0.601492405         0.481109440
     0.145467624         0.601492405         0.731109440
     0.145467624         0.601492405         0.981109440
     0.478800952         0.101492375         0.231109440
     0.478800952         0.101492375         0.481109440
     0.478800952         0.101492375         0.731109440
     0.478800952         0.101492375         0.981109440
     0.478800952         0.601492405         0.231109440
     0.478800952         0.601492405         0.481109440
     0.478800952         0.601492405         0.731109440
     0.478800952         0.601492405         0.981109440
     0.812134266         0.101492375         0.231109440
     0.812134266         0.101492375         0.481109440
     0.812134266         0.101492375         0.731109440
     0.812134266         0.101492375         0.981109440
     0.812134266         0.601492405         0.231109440
     0.812134266         0.601492405         0.481109440
     0.812134266         0.601492405         0.731109440
     0.812134266         0.601492405         0.981109440
     0.191820726         0.766668379         0.089971885
     0.191820726         0.766668379         0.339971900
     0.191820726         0.766668379         0.589971900
     0.191820726         0.766668379         0.839971900
     0.191820726         0.266668379         0.089971885
     0.191820726         0.266668379         0.339971900
     0.191820726         0.266668379         0.589971900
     0.191820726         0.266668379         0.839971900
     0.525154054         0.766668379         0.089971885
     0.525154054         0.766668379         0.339971900
     0.525154054         0.766668379         0.589971900
     0.525154054         0.766668379         0.839971900
     0.525154054         0.266668379         0.089971885
     0.525154054         0.266668379         0.339971900
     0.525154054         0.266668379         0.589971900
     0.525154054         0.266668379         0.839971900
     0.858487368         0.766668379         0.089971885
     0.858487368         0.766668379         0.339971900
     0.858487368         0.766668379         0.589971900
     0.858487368         0.766668379         0.839971900
     0.858487368         0.266668379         0.089971885
     0.858487368         0.266668379         0.339971900
     0.858487368         0.266668379         0.589971900
     0.858487368         0.266668379         0.839971900
     0.181150138         0.082109384         0.382745326
     0.181150138         0.082109384         0.632745326
     0.181150138         0.082109384         0.882745326
     0.181150138         0.082109384         0.132745326
     0.181150138         0.582109392         0.382745326
     0.181150138         0.582109392         0.632745326
     0.181150138         0.582109392         0.882745326
     0.181150138         0.582109392         0.132745326
     0.514483452         0.082109384         0.382745326
     0.514483452         0.082109384         0.632745326
     0.514483452         0.082109384         0.882745326
     0.514483452         0.082109384         0.132745326
     0.514483452         0.582109392         0.382745326
     0.514483452         0.582109392         0.632745326
     0.514483452         0.582109392         0.882745326
     0.514483452         0.582109392         0.132745326
     0.847816825         0.082109384         0.382745326
     0.847816825         0.082109384         0.632745326
     0.847816825         0.082109384         0.882745326
     0.847816825         0.082109384         0.132745326
     0.847816825         0.582109392         0.382745326
     0.847816825         0.582109392         0.632745326
     0.847816825         0.582109392         0.882745326
     0.847816825         0.582109392         0.132745326
     0.174659908         0.038352579         0.390077978
     0.174659908         0.038352579         0.640077949
     0.174659908         0.038352579         0.890077949
     0.174659908         0.038352579         0.140077978
     0.174659908         0.538352609         0.390077978
     0.174659908         0.538352609         0.640077949
     0.174659908         0.538352609         0.890077949
     0.174659908         0.538352609         0.140077978
     0.507993221         0.038352579         0.390077978
     0.507993221         0.038352579         0.640077949
     0.507993221         0.038352579         0.890077949
     0.507993221         0.038352579         0.140077978
     0.507993221         0.538352609         0.390077978
     0.507993221         0.538352609         0.640077949
     0.507993221         0.538352609         0.890077949
     0.507993221         0.538352609         0.140077978
     0.841326594         0.038352579         0.390077978
     0.841326594         0.038352579         0.640077949
     0.841326594         0.038352579         0.890077949
     0.841326594         0.038352579         0.140077978
     0.841326594         0.538352609         0.390077978
     0.841326594         0.538352609         0.640077949
     0.841326594         0.538352609         0.890077949
     0.841326594         0.538352609         0.140077978
     0.219611987         0.848454535         0.102512747
     0.219611987         0.848454535         0.352512747
     0.219611987         0.848454535         0.602512717
     0.219611987         0.848454535         0.852512717
     0.219611987         0.348454535         0.102512747
     0.219611987         0.348454535         0.352512747
     0.219611987         0.348454535         0.602512717
     0.219611987         0.348454535         0.852512717
     0.552945316         0.848454535         0.102512747
     0.552945316         0.848454535         0.352512747
     0.552945316         0.848454535         0.602512717
     0.552945316         0.848454535         0.852512717
     0.552945316         0.348454535         0.102512747
     0.552945316         0.348454535         0.352512747
     0.552945316         0.348454535         0.602512717
     0.552945316         0.348454535         0.852512717
     0.886278629         0.848454535         0.102512747
     0.886278629         0.848454535         0.352512747
     0.886278629         0.848454535         0.602512717
     0.886278629         0.848454535         0.852512717
     0.886278629         0.348454535         0.102512747
     0.886278629         0.348454535         0.352512747
     0.886278629         0.348454535         0.602512717
     0.886278629         0.348454535         0.852512717
     0.347784877         0.856339753         0.912000358
     0.347784877         0.856339753         0.162000358
     0.347784877         0.856339753         0.412000358
     0.347784877         0.856339753         0.662000358
     0.347784877         0.356339753         0.912000358
     0.347784877         0.356339753         0.162000358
     0.347784877         0.356339753         0.412000358
     0.347784877         0.356339753         0.662000358
     0.681118190         0.856339753         0.912000358
     0.681118190         0.856339753         0.162000358
     0.681118190         0.856339753         0.412000358
     0.681118190         0.856339753         0.662000358
     0.681118190         0.356339753         0.912000358
     0.681118190         0.356339753         0.162000358
     0.681118190         0.356339753         0.412000358
     0.681118190         0.356339753         0.662000358
     0.014451544         0.856339753         0.912000358
     0.014451544         0.856339753         0.162000358
     0.014451544         0.856339753         0.412000358
     0.014451544         0.856339753         0.662000358
     0.014451544         0.356339753         0.912000358
     0.014451544         0.356339753         0.162000358
     0.014451544         0.356339753         0.412000358
     0.014451544         0.356339753         0.662000358
     0.114503153         0.017292242         0.404737800
     0.114503153         0.017292242         0.654737830
     0.114503153         0.017292242         0.904737830
     0.114503153         0.017292242         0.154737800
     0.114503153         0.517292261         0.404737800
     0.114503153         0.517292261         0.654737830
     0.114503153         0.517292261         0.904737830
     0.114503153         0.517292261         0.154737800
     0.447836488         0.017292242         0.404737800
     0.447836488         0.017292242         0.654737830
     0.447836488         0.017292242         0.904737830
     0.447836488         0.017292242         0.154737800
     0.447836488         0.517292261         0.404737800
     0.447836488         0.517292261         0.654737830
     0.447836488         0.517292261         0.904737830
     0.447836488         0.517292261         0.154737800
     0.781169832         0.017292242         0.404737800
     0.781169832         0.017292242         0.654737830
     0.781169832         0.017292242         0.904737830
     0.781169832         0.017292242         0.154737800
     0.781169832         0.517292261         0.404737800
     0.781169832         0.517292261         0.654737830
     0.781169832         0.517292261         0.904737830
     0.781169832         0.517292261         0.154737800
     0.259371102         0.843133867         0.986356139
     0.259371102         0.843133867         0.236356139
     0.259371102         0.843133867         0.486356139
     0.259371102         0.843133867         0.736356139
     0.259371102         0.343133867         0.986356139
     0.259371102         0.343133867         0.236356139
     0.259371102         0.343133867         0.486356139
     0.259371102         0.343133867         0.736356139
     0.592704415         0.843133867         0.986356139
     0.592704415         0.843133867         0.236356139
     0.592704415         0.843133867         0.486356139
     0.592704415         0.843133867         0.736356139
     0.592704415         0.343133867         0.986356139
     0.592704415         0.343133867         0.236356139
     0.592704415         0.343133867         0.486356139
     0.592704415         0.343133867         0.736356139
     0.926037788         0.843133867         0.986356139
     0.926037788         0.843133867         0.236356139
     0.926037788         0.843133867         0.486356139
     0.926037788         0.843133867         0.736356139
     0.926037788         0.343133867         0.986356139
     0.926037788         0.343133867         0.236356139
     0.926037788         0.343133867         0.486356139
     0.926037788         0.343133867         0.736356139
     0.152726367         0.194334477         0.191264778
     0.152726367         0.194334477         0.441264778
     0.152726367         0.194334477         0.691264749
     0.152726367         0.194334477         0.941264749
     0.152726367         0.694334507         0.191264778
     0.152726367         0.694334507         0.441264778
     0.152726367         0.694334507         0.691264749
     0.152726367         0.694334507         0.941264749
     0.486059695         0.194334477         0.191264778
     0.486059695         0.194334477         0.441264778
     0.486059695         0.194334477         0.691264749
     0.486059695         0.194334477         0.941264749
     0.486059695         0.694334507         0.191264778
     0.486059695         0.694334507         0.441264778
     0.486059695         0.694334507         0.691264749
     0.486059695         0.694334507         0.941264749
     0.819393039         0.194334477         0.191264778
     0.819393039         0.194334477         0.441264778
     0.819393039         0.194334477         0.691264749
     0.819393039         0.194334477         0.941264749
     0.819393039         0.694334507         0.191264778
     0.819393039         0.694334507         0.441264778
     0.819393039         0.694334507         0.691264749
     0.819393039         0.694334507         0.941264749
     0.260053247         0.168590188         0.285220116
     0.260053247         0.168590188         0.535220146
     0.260053247         0.168590188         0.785220146
     0.260053247         0.168590188         0.035220116
     0.260053247         0.668590188         0.285220116
     0.260053247         0.668590188         0.535220146
     0.260053247         0.668590188         0.785220146
     0.260053247         0.668590188         0.035220116
     0.593386590         0.168590188         0.285220116
     0.593386590         0.168590188         0.535220146
     0.593386590         0.168590188         0.785220146
     0.593386590         0.168590188         0.035220116
     0.593386590         0.668590188         0.285220116
     0.593386590         0.668590188         0.535220146
     0.593386590         0.668590188         0.785220146
     0.593386590         0.668590188         0.035220116
     0.926719904         0.168590188         0.285220116
     0.926719904         0.168590188         0.535220146
     0.926719904         0.168590188         0.785220146
     0.926719904         0.168590188         0.035220116
     0.926719904         0.668590188         0.285220116
     0.926719904         0.668590188         0.535220146
     0.926719904         0.668590188         0.785220146
     0.926719904         0.668590188         0.035220116
     0.144282594         0.121174604         0.346313149
     0.144282594         0.121174604         0.596313119
     0.144282594         0.121174604         0.846313119
     0.144282594         0.121174604         0.096313149
     0.144282594         0.621174574         0.346313149
     0.144282594         0.621174574         0.596313119
     0.144282594         0.621174574         0.846313119
     0.144282594         0.621174574         0.096313149
     0.477615923         0.121174604         0.346313149
     0.477615923         0.121174604         0.596313119
     0.477615923         0.121174604         0.846313119
     0.477615923         0.121174604         0.096313149
     0.477615923         0.621174574         0.346313149
     0.477615923         0.621174574         0.596313119
     0.477615923         0.621174574         0.846313119
     0.477615923         0.621174574         0.096313149
     0.810949266         0.121174604         0.346313149
     0.810949266         0.121174604         0.596313119
     0.810949266         0.121174604         0.846313119
     0.810949266         0.121174604         0.096313149
     0.810949266         0.621174574         0.346313149
     0.810949266         0.621174574         0.596313119
     0.810949266         0.621174574         0.846313119
     0.810949266         0.621174574         0.096313149
     0.197194293         0.875150561         0.024442114
     0.197194293         0.875150561         0.274442106
     0.197194293         0.875150561         0.524442136
     0.197194293         0.875150561         0.774442136
     0.197194293         0.375150561         0.024442114
     0.197194293         0.375150561         0.274442106
     0.197194293         0.375150561         0.524442136
     0.197194293         0.375150561         0.774442136
     0.530527651         0.875150561         0.024442114
     0.530527651         0.875150561         0.274442106
     0.530527651         0.875150561         0.524442136
     0.530527651         0.875150561         0.774442136
     0.530527651         0.375150561         0.024442114
     0.530527651         0.375150561         0.274442106
     0.530527651         0.375150561         0.524442136
     0.530527651         0.375150561         0.774442136
     0.863860965         0.875150561         0.024442114
     0.863860965         0.875150561         0.274442106
     0.863860965         0.875150561         0.524442136
     0.863860965         0.875150561         0.774442136
     0.863860965         0.375150561         0.024442114
     0.863860965         0.375150561         0.274442106
     0.863860965         0.375150561         0.524442136
     0.863860965         0.375150561         0.774442136
     0.227389872         0.185054913         0.431138307
     0.227389872         0.185054913         0.681138277
     0.227389872         0.185054913         0.931138277
     0.227389872         0.185054913         0.181138307
     0.227389872         0.685054898         0.431138307
     0.227389872         0.685054898         0.681138277
     0.227389872         0.685054898         0.931138277
     0.227389872         0.685054898         0.181138307
     0.560723186         0.185054913         0.431138307
     0.560723186         0.185054913         0.681138277
     0.560723186         0.185054913         0.931138277
     0.560723186         0.185054913         0.181138307
     0.560723186         0.685054898         0.431138307
     0.560723186         0.685054898         0.681138277
     0.560723186         0.685054898         0.931138277
     0.560723186         0.685054898         0.181138307
     0.894056559         0.185054913         0.431138307
     0.894056559         0.185054913         0.681138277
     0.894056559         0.185054913         0.931138277
     0.894056559         0.185054913         0.181138307
     0.894056559         0.685054898         0.431138307
     0.894056559         0.685054898         0.681138277
     0.894056559         0.685054898         0.931138277
     0.894056559         0.685054898         0.181138307
     0.131354943         0.033390187         0.338885546
     0.131354943         0.033390187         0.588885546
     0.131354943         0.033390187         0.838885546
     0.131354943         0.033390187         0.088885546
     0.131354943         0.533390164         0.338885546
     0.131354943         0.533390164         0.588885546
     0.131354943         0.533390164         0.838885546
     0.131354943         0.533390164         0.088885546
     0.464688271         0.033390187         0.338885546
     0.464688271         0.033390187         0.588885546
     0.464688271         0.033390187         0.838885546
     0.464688271         0.033390187         0.088885546
     0.464688271         0.533390164         0.338885546
     0.464688271         0.533390164         0.588885546
     0.464688271         0.533390164         0.838885546
     0.464688271         0.533390164         0.088885546
     0.798021615         0.033390187         0.338885546
     0.798021615         0.033390187         0.588885546
     0.798021615         0.033390187         0.838885546
     0.798021615         0.033390187         0.088885546
     0.798021615         0.533390164         0.338885546
     0.798021615         0.533390164         0.588885546
     0.798021615         0.533390164         0.838885546
     0.798021615         0.533390164         0.088885546
     0.101392813         0.356171399         0.951418400
     0.101392813         0.356171399         0.201418400
     0.101392813         0.356171399         0.451418400
     0.101392813         0.356171399         0.701418400
     0.101392813         0.856171370         0.951418400
     0.101392813         0.856171370         0.201418400
     0.101392813         0.856171370         0.451418400
     0.101392813         0.856171370         0.701418400
     0.434726149         0.356171399         0.951418400
     0.434726149         0.356171399         0.201418400
     0.434726149         0.356171399         0.451418400
     0.434726149         0.356171399         0.701418400
     0.434726149         0.856171370         0.951418400
     0.434726149         0.856171370         0.201418400
     0.434726149         0.856171370         0.451418400
     0.434726149         0.856171370         0.701418400
     0.768059492         0.356171399         0.951418400
     0.768059492         0.356171399         0.201418400
     0.768059492         0.356171399         0.451418400
     0.768059492         0.356171399         0.701418400
     0.768059492         0.856171370         0.951418400
     0.768059492         0.856171370         0.201418400
     0.768059492         0.856171370         0.451418400
     0.768059492         0.856171370         0.701418400
     0.245513305         0.926735938         0.335234761
     0.245513305         0.926735938         0.585234761
     0.245513305         0.926735938         0.835234761
     0.245513305         0.926735938         0.085234761
     0.245513305         0.426735938         0.335234761
     0.245513305         0.426735938         0.585234761
     0.245513305         0.426735938         0.835234761
     0.245513305         0.426735938         0.085234761
     0.578846633         0.926735938         0.335234761
     0.578846633         0.926735938         0.585234761
     0.578846633         0.926735938         0.835234761
     0.578846633         0.926735938         0.085234761
     0.578846633         0.426735938         0.335234761
     0.578846633         0.426735938         0.585234761
     0.578846633         0.426735938         0.835234761
     0.578846633         0.426735938         0.085234761
     0.912179947         0.926735938         0.335234761
     0.912179947         0.926735938         0.585234761
     0.912179947         0.926735938         0.835234761
     0.912179947         0.926735938         0.085234761
     0.912179947         0.426735938         0.335234761
     0.912179947         0.426735938         0.585234761
     0.912179947         0.426735938         0.835234761
     0.912179947         0.426735938         0.085234761
     0.370307177         0.939481556         0.196840867
     0.370307177         0.939481556         0.446840882
     0.370307177         0.939481556         0.696840882
     0.370307177         0.939481556         0.946840882
     0.370307177         0.439481556         0.196840867
     0.370307177         0.439481556         0.446840882
     0.370307177         0.439481556         0.696840882
     0.370307177         0.439481556         0.946840882
     0.703640521         0.939481556         0.196840867
     0.703640521         0.939481556         0.446840882
     0.703640521         0.939481556         0.696840882
     0.703640521         0.939481556         0.946840882
     0.703640521         0.439481556         0.196840867
     0.703640521         0.439481556         0.446840882
     0.703640521         0.439481556         0.696840882
     0.703640521         0.439481556         0.946840882
     0.036973845         0.939481556         0.196840867
     0.036973845         0.939481556         0.446840882
     0.036973845         0.939481556         0.696840882
     0.036973845         0.939481556         0.946840882
     0.036973845         0.439481556         0.196840867
     0.036973845         0.439481556         0.446840882
     0.036973845         0.439481556         0.696840882
     0.036973845         0.439481556         0.946840882
     0.295909196         0.961523652         0.233906344
     0.295909196         0.961523652         0.483906329
     0.295909196         0.961523652         0.733906329
     0.295909196         0.961523652         0.983906329
     0.295909196         0.461523652         0.233906344
     0.295909196         0.461523652         0.483906329
     0.295909196         0.461523652         0.733906329
     0.295909196         0.461523652         0.983906329
     0.629242539         0.961523652         0.233906344
     0.629242539         0.961523652         0.483906329
     0.629242539         0.961523652         0.733906329
     0.629242539         0.961523652         0.983906329
     0.629242539         0.461523652         0.233906344
     0.629242539         0.461523652         0.483906329
     0.629242539         0.461523652         0.733906329
     0.629242539         0.461523652         0.983906329
     0.962575853         0.961523652         0.233906344
     0.962575853         0.961523652         0.483906329
     0.962575853         0.961523652         0.733906329
     0.962575853         0.961523652         0.983906329
     0.962575853         0.461523652         0.233906344
     0.962575853         0.461523652         0.483906329
     0.962575853         0.461523652         0.733906329
     0.962575853         0.461523652         0.983906329
     0.617962778         0.823343277         0.158852041
     0.617962778         0.823343277         0.408852041
     0.617962778         0.823343277         0.658852041
     0.617962778         0.823343277         0.908852041
     0.617962778         0.323343277         0.158852041
     0.617962778         0.323343277         0.408852041
     0.617962778         0.323343277         0.658852041
     0.617962778         0.323343277         0.908852041
     0.951296091         0.823343277         0.158852041
     0.951296091         0.823343277         0.408852041
     0.951296091         0.823343277         0.658852041
     0.951296091         0.823343277         0.908852041
     0.951296091         0.323343277         0.158852041
     0.951296091         0.323343277         0.408852041
     0.951296091         0.323343277         0.658852041
     0.951296091         0.323343277         0.908852041
     0.284629434         0.823343277         0.158852041
     0.284629434         0.823343277         0.408852041
     0.284629434         0.823343277         0.658852041
     0.284629434         0.823343277         0.908852041
     0.284629434         0.323343277         0.158852041
     0.284629434         0.323343277         0.408852041
     0.284629434         0.323343277         0.658852041
     0.284629434         0.323343277         0.908852041
     0.322779804         0.987272561         0.382789224
     0.322779804         0.987272561         0.632789254
     0.322779804         0.987272561         0.882789254
     0.322779804         0.987272561         0.132789224
     0.322779804         0.487272561         0.382789224
     0.322779804         0.487272561         0.632789254
     0.322779804         0.487272561         0.882789254
     0.322779804         0.487272561         0.132789224
     0.656113148         0.987272561         0.382789224
     0.656113148         0.987272561         0.632789254
     0.656113148         0.987272561         0.882789254
     0.656113148         0.987272561         0.132789224
     0.656113148         0.487272561         0.382789224
     0.656113148         0.487272561         0.632789254
     0.656113148         0.487272561         0.882789254
     0.656113148         0.487272561         0.132789224
     0.989446461         0.987272561         0.382789224
     0.989446461         0.987272561         0.632789254
     0.989446461         0.987272561         0.882789254
     0.989446461         0.987272561         0.132789224
     0.989446461         0.487272561         0.382789224
     0.989446461         0.487272561         0.632789254
     0.989446461         0.487272561         0.882789254
     0.989446461         0.487272561         0.132789224
     0.323644012         0.997326612         0.261514336
     0.323644012         0.997326612         0.511514306
     0.323644012         0.997326612         0.761514306
     0.323644012         0.997326612         0.011514336
     0.323644012         0.497326612         0.261514336
     0.323644012         0.497326612         0.511514306
     0.323644012         0.497326612         0.761514306
     0.323644012         0.497326612         0.011514336
     0.656977355         0.997326612         0.261514336
     0.656977355         0.997326612         0.511514306
     0.656977355         0.997326612         0.761514306
     0.656977355         0.997326612         0.011514336
     0.656977355         0.497326612         0.261514336
     0.656977355         0.497326612         0.511514306
     0.656977355         0.497326612         0.761514306
     0.656977355         0.497326612         0.011514336
     0.990310669         0.997326612         0.261514336
     0.990310669         0.997326612         0.511514306
     0.990310669         0.997326612         0.761514306
     0.990310669         0.997326612         0.011514336
     0.990310669         0.497326612         0.261514336
     0.990310669         0.497326612         0.511514306
     0.990310669         0.497326612         0.761514306
     0.990310669         0.497326612         0.011514336
     0.217503488         0.223862082         0.134094581
     0.217503488         0.223862082         0.384094596
     0.217503488         0.223862082         0.634094596
     0.217503488         0.223862082         0.884094596
     0.217503488         0.723862052         0.134094581
     0.217503488         0.723862052         0.384094596
     0.217503488         0.723862052         0.634094596
     0.217503488         0.723862052         0.884094596
     0.550836802         0.223862082         0.134094581
     0.550836802         0.223862082         0.384094596
     0.550836802         0.223862082         0.634094596
     0.550836802         0.223862082         0.884094596
     0.550836802         0.723862052         0.134094581
     0.550836802         0.723862052         0.384094596
     0.550836802         0.723862052         0.634094596
     0.550836802         0.723862052         0.884094596
     0.884170175         0.223862082         0.134094581
     0.884170175         0.223862082         0.384094596
     0.884170175         0.223862082         0.634094596
     0.884170175         0.223862082         0.884094596
     0.884170175         0.723862052         0.134094581
     0.884170175         0.723862052         0.384094596
     0.884170175         0.723862052         0.634094596
     0.884170175         0.723862052         0.884094596
     0.347345799         0.054964531         0.455974877
     0.347345799         0.054964531         0.705974877
     0.347345799         0.054964531         0.955974877
     0.347345799         0.054964531         0.205974877
     0.347345799         0.554964542         0.455974877
     0.347345799         0.554964542         0.705974877
     0.347345799         0.554964542         0.955974877
     0.347345799         0.554964542         0.205974877
     0.680679142         0.054964531         0.455974877
     0.680679142         0.054964531         0.705974877
     0.680679142         0.054964531         0.955974877
     0.680679142         0.054964531         0.205974877
     0.680679142         0.554964542         0.455974877
     0.680679142         0.554964542         0.705974877
     0.680679142         0.554964542         0.955974877
     0.680679142         0.554964542         0.205974877
     0.014012466         0.054964531         0.455974877
     0.014012466         0.054964531         0.705974877
     0.014012466         0.054964531         0.955974877
     0.014012466         0.054964531         0.205974877
     0.014012466         0.554964542         0.455974877
     0.014012466         0.554964542         0.705974877
     0.014012466         0.554964542         0.955974877
     0.014012466         0.554964542         0.205974877
     0.378519148         0.022893138         0.473195672
     0.378519148         0.022893138         0.723195672
     0.378519148         0.022893138         0.973195672
     0.378519148         0.022893138         0.223195672
     0.378519148         0.522893131         0.473195672
     0.378519148         0.522893131         0.723195672
     0.378519148         0.522893131         0.973195672
     0.378519148         0.522893131         0.223195672
     0.711852491         0.022893138         0.473195672
     0.711852491         0.022893138         0.723195672
     0.711852491         0.022893138         0.973195672
     0.711852491         0.022893138         0.223195672
     0.711852491         0.522893131         0.473195672
     0.711852491         0.522893131         0.723195672
     0.711852491         0.522893131         0.973195672
     0.711852491         0.522893131         0.223195672
     0.045185816         0.022893138         0.473195672
     0.045185816         0.022893138         0.723195672
     0.045185816         0.022893138         0.973195672
     0.045185816         0.022893138         0.223195672
     0.045185816         0.522893131         0.473195672
     0.045185816         0.522893131         0.723195672
     0.045185816         0.522893131         0.973195672
     0.045185816         0.522893131         0.223195672
     0.404098481         0.931301117         0.212477714
     0.404098481         0.931301117         0.462477714
     0.404098481         0.931301117         0.712477684
     0.404098481         0.931301117         0.962477684
     0.404098481         0.431301117         0.212477714
     0.404098481         0.431301117         0.462477714
     0.404098481         0.431301117         0.712477684
     0.404098481         0.431301117         0.962477684
     0.737431824         0.931301117         0.212477714
     0.737431824         0.931301117         0.462477714
     0.737431824         0.931301117         0.712477684
     0.737431824         0.931301117         0.962477684
     0.737431824         0.431301117         0.212477714
     0.737431824         0.431301117         0.462477714
     0.737431824         0.431301117         0.712477684
     0.737431824         0.431301117         0.962477684
     0.070765145         0.931301117         0.212477714
     0.070765145         0.931301117         0.462477714
     0.070765145         0.931301117         0.712477684
     0.070765145         0.931301117         0.962477684
     0.070765145         0.431301117         0.212477714
     0.070765145         0.431301117         0.462477714
     0.070765145         0.431301117         0.712477684
     0.070765145         0.431301117         0.962477684
     0.393001109         0.976671278         0.200010568
     0.393001109         0.976671278         0.450010568
     0.393001109         0.976671278         0.700010538
     0.393001109         0.976671278         0.950010538
     0.393001109         0.476671278         0.200010568
     0.393001109         0.476671278         0.450010568
     0.393001109         0.476671278         0.700010538
     0.393001109         0.476671278         0.950010538
     0.726334453         0.976671278         0.200010568
     0.726334453         0.976671278         0.450010568
     0.726334453         0.976671278         0.700010538
     0.726334453         0.976671278         0.950010538
     0.726334453         0.476671278         0.200010568
     0.726334453         0.476671278         0.450010568
     0.726334453         0.476671278         0.700010538
     0.726334453         0.476671278         0.950010538
     0.059667777         0.976671278         0.200010568
     0.059667777         0.976671278         0.450010568
     0.059667777         0.976671278         0.700010538
     0.059667777         0.976671278         0.950010538
     0.059667777         0.476671278         0.200010568
     0.059667777         0.476671278         0.450010568
     0.059667777         0.476671278         0.700010538
     0.059667777         0.476671278         0.950010538
     0.251915663         0.218580037         0.079866461
     0.251915663         0.218580037         0.329866469
     0.251915663         0.218580037         0.579866469
     0.251915663         0.218580037         0.829866469
     0.251915663         0.718580008         0.079866461
     0.251915663         0.718580008         0.329866469
     0.251915663         0.718580008         0.579866469
     0.251915663         0.718580008         0.829866469
     0.585249007         0.218580037         0.079866461
     0.585249007         0.218580037         0.329866469
     0.585249007         0.218580037         0.579866469
     0.585249007         0.218580037         0.829866469
     0.585249007         0.718580008         0.079866461
     0.585249007         0.718580008         0.329866469
     0.585249007         0.718580008         0.579866469
     0.585249007         0.718580008         0.829866469
     0.918582320         0.218580037         0.079866461
     0.918582320         0.218580037         0.329866469
     0.918582320         0.218580037         0.579866469
     0.918582320         0.218580037         0.829866469
     0.918582320         0.718580008         0.079866461
     0.918582320         0.718580008         0.329866469
     0.918582320         0.718580008         0.579866469
     0.918582320         0.718580008         0.829866469
     0.287044972         0.156671226         0.147787154
     0.287044972         0.156671226         0.397787154
     0.287044972         0.156671226         0.647787154
     0.287044972         0.156671226         0.897787154
     0.287044972         0.656671226         0.147787154
     0.287044972         0.656671226         0.397787154
     0.287044972         0.656671226         0.647787154
     0.287044972         0.656671226         0.897787154
     0.620378315         0.156671226         0.147787154
     0.620378315         0.156671226         0.397787154
     0.620378315         0.156671226         0.647787154
     0.620378315         0.156671226         0.897787154
     0.620378315         0.656671226         0.147787154
     0.620378315         0.656671226         0.397787154
     0.620378315         0.656671226         0.647787154
     0.620378315         0.656671226         0.897787154
     0.953711629         0.156671226         0.147787154
     0.953711629         0.156671226         0.397787154
     0.953711629         0.156671226         0.647787154
     0.953711629         0.156671226         0.897787154
     0.953711629         0.656671226         0.147787154
     0.953711629         0.656671226         0.397787154
     0.953711629         0.656671226         0.647787154
     0.953711629         0.656671226         0.897787154
     0.590029299         0.829408467         0.126762941
     0.590029299         0.829408467         0.376762927
     0.590029299         0.829408467         0.626762927
     0.590029299         0.829408467         0.876762927
     0.590029299         0.329408467         0.126762941
     0.590029299         0.329408467         0.376762927
     0.590029299         0.329408467         0.626762927
     0.590029299         0.329408467         0.876762927
     0.923362613         0.829408467         0.126762941
     0.923362613         0.829408467         0.376762927
     0.923362613         0.829408467         0.626762927
     0.923362613         0.829408467         0.876762927
     0.923362613         0.329408467         0.126762941
     0.923362613         0.329408467         0.376762927
     0.923362613         0.329408467         0.626762927
     0.923362613         0.329408467         0.876762927
     0.256695956         0.829408467         0.126762941
     0.256695956         0.829408467         0.376762927
     0.256695956         0.829408467         0.626762927
     0.256695956         0.829408467         0.876762927
     0.256695956         0.329408467         0.126762941
     0.256695956         0.329408467         0.376762927
     0.256695956         0.329408467         0.626762927
     0.256695956         0.329408467         0.876762927
     0.261573255         0.235599652         0.154749691
     0.261573255         0.235599652         0.404749691
     0.261573255         0.235599652         0.654749691
     0.261573255         0.235599652         0.904749691
     0.261573255         0.735599637         0.154749691
     0.261573255         0.735599637         0.404749691
     0.261573255         0.735599637         0.654749691
     0.261573255         0.735599637         0.904749691
     0.594906569         0.235599652         0.154749691
     0.594906569         0.235599652         0.404749691
     0.594906569         0.235599652         0.654749691
     0.594906569         0.235599652         0.904749691
     0.594906569         0.735599637         0.154749691
     0.594906569         0.735599637         0.404749691
     0.594906569         0.735599637         0.654749691
     0.594906569         0.735599637         0.904749691
     0.928239942         0.235599652         0.154749691
     0.928239942         0.235599652         0.404749691
     0.928239942         0.235599652         0.654749691
     0.928239942         0.235599652         0.904749691
     0.928239942         0.735599637         0.154749691
     0.928239942         0.735599637         0.404749691
     0.928239942         0.735599637         0.654749691
     0.928239942         0.735599637         0.904749691
     0.138568595         0.175958082         0.156765148
     0.138568595         0.175958082         0.406765163
     0.138568595         0.175958082         0.656765163
     0.138568595         0.175958082         0.906765163
     0.138568595         0.675958097         0.156765148
     0.138568595         0.675958097         0.406765163
     0.138568595         0.675958097         0.656765163
     0.138568595         0.675958097         0.906765163
     0.471901923         0.175958082         0.156765148
     0.471901923         0.175958082         0.406765163
     0.471901923         0.175958082         0.656765163
     0.471901923         0.175958082         0.906765163
     0.471901923         0.675958097         0.156765148
     0.471901923         0.675958097         0.406765163
     0.471901923         0.675958097         0.656765163
     0.471901923         0.675958097         0.906765163
     0.805235267         0.175958082         0.156765148
     0.805235267         0.175958082         0.406765163
     0.805235267         0.175958082         0.656765163
     0.805235267         0.175958082         0.906765163
     0.805235267         0.675958097         0.156765148
     0.805235267         0.675958097         0.406765163
     0.805235267         0.675958097         0.656765163
     0.805235267         0.675958097         0.906765163
     0.389473081         0.933649600         0.287219763
     0.389473081         0.933649600         0.537219763
     0.389473081         0.933649600         0.787219763
     0.389473081         0.933649600         0.037219763
     0.389473081         0.433649600         0.287219763
     0.389473081         0.433649600         0.537219763
     0.389473081         0.433649600         0.787219763
     0.389473081         0.433649600         0.037219763
     0.722806394         0.933649600         0.287219763
     0.722806394         0.933649600         0.537219763
     0.722806394         0.933649600         0.787219763
     0.722806394         0.933649600         0.037219763
     0.722806394         0.433649600         0.287219763
     0.722806394         0.433649600         0.537219763
     0.722806394         0.433649600         0.787219763
     0.722806394         0.433649600         0.037219763
     0.056139749         0.933649600         0.287219763
     0.056139749         0.933649600         0.537219763
     0.056139749         0.933649600         0.787219763
     0.056139749         0.933649600         0.037219763
     0.056139749         0.433649600         0.287219763
     0.056139749         0.433649600         0.537219763
     0.056139749         0.433649600         0.787219763
     0.056139749         0.433649600         0.037219763
     0.385182649         0.965234697         0.341917694
     0.385182649         0.965234697         0.591917694
     0.385182649         0.965234697         0.841917694
     0.385182649         0.965234697         0.091917694
     0.385182649         0.465234697         0.341917694
     0.385182649         0.465234697         0.591917694
     0.385182649         0.465234697         0.841917694
     0.385182649         0.465234697         0.091917694
     0.718515992         0.965234697         0.341917694
     0.718515992         0.965234697         0.591917694
     0.718515992         0.965234697         0.841917694
     0.718515992         0.965234697         0.091917694
     0.718515992         0.465234697         0.341917694
     0.718515992         0.465234697         0.591917694
     0.718515992         0.465234697         0.841917694
     0.718515992         0.465234697         0.091917694
     0.051849317         0.965234697         0.341917694
     0.051849317         0.965234697         0.591917694
     0.051849317         0.965234697         0.841917694
     0.051849317         0.965234697         0.091917694
     0.051849317         0.465234697         0.341917694
     0.051849317         0.465234697         0.591917694
     0.051849317         0.465234697         0.841917694
     0.051849317         0.465234697         0.091917694
     0.320823401         0.115341865         0.273078293
     0.320823401         0.115341865         0.523078322
     0.320823401         0.115341865         0.773078322
     0.320823401         0.115341865         0.023078293
     0.320823401         0.615341842         0.273078293
     0.320823401         0.615341842         0.523078322
     0.320823401         0.615341842         0.773078322
     0.320823401         0.615341842         0.023078293
     0.654156744         0.115341865         0.273078293
     0.654156744         0.115341865         0.523078322
     0.654156744         0.115341865         0.773078322
     0.654156744         0.115341865         0.023078293
     0.654156744         0.615341842         0.273078293
     0.654156744         0.615341842         0.523078322
     0.654156744         0.615341842         0.773078322
     0.654156744         0.615341842         0.023078293
     0.987490058         0.115341865         0.273078293
     0.987490058         0.115341865         0.523078322
     0.987490058         0.115341865         0.773078322
     0.987490058         0.115341865         0.023078293
     0.987490058         0.615341842         0.273078293
     0.987490058         0.615341842         0.523078322
     0.987490058         0.615341842         0.773078322
     0.987490058         0.615341842         0.023078293
     0.441405743         0.980205834         0.258473277
     0.441405743         0.980205834         0.508473277
     0.441405743         0.980205834         0.758473277
     0.441405743         0.980205834         0.008473277
     0.441405743         0.480205834         0.258473277
     0.441405743         0.480205834         0.508473277
     0.441405743         0.480205834         0.758473277
     0.441405743         0.480205834         0.008473277
     0.774739087         0.980205834         0.258473277
     0.774739087         0.980205834         0.508473277
     0.774739087         0.980205834         0.758473277
     0.774739087         0.980205834         0.008473277
     0.774739087         0.480205834         0.258473277
     0.774739087         0.480205834         0.508473277
     0.774739087         0.480205834         0.758473277
     0.774739087         0.480205834         0.008473277
     0.108072408         0.980205834         0.258473277
     0.108072408         0.980205834         0.508473277
     0.108072408         0.980205834         0.758473277
     0.108072408         0.980205834         0.008473277
     0.108072408         0.480205834         0.258473277
     0.108072408         0.480205834         0.508473277
     0.108072408         0.480205834         0.758473277
     0.108072408         0.480205834         0.008473277
     0.297901779         0.971191108         0.317079931
     0.297901779         0.971191108         0.567079902
     0.297901779         0.971191108         0.817079902
     0.297901779         0.971191108         0.067079931
     0.297901779         0.471191108         0.317079931
     0.297901779         0.471191108         0.567079902
     0.297901779         0.471191108         0.817079902
     0.297901779         0.471191108         0.067079931
     0.631235123         0.971191108         0.317079931
     0.631235123         0.971191108         0.567079902
     0.631235123         0.971191108         0.817079902
     0.631235123         0.971191108         0.067079931
     0.631235123         0.471191108         0.317079931
     0.631235123         0.471191108         0.567079902
     0.631235123         0.471191108         0.817079902
     0.631235123         0.471191108         0.067079931
     0.964568436         0.971191108         0.317079931
     0.964568436         0.971191108         0.567079902
     0.964568436         0.971191108         0.817079902
     0.964568436         0.971191108         0.067079931
     0.964568436         0.471191108         0.317079931
     0.964568436         0.471191108         0.567079902
     0.964568436         0.471191108         0.817079902
     0.964568436         0.471191108         0.067079931
     0.155389860         0.350532621         0.985167742
     0.155389860         0.350532621         0.235167742
     0.155389860         0.350532621         0.485167742
     0.155389860         0.350532621         0.735167742
     0.155389860         0.850532651         0.985167742
     0.155389860         0.850532651         0.235167742
     0.155389860         0.850532651         0.485167742
     0.155389860         0.850532651         0.735167742
     0.488723189         0.350532621         0.985167742
     0.488723189         0.350532621         0.235167742
     0.488723189         0.350532621         0.485167742
     0.488723189         0.350532621         0.735167742
     0.488723189         0.850532651         0.985167742
     0.488723189         0.850532651         0.235167742
     0.488723189         0.850532651         0.485167742
     0.488723189         0.850532651         0.735167742
     0.822056532         0.350532621         0.985167742
     0.822056532         0.350532621         0.235167742
     0.822056532         0.350532621         0.485167742
     0.822056532         0.350532621         0.735167742
     0.822056532         0.850532651         0.985167742
     0.822056532         0.850532651         0.235167742
     0.822056532         0.850532651         0.485167742
     0.822056532         0.850532651         0.735167742
     0.207061887         0.527444601         0.166796774
     0.207061887         0.527444601         0.416796774
     0.207061887         0.527444601         0.666796803
     0.207061887         0.527444601         0.916796803
     0.207061887         0.027444601         0.166796774
     0.207061887         0.027444601         0.416796774
     0.207061887         0.027444601         0.666796803
     0.207061887         0.027444601         0.916796803
     0.540395200         0.527444601         0.166796774
     0.540395200         0.527444601         0.416796774
     0.540395200         0.527444601         0.666796803
     0.540395200         0.527444601         0.916796803
     0.540395200         0.027444601         0.166796774
     0.540395200         0.027444601         0.416796774
     0.540395200         0.027444601         0.666796803
     0.540395200         0.027444601         0.916796803
     0.873728573         0.527444601         0.166796774
     0.873728573         0.527444601         0.416796774
     0.873728573         0.527444601         0.666796803
     0.873728573         0.527444601         0.916796803
     0.873728573         0.027444601         0.166796774
     0.873728573         0.027444601         0.416796774
     0.873728573         0.027444601         0.666796803
     0.873728573         0.027444601         0.916796803
     0.106148399         0.112999260         0.292942256
     0.106148399         0.112999260         0.542942286
     0.106148399         0.112999260         0.792942286
     0.106148399         0.112999260         0.042942256
     0.106148399         0.612999260         0.292942256
     0.106148399         0.612999260         0.542942286
     0.106148399         0.612999260         0.792942286
     0.106148399         0.612999260         0.042942256
     0.439481735         0.112999260         0.292942256
     0.439481735         0.112999260         0.542942286
     0.439481735         0.112999260         0.792942286
     0.439481735         0.112999260         0.042942256
     0.439481735         0.612999260         0.292942256
     0.439481735         0.612999260         0.542942286
     0.439481735         0.612999260         0.792942286
     0.439481735         0.612999260         0.042942256
     0.772815049         0.112999260         0.292942256
     0.772815049         0.112999260         0.542942286
     0.772815049         0.112999260         0.792942286
     0.772815049         0.112999260         0.042942256
     0.772815049         0.612999260         0.292942256
     0.772815049         0.612999260         0.542942286
     0.772815049         0.612999260         0.792942286
     0.772815049         0.612999260         0.042942256
     0.189268932         0.463077933         0.190773055
     0.189268932         0.463077933         0.440773070
     0.189268932         0.463077933         0.690773070
     0.189268932         0.463077933         0.940773070
     0.189268932         0.963077903         0.190773055
     0.189268932         0.963077903         0.440773070
     0.189268932         0.963077903         0.690773070
     0.189268932         0.963077903         0.940773070
     0.522602260         0.463077933         0.190773055
     0.522602260         0.463077933         0.440773070
     0.522602260         0.463077933         0.690773070
     0.522602260         0.463077933         0.940773070
     0.522602260         0.963077903         0.190773055
     0.522602260         0.963077903         0.440773070
     0.522602260         0.963077903         0.690773070
     0.522602260         0.963077903         0.940773070
     0.855935574         0.463077933         0.190773055
     0.855935574         0.463077933         0.440773070
     0.855935574         0.463077933         0.690773070
     0.855935574         0.463077933         0.940773070
     0.855935574         0.963077903         0.190773055
     0.855935574         0.963077903         0.440773070
     0.855935574         0.963077903         0.690773070
     0.855935574         0.963077903         0.940773070
     0.122321330         0.303791434         0.926013291
     0.122321330         0.303791434         0.176013291
     0.122321330         0.303791434         0.426013291
     0.122321330         0.303791434         0.676013291
     0.122321330         0.803791404         0.926013291
     0.122321330         0.803791404         0.176013291
     0.122321330         0.803791404         0.426013291
     0.122321330         0.803791404         0.676013291
     0.455654651         0.303791434         0.926013291
     0.455654651         0.303791434         0.176013291
     0.455654651         0.303791434         0.426013291
     0.455654651         0.303791434         0.676013291
     0.455654651         0.803791404         0.926013291
     0.455654651         0.803791404         0.176013291
     0.455654651         0.803791404         0.426013291
     0.455654651         0.803791404         0.676013291
     0.788987994         0.303791434         0.926013291
     0.788987994         0.303791434         0.176013291
     0.788987994         0.303791434         0.426013291
     0.788987994         0.303791434         0.676013291
     0.788987994         0.803791404         0.926013291
     0.788987994         0.803791404         0.176013291
     0.788987994         0.803791404         0.426013291
     0.788987994         0.803791404         0.676013291
     0.089657612         0.249293655         0.001092147
     0.089657612         0.249293655         0.251092136
     0.089657612         0.249293655         0.501092136
     0.089657612         0.249293655         0.751092136
     0.089657612         0.749293685         0.001092147
     0.089657612         0.749293685         0.251092136
     0.089657612         0.749293685         0.501092136
     0.089657612         0.749293685         0.751092136
     0.422990948         0.249293655         0.001092147
     0.422990948         0.249293655         0.251092136
     0.422990948         0.249293655         0.501092136
     0.422990948         0.249293655         0.751092136
     0.422990948         0.749293685         0.001092147
     0.422990948         0.749293685         0.251092136
     0.422990948         0.749293685         0.501092136
     0.422990948         0.749293685         0.751092136
     0.756324291         0.249293655         0.001092147
     0.756324291         0.249293655         0.251092136
     0.756324291         0.249293655         0.501092136
     0.756324291         0.249293655         0.751092136
     0.756324291         0.749293685         0.001092147
     0.756324291         0.749293685         0.251092136
     0.756324291         0.749293685         0.501092136
     0.756324291         0.749293685         0.751092136
     0.238881052         0.451042682         0.157510161
     0.238881052         0.451042682         0.407510161
     0.238881052         0.451042682         0.657510161
     0.238881052         0.451042682         0.907510161
     0.238881052         0.951042652         0.157510161
     0.238881052         0.951042652         0.407510161
     0.238881052         0.951042652         0.657510161
     0.238881052         0.951042652         0.907510161
     0.572214365         0.451042682         0.157510161
     0.572214365         0.451042682         0.407510161
     0.572214365         0.451042682         0.657510161
     0.572214365         0.451042682         0.907510161
     0.572214365         0.951042652         0.157510161
     0.572214365         0.951042652         0.407510161
     0.572214365         0.951042652         0.657510161
     0.572214365         0.951042652         0.907510161
     0.905547738         0.451042682         0.157510161
     0.905547738         0.451042682         0.407510161
     0.905547738         0.451042682         0.657510161
     0.905547738         0.451042682         0.907510161
     0.905547738         0.951042652         0.157510161
     0.905547738         0.951042652         0.407510161
     0.905547738         0.951042652         0.657510161
     0.905547738         0.951042652         0.907510161
     0.162889913         0.254667759         0.924290776
     0.162889913         0.254667759         0.174290776
     0.162889913         0.254667759         0.424290776
     0.162889913         0.254667759         0.674290776
     0.162889913         0.754667759         0.924290776
     0.162889913         0.754667759         0.174290776
     0.162889913         0.754667759         0.424290776
     0.162889913         0.754667759         0.674290776
     0.496223241         0.254667759         0.924290776
     0.496223241         0.254667759         0.174290776
     0.496223241         0.254667759         0.424290776
     0.496223241         0.254667759         0.674290776
     0.496223241         0.754667759         0.924290776
     0.496223241         0.754667759         0.174290776
     0.496223241         0.754667759         0.424290776
     0.496223241         0.754667759         0.674290776
     0.829556584         0.254667759         0.924290776
     0.829556584         0.254667759         0.174290776
     0.829556584         0.254667759         0.424290776
     0.829556584         0.254667759         0.674290776
     0.829556584         0.754667759         0.924290776
     0.829556584         0.754667759         0.174290776
     0.829556584         0.754667759         0.424290776
     0.829556584         0.754667759         0.674290776
     0.304873288         0.792540550         0.178459063
     0.304873288         0.792540550         0.428459048
     0.304873288         0.792540550         0.678459048
     0.304873288         0.792540550         0.928459048
     0.304873288         0.292540550         0.178459063
     0.304873288         0.292540550         0.428459048
     0.304873288         0.292540550         0.678459048
     0.304873288         0.292540550         0.928459048
     0.638206601         0.792540550         0.178459063
     0.638206601         0.792540550         0.428459048
     0.638206601         0.792540550         0.678459048
     0.638206601         0.792540550         0.928459048
     0.638206601         0.292540550         0.178459063
     0.638206601         0.292540550         0.428459048
     0.638206601         0.292540550         0.678459048
     0.638206601         0.292540550         0.928459048
     0.971539974         0.792540550         0.178459063
     0.971539974         0.792540550         0.428459048
     0.971539974         0.792540550         0.678459048
     0.971539974         0.792540550         0.928459048
     0.971539974         0.292540550         0.178459063
     0.971539974         0.292540550         0.428459048
     0.971539974         0.292540550         0.678459048
     0.971539974         0.292540550         0.928459048
     0.281124204         0.887800634         0.166601598
     0.281124204         0.887800634         0.416601598
     0.281124204         0.887800634         0.666601598
     0.281124204         0.887800634         0.916601598
     0.281124204         0.387800634         0.166601598
     0.281124204         0.387800634         0.416601598
     0.281124204         0.387800634         0.666601598
     0.281124204         0.387800634         0.916601598
     0.614457548         0.887800634         0.166601598
     0.614457548         0.887800634         0.416601598
     0.614457548         0.887800634         0.666601598
     0.614457548         0.887800634         0.916601598
     0.614457548         0.387800634         0.166601598
     0.614457548         0.387800634         0.416601598
     0.614457548         0.387800634         0.666601598
     0.614457548         0.387800634         0.916601598
     0.947790861         0.887800634         0.166601598
     0.947790861         0.887800634         0.416601598
     0.947790861         0.887800634         0.666601598
     0.947790861         0.887800634         0.916601598
     0.947790861         0.387800634         0.166601598
     0.947790861         0.387800634         0.416601598
     0.947790861         0.387800634         0.666601598
     0.947790861         0.387800634         0.916601598
     0.099977016         0.100159377         0.358022660
     0.099977016         0.100159377         0.608022690
     0.099977016         0.100159377         0.858022690
     0.099977016         0.100159377         0.108022660
     0.099977016         0.600159407         0.358022660
     0.099977016         0.600159407         0.608022690
     0.099977016         0.600159407         0.858022690
     0.099977016         0.600159407         0.108022660
     0.433310360         0.100159377         0.358022660
     0.433310360         0.100159377         0.608022690
     0.433310360         0.100159377         0.858022690
     0.433310360         0.100159377         0.108022660
     0.433310360         0.600159407         0.358022660
     0.433310360         0.600159407         0.608022690
     0.433310360         0.600159407         0.858022690
     0.433310360         0.600159407         0.108022660
     0.766643703         0.100159377         0.358022660
     0.766643703         0.100159377         0.608022690
     0.766643703         0.100159377         0.858022690
     0.766643703         0.100159377         0.108022660
     0.766643703         0.600159407         0.358022660
     0.766643703         0.600159407         0.608022690
     0.766643703         0.600159407         0.858022690
     0.766643703         0.600159407         0.108022660
     0.169716775         0.242743552         0.968411982
     0.169716775         0.242743552         0.218411982
     0.169716775         0.242743552         0.468411982
     0.169716775         0.242743552         0.718411982
     0.169716775         0.742743552         0.968411982
     0.169716775         0.742743552         0.218411982
     0.169716775         0.742743552         0.468411982
     0.169716775         0.742743552         0.718411982
     0.503050089         0.242743552         0.968411982
     0.503050089         0.242743552         0.218411982
     0.503050089         0.242743552         0.468411982
     0.503050089         0.242743552         0.718411982
     0.503050089         0.742743552         0.968411982
     0.503050089         0.742743552         0.218411982
     0.503050089         0.742743552         0.468411982
     0.503050089         0.742743552         0.718411982
     0.836383462         0.242743552         0.968411982
     0.836383462         0.242743552         0.218411982
     0.836383462         0.242743552         0.468411982
     0.836383462         0.242743552         0.718411982
     0.836383462         0.742743552         0.968411982
     0.836383462         0.742743552         0.218411982
     0.836383462         0.742743552         0.468411982
     0.836383462         0.742743552         0.718411982
     0.415160894         0.094910540         0.243174374
     0.415160894         0.094910540         0.493174374
     0.415160894         0.094910540         0.743174374
     0.415160894         0.094910540         0.993174374
     0.415160894         0.594910562         0.243174374
     0.415160894         0.594910562         0.493174374
     0.415160894         0.594910562         0.743174374
     0.415160894         0.594910562         0.993174374
     0.748494208         0.094910540         0.243174374
     0.748494208         0.094910540         0.493174374
     0.748494208         0.094910540         0.743174374
     0.748494208         0.094910540         0.993174374
     0.748494208         0.594910562         0.243174374
     0.748494208         0.594910562         0.493174374
     0.748494208         0.594910562         0.743174374
     0.748494208         0.594910562         0.993174374
     0.081827559         0.094910540         0.243174374
     0.081827559         0.094910540         0.493174374
     0.081827559         0.094910540         0.743174374
     0.081827559         0.094910540         0.993174374
     0.081827559         0.594910562         0.243174374
     0.081827559         0.594910562         0.493174374
     0.081827559         0.594910562         0.743174374
     0.081827559         0.594910562         0.993174374
     0.332936794         0.900498867         0.131595284
     0.332936794         0.900498867         0.381595284
     0.332936794         0.900498867         0.631595254
     0.332936794         0.900498867         0.881595254
     0.332936794         0.400498867         0.131595284
     0.332936794         0.400498867         0.381595284
     0.332936794         0.400498867         0.631595254
     0.332936794         0.400498867         0.881595254
     0.666270137         0.900498867         0.131595284
     0.666270137         0.900498867         0.381595284
     0.666270137         0.900498867         0.631595254
     0.666270137         0.900498867         0.881595254
     0.666270137         0.400498867         0.131595284
     0.666270137         0.400498867         0.381595284
     0.666270137         0.400498867         0.631595254
     0.666270137         0.400498867         0.881595254
     0.999603450         0.900498867         0.131595284
     0.999603450         0.900498867         0.381595284
     0.999603450         0.900498867         0.631595254
     0.999603450         0.900498867         0.881595254
     0.999603450         0.400498867         0.131595284
     0.999603450         0.400498867         0.381595284
     0.999603450         0.400498867         0.631595254
     0.999603450         0.400498867         0.881595254
     0.067478351         0.200683296         0.078739166
     0.067478351         0.200683296         0.328739166
     0.067478351         0.200683296         0.578739166
     0.067478351         0.200683296         0.828739166
     0.067478351         0.700683296         0.078739166
     0.067478351         0.700683296         0.328739166
     0.067478351         0.700683296         0.578739166
     0.067478351         0.700683296         0.828739166
     0.400811672         0.200683296         0.078739166
     0.400811672         0.200683296         0.328739166
     0.400811672         0.200683296         0.578739166
     0.400811672         0.200683296         0.828739166
     0.400811672         0.700683296         0.078739166
     0.400811672         0.700683296         0.328739166
     0.400811672         0.700683296         0.578739166
     0.400811672         0.700683296         0.828739166
     0.734145045         0.200683296         0.078739166
     0.734145045         0.200683296         0.328739166
     0.734145045         0.200683296         0.578739166
     0.734145045         0.200683296         0.828739166
     0.734145045         0.700683296         0.078739166
     0.734145045         0.700683296         0.328739166
     0.734145045         0.700683296         0.578739166
     0.734145045         0.700683296         0.828739166
     0.367117316         0.096552782         0.293836921
     0.367117316         0.096552782         0.543836951
     0.367117316         0.096552782         0.793836951
     0.367117316         0.096552782         0.043836921
     0.367117316         0.596552789         0.293836921
     0.367117316         0.596552789         0.543836951
     0.367117316         0.596552789         0.793836951
     0.367117316         0.596552789         0.043836921
     0.700450659         0.096552782         0.293836921
     0.700450659         0.096552782         0.543836951
     0.700450659         0.096552782         0.793836951
     0.700450659         0.096552782         0.043836921
     0.700450659         0.596552789         0.293836921
     0.700450659         0.596552789         0.543836951
     0.700450659         0.596552789         0.793836951
     0.700450659         0.596552789         0.043836921
     0.033783983         0.096552782         0.293836921
     0.033783983         0.096552782         0.543836951
     0.033783983         0.096552782         0.793836951
     0.033783983         0.096552782         0.043836921
     0.033783983         0.596552789         0.293836921
     0.033783983         0.596552789         0.543836951
     0.033783983         0.596552789         0.793836951
     0.033783983         0.596552789         0.043836921
     0.248218536         0.539950788         0.164206684
     0.248218536         0.539950788         0.414206684
     0.248218536         0.539950788         0.664206684
     0.248218536         0.539950788         0.914206684
     0.248218536         0.039950788         0.164206684
     0.248218536         0.039950788         0.414206684
     0.248218536         0.039950788         0.664206684
     0.248218536         0.039950788         0.914206684
     0.581551850         0.539950788         0.164206684
     0.581551850         0.539950788         0.414206684
     0.581551850         0.539950788         0.664206684
     0.581551850         0.539950788         0.914206684
     0.581551850         0.039950788         0.164206684
     0.581551850         0.039950788         0.414206684
     0.581551850         0.039950788         0.664206684
     0.581551850         0.039950788         0.914206684
     0.914885223         0.539950788         0.164206684
     0.914885223         0.539950788         0.414206684
     0.914885223         0.539950788         0.664206684
     0.914885223         0.539950788         0.914206684
     0.914885223         0.039950788         0.164206684
     0.914885223         0.039950788         0.414206684
     0.914885223         0.039950788         0.664206684
     0.914885223         0.039950788         0.914206684
     0.137056336         0.296473771         0.009181640
     0.137056336         0.296473771         0.259181648
     0.137056336         0.296473771         0.509181619
     0.137056336         0.296473771         0.759181619
     0.137056336         0.796473742         0.009181640
     0.137056336         0.796473742         0.259181648
     0.137056336         0.796473742         0.509181619
     0.137056336         0.796473742         0.759181619
     0.470389664         0.296473771         0.009181640
     0.470389664         0.296473771         0.259181648
     0.470389664         0.296473771         0.509181619
     0.470389664         0.296473771         0.759181619
     0.470389664         0.796473742         0.009181640
     0.470389664         0.796473742         0.259181648
     0.470389664         0.796473742         0.509181619
     0.470389664         0.796473742         0.759181619
     0.803722978         0.296473771         0.009181640
     0.803722978         0.296473771         0.259181648
     0.803722978         0.296473771         0.509181619
     0.803722978         0.296473771         0.759181619
     0.803722978         0.796473742         0.009181640
     0.803722978         0.796473742         0.259181648
     0.803722978         0.796473742         0.509181619
     0.803722978         0.796473742         0.759181619
     0.257090986         0.509522319         0.120465159
     0.257090986         0.509522319         0.370465159
     0.257090986         0.509522319         0.620465159
     0.257090986         0.509522319         0.870465159
     0.257090986         0.009522319         0.120465159
     0.257090986         0.009522319         0.370465159
     0.257090986         0.009522319         0.620465159
     0.257090986         0.009522319         0.870465159
     0.590424299         0.509522319         0.120465159
     0.590424299         0.509522319         0.370465159
     0.590424299         0.509522319         0.620465159
     0.590424299         0.509522319         0.870465159
     0.590424299         0.009522319         0.120465159
     0.590424299         0.009522319         0.370465159
     0.590424299         0.009522319         0.620465159
     0.590424299         0.009522319         0.870465159
     0.923757672         0.509522319         0.120465159
     0.923757672         0.509522319         0.370465159
     0.923757672         0.509522319         0.620465159
     0.923757672         0.509522319         0.870465159
     0.923757672         0.009522319         0.120465159
     0.923757672         0.009522319         0.370465159
     0.923757672         0.009522319         0.620465159
     0.923757672         0.009522319         0.870465159
     0.157240197         0.328295112         0.929084718
     0.157240197         0.328295112         0.179084718
     0.157240197         0.328295112         0.429084718
     0.157240197         0.328295112         0.679084718
     0.157240197         0.828295112         0.929084718
     0.157240197         0.828295112         0.179084718
     0.157240197         0.828295112         0.429084718
     0.157240197         0.828295112         0.679084718
     0.490573525         0.328295112         0.929084718
     0.490573525         0.328295112         0.179084718
     0.490573525         0.328295112         0.429084718
     0.490573525         0.328295112         0.679084718
     0.490573525         0.828295112         0.929084718
     0.490573525         0.828295112         0.179084718
     0.490573525         0.828295112         0.429084718
     0.490573525         0.828295112         0.679084718
     0.823906839         0.328295112         0.929084718
     0.823906839         0.328295112         0.179084718
     0.823906839         0.328295112         0.429084718
     0.823906839         0.328295112         0.679084718
     0.823906839         0.828295112         0.929084718
     0.823906839         0.828295112         0.179084718
     0.823906839         0.828295112         0.429084718
     0.823906839         0.828295112         0.679084718
     0.333507895         0.827220380         0.136588022
     0.333507895         0.827220380         0.386588037
     0.333507895         0.827220380         0.636588037
     0.333507895         0.827220380         0.886588037
     0.333507895         0.327220380         0.136588022
     0.333507895         0.327220380         0.386588037
     0.333507895         0.327220380         0.636588037
     0.333507895         0.327220380         0.886588037
     0.666841209         0.827220380         0.136588022
     0.666841209         0.827220380         0.386588037
     0.666841209         0.827220380         0.636588037
     0.666841209         0.827220380         0.886588037
     0.666841209         0.327220380         0.136588022
     0.666841209         0.327220380         0.386588037
     0.666841209         0.327220380         0.636588037
     0.666841209         0.327220380         0.886588037
     0.000174562         0.827220380         0.136588022
     0.000174562         0.827220380         0.386588037
     0.000174562         0.827220380         0.636588037
     0.000174562         0.827220380         0.886588037
     0.000174562         0.327220380         0.136588022
     0.000174562         0.327220380         0.386588037
     0.000174562         0.327220380         0.636588037
     0.000174562         0.327220380         0.886588037
     0.112995185         0.072274789         0.276635289
     0.112995185         0.072274789         0.526635289
     0.112995185         0.072274789         0.776635289
     0.112995185         0.072274789         0.026635289
     0.112995185         0.572274804         0.276635289
     0.112995185         0.572274804         0.526635289
     0.112995185         0.572274804         0.776635289
     0.112995185         0.572274804         0.026635289
     0.446328521         0.072274789         0.276635289
     0.446328521         0.072274789         0.526635289
     0.446328521         0.072274789         0.776635289
     0.446328521         0.072274789         0.026635289
     0.446328521         0.572274804         0.276635289
     0.446328521         0.572274804         0.526635289
     0.446328521         0.572274804         0.776635289
     0.446328521         0.572274804         0.026635289
     0.779661834         0.072274789         0.276635289
     0.779661834         0.072274789         0.526635289
     0.779661834         0.072274789         0.776635289
     0.779661834         0.072274789         0.026635289
     0.779661834         0.572274804         0.276635289
     0.779661834         0.572274804         0.526635289
     0.779661834         0.572274804         0.776635289
     0.779661834         0.572274804         0.026635289
     0.067989886         0.276865214         0.041553725
     0.067989886         0.276865214         0.291553736
     0.067989886         0.276865214         0.541553736
     0.067989886         0.276865214         0.791553736
     0.067989886         0.776865244         0.041553725
     0.067989886         0.776865244         0.291553736
     0.067989886         0.776865244         0.541553736
     0.067989886         0.776865244         0.791553736
     0.401323229         0.276865214         0.041553725
     0.401323229         0.276865214         0.291553736
     0.401323229         0.276865214         0.541553736
     0.401323229         0.276865214         0.791553736
     0.401323229         0.776865244         0.041553725
     0.401323229         0.776865244         0.291553736
     0.401323229         0.776865244         0.541553736
     0.401323229         0.776865244         0.791553736
     0.734656572         0.276865214         0.041553725
     0.734656572         0.276865214         0.291553736
     0.734656572         0.276865214         0.541553736
     0.734656572         0.276865214         0.791553736
     0.734656572         0.776865244         0.041553725
     0.734656572         0.776865244         0.291553736
     0.734656572         0.776865244         0.541553736
     0.734656572         0.776865244         0.791553736
     0.200852737         0.281617850         0.927791357
     0.200852737         0.281617850         0.177791357
     0.200852737         0.281617850         0.427791357
     0.200852737         0.281617850         0.677791357
     0.200852737         0.781617880         0.927791357
     0.200852737         0.781617880         0.177791357
     0.200852737         0.781617880         0.427791357
     0.200852737         0.781617880         0.677791357
     0.534186065         0.281617850         0.927791357
     0.534186065         0.281617850         0.177791357
     0.534186065         0.281617850         0.427791357
     0.534186065         0.281617850         0.677791357
     0.534186065         0.781617880         0.927791357
     0.534186065         0.781617880         0.177791357
     0.534186065         0.781617880         0.427791357
     0.534186065         0.781617880         0.677791357
     0.867519379         0.281617850         0.927791357
     0.867519379         0.281617850         0.177791357
     0.867519379         0.281617850         0.427791357
     0.867519379         0.281617850         0.677791357
     0.867519379         0.781617880         0.927791357
     0.867519379         0.781617880         0.177791357
     0.867519379         0.781617880         0.427791357
     0.867519379         0.781617880         0.677791357
     0.157845587         0.478281766         0.365383446
     0.157845587         0.478281766         0.615383446
     0.157845587         0.478281766         0.865383446
     0.157845587         0.478281766         0.115383446
     0.157845587         0.978281736         0.365383446
     0.157845587         0.978281736         0.615383446
     0.157845587         0.978281736         0.865383446
     0.157845587         0.978281736         0.115383446
     0.491178930         0.478281766         0.365383446
     0.491178930         0.478281766         0.615383446
     0.491178930         0.478281766         0.865383446
     0.491178930         0.478281766         0.115383446
     0.491178930         0.978281736         0.365383446
     0.491178930         0.978281736         0.615383446
     0.491178930         0.978281736         0.865383446
     0.491178930         0.978281736         0.115383446
     0.824512243         0.478281766         0.365383446
     0.824512243         0.478281766         0.615383446
     0.824512243         0.478281766         0.865383446
     0.824512243         0.478281766         0.115383446
     0.824512243         0.978281736         0.365383446
     0.824512243         0.978281736         0.615383446
     0.824512243         0.978281736         0.865383446
     0.824512243         0.978281736         0.115383446
