# Amorphous model                       
    1.000000000000000     
    23.2349135563398583    0.8536313146917546   -0.7644171666975027
    -0.0000000001352155    9.9479652795511129   -3.6235535818837268
     0.0000000000077678    0.0000000000316603   10.1045802215306004
  C               H             
    90   160
Direct
     0.7028910636280334    0.6442029136639226    0.6745629911469293
     1.0996684282009013    1.0515845817277898   -0.2327587610850465
     1.0718902132305197    0.8827705445293466   -0.1393943547153577
    -0.0276894452877040    1.6905748784772909    0.3785477696525464
     0.3209712429662056    1.9342469696463878    0.0521786579518936
    -0.0158482347462255    1.6226145299197365    0.2171131883127836
     0.8288395612258668    1.3568494985092341   -0.0116758490319359
     0.7657475984109334    1.1119322281709001    0.9177986966558872
    -0.0297873672980353    1.4496682344295364    0.4024115434111439
     1.0181111887371734    0.8373940699121544   -0.0696604099801057
     0.0379758475432629    1.2503371311475480   -0.5580129349987664
     0.1184402582289676    1.3280317046684442    0.0355421589468258
     0.9055026587987898    1.0134193949408381    0.3853047639123247
     1.2069281850893838    0.6594964282257817   -0.5353731301072705
     0.9063543890149894    1.2612661931734144   -0.4385323196195745
     0.5331698543758822    1.6148150371012451   -0.1092830181738277
     1.0572357142732474    1.0204845161975420   -0.1432698351137673
     0.5358762416607243    1.3814294857520404   -0.3341787693608405
     0.4732129789586028    1.5507060784214750   -0.1100186415192694
     0.5694027355984679    1.4963046988030015   -0.2353490220239181
     1.2860867441023112    1.5034919949843584   -0.4559217312101295
     1.0607019001205988    1.1661326931597962   -0.4710994806824076
     0.4781376940986969    1.4449984821269930   -0.3825227154917432
     0.9979589545474875    1.3741498218032993   -0.4789637127738842
     1.1119453526102256    1.2023451562870902   -0.3832631761076054
     0.9517476001368187    1.3599535239862497   -0.3688972098003156
    -0.0357119753508107    1.4756469289556597    0.1605488944728699
     0.2202903898301576    1.4176848847106567    0.0952394040267839
     0.8507195023431191    0.9485700448257145    0.3058387917537415
     0.8119790377988854    0.6002534136359852    0.7495365054444113
     1.0278501869337351    0.8868005260796886    0.0859488614878667
     0.7471118985075611    0.6395954357169109    0.7828140383413346
     0.7061642048464305    0.7505531318399296    0.3419631115882064
     1.2263796358958323    0.5872284130360508   -0.4237927082873687
     1.0897593073542908    0.8444198917645734    0.1261973908864264
     0.7917098818713116    0.6520372009740433    0.5164633333637425
     1.1283827635149002    0.8365981909032287   -0.0821016525104034
     1.1438386254251030    0.8837635202041081    0.0775768277793699
     0.6925771843288886    0.6618622287531812    0.4328395442387732
     0.6915226110521868    0.5134655648698292    0.3334791775780614
     0.7272154668929925    0.6986252819253563    0.5673469146863821
     0.8605314693738756    1.2130899799098724    0.0015547461279900
     0.8151978044758268    1.5863309639314351    0.1854906334725272
     0.4235132660118763    1.8561100106619839   -0.0785403851675543
     0.8128901710068468    1.0213607755986418    0.2066069844282175
     0.3981286500601454    1.0869479499863417    0.0997829084147817
     0.8319160883047897    0.6869199186937780    0.6543475958034081
     0.3051714421691219    1.9742336864078092    0.1982880535014690
     0.1555559447654481    1.4469459491148506    0.1260433227203298
     0.2393767676220110    1.3883602682403486   -0.0717256960361360
    -0.0165789825508338    1.6041788253913727    0.4765163239697265
     0.8310659359964324    1.0918429126759048    0.8941656797218017
     0.3751776849607432    1.1645561037753034    0.2436331319920383
     0.3847864897177563    1.9483458077544671    0.0609216075370227
     0.4416924730062923    1.5071855957137310   -0.2550550932771619
     1.0971073680221899    1.2078873200782207   -0.2413025266492390
     0.7867493190955037    1.3341225134189443   -0.1333888531306591
    -0.0021171468440652    1.3899104254048886   -0.7380960495329197
     0.5032907985616852    0.7566251268749258    0.4562362541370897
     1.1358545997720337    1.3032498049323875   -0.1146514379978044
     0.4049147279686769    0.8868663652815220   -0.2081154004771777
     0.5609147729542822    0.7310274012345378    0.3753541740811133
     0.4866109052803925    0.8513311646605992   -0.0549294615644766
     0.3146955841961687    2.1216338852939645    0.2690553546947920
     0.5824420574091166    1.2688407010187270    0.0651303989563971
     0.9691978380343466    1.0164291261446206   -0.2774969366471804
     0.7456528874084838    1.2306560681525263    0.8762398748400637
     0.5823881512601435    1.1176041240898273    0.0030647388871826
     0.5960322019065839    0.8472585101223344    0.3746638071080550
     0.5281079228340466    1.3175298539430984    0.1495943436091652
     0.6502515782883879    0.8609669823204765    0.1513420411934130
     0.5333143541182606    0.7429865012041801   -0.1311275205869602
     0.5967252504020302    0.8854417348386309    0.0706008036967957
     0.5841939948814742    1.0415617571937037    0.1127181841379475
     0.5391700660632024    1.1162222630695529    0.2381318956688640
     0.6451098510265134    0.7781129528763078    0.2604156392902450
     0.5949192384968882    0.7921226485929441   -0.0852457508881224
     0.7857396252091876    1.1613006450891834    0.3088617496716209
     0.5325916460168701    1.2689107385140674    0.2775727876519667
     0.7400912470828971    1.1372445526431711    0.3959964167266301
     0.9174042763998260    1.1611306888318711    0.4279057057447149
     1.1952783434453003    1.2902893411647187   -0.1715049449799890
     1.2481269574995291    0.7675692273356497   -0.5135495026481574
     0.5596465254906321    0.9679226946790679    0.6090191506882442
     0.8006481164609071    1.4646566788455324    0.1083336588814604
     1.3125593805339504    1.6914410800756212   -0.5497666550252857
     0.9990789895472934    1.0767756949498031   -0.1488365271833180
     0.4970072581799644    0.9141193239905084    0.5318843203926883
     0.6122639095472014    0.9490599126310202    0.5203790917099483
     1.3337616911545409    1.5894451218235248   -0.4811932809464259
     0.8733187513092203    1.3972977550487049   -0.0481437295898525
     0.4877193996280645    0.8710105951200642    0.0668045301760671
     1.1942143905546518    0.5198823296520243   -0.4056485977444231
     0.9004199016497206    1.1858290199337833    0.3216748002222566
     0.7189849957845540    1.2246465155999846    0.4675671571565198
     1.0825665496634558    0.8257345638069997   -0.2624319736007392
     0.7650890519914054    1.2418593232419548    0.2598389814597742
     0.7683200154460981    1.4036591038582400    1.1390367443022644
     0.9648602590583687    0.9074294822312854   -0.2845188900048672
     0.9118175968482547    1.2256292301274325    0.9941710307246264
     0.8171751490771175    1.2174416916015713    0.3902386862234483
     0.7552588626296169    0.7491513572890339    0.8788326778870751
     0.8116334265283796    0.4869168894201686    0.6649769038999380
     1.2962661995981464    1.4895858200551439   -0.3499505122343551
     1.0247063710560123    1.0059978911991196    0.1412893135456103
     0.7188777463999659    0.8163877290336110    0.6028632954017845
     0.9724383479849767    1.0495690010695553   -0.0628493359580203
     1.3783700764253470    1.5709232018822792   -0.4697988574731647
     0.9915739731219081    0.7687946619766082   -0.1524969120379008
     0.7880467308082270    0.5428030422390017    0.4493296666686056
     0.7258144572465628    0.5816258332501332    0.8377528678518127
     1.0481362191873764    1.2717066088842288   -0.2046553593952261
     1.0020851901184478    0.8535780215721472    0.1547865151105404
     1.1615291890780159    0.6919006311730791   -0.5161845316461164
     1.2472570567019616    0.8356560210503504   -0.3778723731544413
     1.0876665285384801    0.9995674895334931   -0.3462447931649686
     0.3777172873692688    1.2808283990218585    0.2775451529964553
     1.1283076897809587    0.7126246443041282   -0.1229305101407677
     0.9388879408359387    1.4727104933000494   -0.3158620107148418
     0.9913061157726227    1.1903916161301604   -0.0999691710936711
     0.9908779987687548    1.0414513041844207   -0.3665940409177311
     0.8657903201341427    1.2612312608000891   -0.3766295494864413
     0.9080810671744222    0.9751305859919595   -0.5285093713783962
     1.0302831276042590    1.0726412691069720   -0.4664632812900313
     1.0309335271538731    1.4578502550748660   -0.4177351176858628
     1.1452889141310023    1.0559808553335386   -0.2101071835683228
     1.1938149194819971    1.3159748479008047   -0.2693296560488275
     0.8398116826562274    1.0576052782473904    0.1525257420627284
     0.7071921274210288    1.0714402642210925    0.3365626223446548
     0.7242225859675592    1.1816572399598004    0.7624883885882020
     0.4098969587515463    1.8951987718381764    0.1273733500972001
     0.5949274660697960    0.6882021143006608    0.4301161902285517
     0.7642064933968026    1.1048367780552153    0.4761346830414918
     1.1202015194278894    1.4058329111553354   -0.1107615597693828
     1.2818695892926923    1.4007971110535602   -0.5435629470485949
     0.7195907565147119    0.8447440874099994    0.3972410700992985
     0.7595443943065442    1.4118038208282557   -0.1544491800587313
     0.4504553173894350    1.0920768381543799    0.1031755854405551
     0.8104133087780275    0.6983364179122939    0.4576737988137379
     0.8247596494398857    1.0882726889772663    0.7739740049107758
     1.0735925382468221    1.0963015947346866   -0.0413687039597980
     0.8112961057400516    1.3322853066960167   -0.2218741176321117
     0.8183784552728459    0.8070615178265524    0.7216198800557091
     0.8390520422706313    0.6141823936705679    0.8451017975625706
     0.3124633869468750    2.1498039820473505    0.3939999997530357
     0.7770482911442267    0.9576363679929193    0.1334877819395621
     0.8611139733174021    1.0064874221008584    0.8955374576743854
     0.9226863290553683    1.0357433299014727   -0.2890870199726561
     0.8815026226872906    0.6725919187212582    0.6392465710055136
     0.3345016742745076    1.9245221473246854    0.2648140692059888
     0.6103910562204332    0.8740530898572534   -0.1146551027787314
     0.8633129833476680    1.2260801757659336    0.1284842711521396
     0.5045310443423426    0.7230069844140635    0.5478811821633021
     0.4369352442944621    0.9592717104957751   -0.2163918491853417
     0.5642994984210765    1.0760342713575253    0.6800609460364601
     0.2830925519447737    0.3269963154308794   -0.1004769599179783
     0.3847668545350530    1.1243333668862117    0.0253080733493477
     0.5059635647926515    0.9643266751717645    0.4473275181634538
     0.4987513582736436    0.9514426735082518   -0.0457212989662751
     0.2108119566820431    1.1901847920467330   -0.1904873050289224
     0.1237467810407601    1.2360849037098784    0.0570575635785354
     0.0401551145882367    1.4123829946488475   -0.7408796852704996
     0.4950197723922998    1.4907554462853883   -0.4590255855417910
     0.1253409534949157    1.2877306333007836   -0.4061266999952040
     0.0171421188372895    1.1791140871939862   -0.6478447740856946
     0.3085793122367700    1.6541142155318389   -0.6725730130910064
     0.5207032980819618    1.3154438356493623   -0.2741048861527937
     0.4140180906863432    1.6076300684367830   -0.2382193925452485
     0.4508529227495369    1.6249014355575180   -0.0164405475246127
     0.5851289952129111    1.5551335570388019   -0.2844753716427748
     0.4515235595474276    1.3715290895303709   -0.4613090810380858
     0.5598145277466451    1.3094950118521584   -0.4159477580193534
     0.5555018842282528    1.6238763122991697   -0.0190634074459114
     0.5646110978987132    0.6427528838585934    0.2802537463550944
     0.4748305960706919    1.4627638219651737   -0.0686468117056087
     0.3657123042125733    0.9475114201540991   -0.1836626756043137
     0.5771750798515602    0.9113497498109617    0.3247289933098586
     0.6909762676521175    0.8095433523797266    0.0768436683574484
     0.5736763508250758    1.3119822296129979    0.3390335511755512
     0.5245039793435933    0.7059760753242903   -0.2353086187532273
     0.5546003676922450    1.1021521419203684    0.3356249721853718
     0.6223844575819858    1.2845492854782625    0.1400315054386669
     0.6700583770017062    0.9580266296099159    0.2106579786553474
     0.5254309275207791    1.4389561906415735    0.1919347106194192
     0.4993139505669915    1.0586320099777082    0.2345811981952382
     0.6263627525921642    1.0768073541911392    0.1517125868857913
     0.6026946068016813    1.3240766091949572    0.0016700179039808
     0.5669861968992516    0.8455360510737263    0.1256405862441405
     0.5049940805673861    1.2927309354808618    0.3590000661235512
     0.5393265747587307    1.0817369556804222   -0.0622190077503575
     0.4829632364640289    1.3163767050456228    0.1001858288740216
     0.6169116715402303    1.0688069237393072   -0.0694199630775022
     0.6299725732756282    0.7056006506298209   -0.1371525667283024
     0.6312574772594867    1.0444213217045253    0.5207962749448058
     0.6239279364138435    0.6790352257899700    0.2028717557827164
     0.6094652120689585    0.4647919007348018   -0.2111746241283798
     0.4048583927391926    0.8086127131158273   -0.3103654434481251
     0.4703531828722809    0.7123024420173566    0.3758217593003999
    -0.1794744455042243    0.9303204093333275    0.3785003212556509
     1.2333300141366532    0.6549666759703016   -0.3141675999680240
    -0.0126625237402926    1.2782648890440127   -0.7809846609027347
     0.3449268858522789    1.7803398193331366   -0.5281307425052633
     0.4683476364368965    0.9595279932694670    0.6152652041544480
     0.6468183163010913    0.8871013406661591    0.5605106999578442
     0.2860502182173743    2.1881374205627342    0.2246857388137088
     0.0735019337030938    1.3521434443048244    0.0246304438400688
     0.7094019156623594    1.2949350307946486    0.9444078374268093
     0.6942144053519465    0.5199169960516721    0.2258024932059736
     0.8642297791623116    1.5821308377357521    0.1870106324535337
     1.2409550606763315    1.4960678851528872   -0.0753773252746125
     0.7943184416267016    1.6442295190516047    0.2767689035237907
     1.0889353592389595    0.7395207753084216    0.1069748488483126
     1.1589563662592879    0.9881738107906139    0.1116901784314173
     1.0873697862366327    0.8837190586057063    0.2479230515394334
     0.7112429215064257    0.4377170500345956    0.3789626697154898
     1.1764477647445111    0.8299044545108564    0.1204297930049832
     0.6580313002901975    0.6822744067071415    0.6981681495266804
     1.1600625714156385    0.8676227701223765   -0.1470918742580101
     0.7387902516422478    0.7058064713781719    0.2590761346265629
     0.6483135312477201    0.4769634597196237    0.3338381748006206
     1.2126263417782686    0.5916011544669062   -0.6399894332525822
     1.2306895070906596    0.8399952346577275   -0.5576473337039985
     0.6924721488760630    0.5347482187702352    0.6443992275017706
     0.7451006526860746    1.1541877333869235    1.0344833715511046
     0.1406298022204593    1.1125192223605667   -0.4180350125102282
    -0.1486335155224908    0.8456973401770013    0.2315771540637507
    -0.0185699599400341    1.4606371688715876    0.0391015911392672
     0.0783268982099570    1.2739893099947843   -0.5965985242949380
     0.4135869119891381    1.4205199579261176   -0.2676708956316318
    -0.0083633900276093    1.3325107301087888   -0.2990880422160622
    -0.0731379652567934    1.7289373023646131    0.4085004886075831
    -0.0472779965138527    1.6840285789349680    0.1869448093121545
     0.2385453132562815    1.3115466177682300    0.0942043394254131
     0.2559169972251010    1.9364988558819105    0.2150609293546230
    -0.0780292001496510    1.4270887782539838    0.1479048700293864
     0.4105631289673079    1.7530095916203370   -0.0710660521855262
     0.0045981218932864    1.7858476513694692    0.4088926035147119
     0.1405704039286490    1.4347948646227391    0.2318274619853919
    -0.0266075308111112    1.6439082451282336    0.5983684804119785
     0.5698809563841467    0.9088169067424061    0.6746440328489781
     0.0330668344133317    1.6101805050874760    0.1827439040296492
     0.3057619294718014    2.0106809157739378    0.0003215288772465
     0.3055797446933955    1.8480114606983091   -0.0361928039991706
     0.1421988680970242    1.5533628452313502    0.1127595606213738
     0.2456157951157880    1.5092904447917590    0.1561241493094175
     0.7402641017060327    1.0275611636099056    0.8488458090492730
    -0.0655295709436002    0.9372678677006653    0.3021205518726536
    -0.0763437029369455    1.4044252334362570    0.3985063813959053
     0.0284897907451020    1.6007004540498719    0.4800405631161786
     0.4050738966601168    2.1316360123730971    0.3192380355129268
Lattice velocities and vectors
            1
 -0.22433913E-03 -0.18011976E-02  0.50860627E-04
  0.12182428E-03 -0.78589190E-05  0.60701528E-03
  0.24654120E-03  0.10783186E-02 -0.14342702E-02
  0.23234824E+02  0.85313987E+00 -0.76413361E+00
 -0.13521699E-09  0.99481168E+01 -0.36228861E+01
  0.77673359E-11  0.31658490E-10  0.10104007E+02
 
 -0.33003337E-03  0.93581184E-02 -0.57379860E-02
  0.18441020E-01  0.12798285E-01 -0.13154359E-01
  0.43224562E-02 -0.44626588E-02  0.13863273E-01
  0.15471767E-01  0.77911358E-02  0.16883205E-01
  0.13275838E-01  0.31901872E-02  0.10540147E-01
  0.10937741E-01  0.14625422E-02  0.11957937E-01
  0.76969200E-02  0.43572937E-02  0.89331628E-02
  0.82902460E-03  0.40956029E-02 -0.78101447E-02
 -0.54004073E-02  0.87283699E-02  0.62204271E-02
 -0.20338987E-02  0.42089479E-02 -0.14331239E-01
 -0.51302555E-02  0.59315655E-02 -0.12936550E-02
  0.59612225E-03  0.49973498E-02  0.14094208E-01
  0.28582186E-02  0.21764587E-02 -0.39885250E-02
 -0.11749469E-01 -0.25280288E-02  0.16444413E-01
  0.46415660E-04  0.47692133E-03  0.21949886E-02
  0.66408081E-02  0.70273876E-02  0.11515037E-01
  0.55030042E-02 -0.50148461E-02 -0.66280647E-03
 -0.55418085E-02  0.82238737E-03 -0.35300786E-02
 -0.27712928E-03 -0.46668689E-02  0.56657082E-02
  0.61655481E-02  0.10414533E-02  0.53540226E-02
 -0.51465763E-02  0.31501545E-03 -0.14560605E-02
  0.38802931E-02  0.12830973E-01  0.33008162E-02
  0.13286212E-01 -0.13549459E-01  0.97936840E-02
  0.99502380E-02  0.16108259E-02  0.25640567E-02
  0.24685399E-02 -0.12736594E-01 -0.29796245E-02
  0.10170282E-01  0.19667891E-01  0.57924987E-02
 -0.40916299E-02 -0.14969456E-01 -0.19853914E-02
 -0.21838368E-02 -0.11552773E-01 -0.72030046E-02
 -0.13470428E-02  0.10272560E-01  0.20337425E-03
 -0.84303918E-02  0.14158442E-01 -0.85480664E-02
  0.44609566E-03  0.53356844E-03 -0.10671321E-01
 -0.10291401E-02 -0.10498171E-02  0.85177667E-02
 -0.34730093E-02  0.15373217E-04 -0.12119516E-01
  0.91475074E-02 -0.58567447E-02  0.81464462E-02
 -0.16500745E-01 -0.72638512E-02 -0.22534562E-02
 -0.21613304E-02 -0.83618205E-02  0.10310906E-01
 -0.22369649E-02 -0.17294759E-02 -0.34618856E-02
  0.55722465E-02  0.85771176E-02 -0.58043635E-02
 -0.10071021E-01  0.16257121E-01 -0.15523764E-01
  0.15913519E-02  0.12076372E-01  0.10660020E-01
  0.10881134E-01 -0.44847847E-02 -0.85990739E-02
  0.50309347E-03 -0.58284426E-02 -0.11883136E-01
  0.70668621E-02 -0.21840340E-01 -0.45600903E-02
  0.39877851E-02  0.96955512E-02 -0.98043782E-02
  0.72098393E-02  0.42849349E-02 -0.13644242E-02
  0.96171855E-02 -0.44358112E-03  0.21281608E-02
 -0.53466488E-02 -0.22678337E-02 -0.72874390E-04
 -0.41267281E-02  0.61339057E-02  0.11017308E-01
 -0.89666303E-02 -0.99641355E-02  0.12152397E-01
  0.77509037E-02 -0.33578102E-04  0.12572816E-01
  0.18330471E-01 -0.12138225E-01 -0.15394758E-01
  0.43886907E-02  0.67259050E-02  0.74351689E-02
  0.21935749E-02  0.14187804E-01  0.31410258E-02
  0.82324917E-02  0.63352604E-02  0.15424692E-02
  0.39338350E-02 -0.67684218E-02 -0.10945635E-01
 -0.46749859E-02  0.19532701E-01  0.11873147E-01
 -0.19990303E-02 -0.51982857E-02  0.96684896E-03
  0.86003632E-02  0.16511196E-01 -0.12273110E-02
  0.16269179E-02 -0.35731290E-02 -0.65851909E-02
  0.16618883E-01  0.71397994E-02  0.70202538E-02
  0.77922524E-02  0.48079160E-02  0.13241491E-01
 -0.41424447E-02 -0.99628231E-02  0.91040469E-02
  0.46193217E-02 -0.21949268E-02 -0.61320936E-02
 -0.11559451E-01 -0.14256245E-01 -0.11917416E-01
  0.46154865E-02 -0.10189194E-01  0.10014069E-01
  0.16268659E-03  0.71851854E-02  0.16115169E-01
 -0.61228798E-02  0.72729770E-02 -0.26579755E-02
  0.50200689E-02 -0.23932090E-01 -0.13203352E-01
 -0.86724030E-03 -0.21130698E-02 -0.19382028E-01
 -0.47119787E-02  0.23203065E-02 -0.15775773E-01
  0.67305880E-02  0.82679578E-02 -0.49436370E-02
 -0.13139497E-01  0.38885067E-02  0.14563240E-01
 -0.14784081E-01  0.33422122E-02  0.10242385E-01
 -0.41814558E-02 -0.48085717E-02 -0.90181514E-02
  0.13023809E-01  0.95738090E-02 -0.37214091E-02
 -0.27458894E-02 -0.70788558E-02  0.10778403E-02
 -0.80364660E-02  0.31703862E-02  0.32785284E-02
  0.38730304E-02  0.43009936E-02  0.66158674E-02
  0.18211181E-02  0.78919978E-02  0.57662750E-03
  0.13104885E-01 -0.97618129E-02 -0.12385505E-02
 -0.58658350E-02 -0.22834306E-02  0.82016142E-03
  0.44446603E-02  0.13314762E-01 -0.13250862E-01
  0.78516679E-02  0.43593425E-02 -0.12061295E-01
  0.10331372E-01 -0.37317850E-03  0.32430182E-02
 -0.61376902E-02  0.31588534E-02 -0.26281461E-02
 -0.13033899E-03  0.15421724E-02 -0.11232143E-03
  0.88582837E-02  0.38336631E-02  0.58990299E-03
 -0.15210157E-01 -0.12314054E-02  0.16996685E-02
 -0.32351952E-02  0.21104862E-02  0.56593242E-02
 -0.35532127E-03  0.80075867E-02 -0.98617894E-02
 -0.10673232E-01 -0.53443169E-02 -0.68950122E-02
  0.24991288E-01 -0.51567191E-01 -0.90429662E-02
  0.24030489E-02  0.36667975E-01 -0.35911158E-01
  0.41869585E-01  0.16480747E-01 -0.71750301E-02
 -0.53627183E-01 -0.16693789E-01  0.10549438E-01
 -0.53823025E-01  0.36444428E-02 -0.42176690E-01
  0.11819537E-01  0.19042516E-01 -0.18724157E-01
 -0.46077656E-01  0.40895877E-01  0.68909347E-02
  0.53621670E-02  0.72857354E-01 -0.67503148E-01
  0.17970146E-01 -0.45621343E-01  0.12463804E-01
 -0.20702872E-01  0.39172815E-01  0.45947850E-02
 -0.55514107E-02 -0.86526569E-02 -0.21590969E-01
 -0.13141028E-01  0.28911779E-02 -0.33695352E-02
  0.45913002E-01 -0.16032921E-01  0.20038368E-01
 -0.24889669E-02 -0.35055085E-01 -0.16054555E-02
 -0.39114874E-01 -0.83645821E-02  0.17131070E-01
  0.10187974E-03 -0.21460038E-01  0.19913443E-01
 -0.62528005E-02 -0.14782853E-01 -0.84863880E-03
 -0.17895933E-02 -0.30385534E-01 -0.13779407E-01
 -0.58596073E-01  0.25846289E-01 -0.32559065E-01
 -0.28978392E-01 -0.49652003E-01  0.28240495E-01
 -0.21785417E-01 -0.13940929E-01 -0.23580980E-03
 -0.30508919E-02  0.41650673E-02 -0.23897149E-01
 -0.73357166E-02 -0.11584782E-02  0.10503664E-01
 -0.89136149E-02  0.34614509E-02  0.43578127E-01
 -0.28810583E-02 -0.24972676E-01  0.93064425E-02
  0.30788626E-01  0.40239431E-01  0.27397812E-01
  0.28301661E-01  0.29066964E-01  0.38171856E-01
  0.12211075E-01  0.19450607E-01 -0.29858839E-01
 -0.52214205E-01  0.23408603E-01 -0.24149309E-01
 -0.46444650E-02 -0.75145848E-02 -0.63660208E-01
  0.23697283E-01  0.11103665E-02  0.95623911E-02
 -0.23792404E-01 -0.43790620E-01 -0.70418067E-02
 -0.45665061E-01  0.26191608E-01 -0.30901894E-01
 -0.29481087E-01  0.42322970E-01 -0.16652168E-01
  0.64818247E-01 -0.51467826E-01  0.10106884E-01
  0.19909515E-01 -0.80899389E-02  0.26265874E-01
 -0.22174694E-01 -0.12742651E-01  0.26826687E-02
 -0.14775992E-01  0.11572564E-01  0.31359562E-02
 -0.73132535E-02  0.35373402E-01 -0.14217799E-01
 -0.25649043E-02 -0.61354049E-01  0.21155304E-02
 -0.29353287E-01  0.21035539E-01 -0.58459133E-03
  0.23434755E-01  0.20506512E-01  0.35911153E-03
  0.36296332E-01  0.21882348E-01  0.61322481E-01
 -0.26188667E-02  0.19043350E-01  0.28931377E-01
  0.18505150E-01 -0.15099499E-01  0.26868418E-01
 -0.28457923E-01 -0.15923257E-01  0.38368804E-02
  0.22173903E-02  0.10786811E-01 -0.19084421E-02
 -0.26551825E-01  0.38213246E-01 -0.36014057E-01
  0.32148918E-01 -0.35433368E-01  0.65474372E-01
  0.22912842E-01 -0.17657330E-01  0.10095463E-01
  0.73634109E-01 -0.59585412E-01 -0.15398730E-01
 -0.46828981E-01 -0.30075883E-01 -0.17586386E-01
 -0.20692966E-01 -0.91258543E-02 -0.27291571E-01
 -0.35794016E-01  0.70719010E-02 -0.21175597E-01
 -0.17999525E-01  0.72349658E-01 -0.32598121E-03
 -0.16271349E-02  0.13230721E-01  0.85026410E-02
 -0.15265090E-01 -0.18379296E-02  0.10031677E-01
 -0.21831132E-01  0.34525963E-01  0.19573110E-01
  0.15277983E-01 -0.63150502E-02  0.26602048E-01
  0.31565869E-01 -0.45377642E-01 -0.39205724E-03
 -0.36563364E-01  0.19062361E-01 -0.79190293E-02
  0.50761134E-01 -0.21944553E-01  0.28888139E-01
  0.14534552E-01 -0.83999448E-02 -0.93374443E-03
 -0.36985895E-01 -0.22888031E-01  0.23790349E-01
 -0.18848117E-01  0.97458567E-02  0.65142971E-01
 -0.11602041E-01  0.42049146E-02  0.14675553E-01
 -0.22762258E-01  0.66331802E-02  0.50233564E-01
  0.86182689E-02 -0.33681156E-01 -0.64195965E-02
  0.40775774E-01 -0.11970216E-01 -0.11808919E-01
 -0.10530526E-01  0.25020967E-02  0.83566332E-02
  0.40812012E-01  0.65033276E-02  0.67811596E-02
 -0.98666621E-02  0.29291983E-01  0.43536012E-01
 -0.39934652E-01  0.16033229E-02  0.30057895E-01
  0.65884546E-02 -0.70250412E-02 -0.24922576E-02
  0.22761888E-01 -0.19261287E-01 -0.18276871E-03
 -0.30097857E-01 -0.38015061E-01 -0.28132449E-02
 -0.15872385E-01 -0.21490023E-02 -0.27588091E-01
 -0.13855459E-02 -0.57096601E-01  0.96418827E-02
  0.16390049E-01  0.27757603E-02  0.75509191E-02
 -0.66545372E-03 -0.14295552E-01  0.11411760E-03
  0.29750922E-01 -0.16556782E-01  0.20512433E-01
 -0.18802057E-01 -0.92258128E-02 -0.75025173E-02
  0.60215780E-01 -0.32541335E-01 -0.42724953E-01
 -0.11370636E-01 -0.31645453E-01  0.11462224E-01
  0.72463105E-01  0.33244112E-01 -0.42351230E-01
  0.29060953E-01  0.18803469E-01  0.17259295E-01
 -0.36874128E-01 -0.18816558E-01 -0.34763352E-01
  0.90380301E-02 -0.12708448E-01  0.80313921E-02
 -0.25272869E-01  0.98814618E-02  0.30127650E-01
  0.30654401E-01  0.26169457E-01 -0.10576958E-01
  0.32794950E-01 -0.12198147E-01 -0.29499587E-01
  0.13609349E-01  0.12617301E-01 -0.12807960E-01
  0.32333906E-01  0.23670057E-01 -0.73783613E-02
  0.20986044E-01 -0.23927342E-02 -0.98835519E-02
 -0.23480672E-01  0.76396260E-02 -0.20985071E-02
  0.14147601E-01  0.11138110E-01  0.10809993E-01
  0.24493467E-01 -0.75279043E-02 -0.11361645E-02
  0.40897951E-02  0.17730825E-01 -0.75402682E-02
  0.63989765E-01 -0.10569347E-01  0.32426546E-01
  0.38812226E-01  0.10654091E-01  0.78551879E-02
  0.50865775E-02 -0.41838176E-01  0.10309442E-01
 -0.23706324E-02  0.38025158E-02 -0.11485175E-01
 -0.13918987E-03  0.40497555E-01 -0.40347369E-02
 -0.30424894E-01  0.45023484E-01  0.25276769E-01
  0.20592770E-01 -0.39203678E-01  0.48374748E-01
 -0.46639210E-01  0.20947933E-01  0.17175955E-01
  0.21524538E-01  0.23394260E-01 -0.13840178E-01
 -0.34937190E-02  0.15469268E-01  0.19104580E-02
  0.54822173E-02 -0.75261964E-01 -0.51779462E-01
  0.93978494E-02  0.25793603E-01  0.18791516E-01
  0.24977870E-01 -0.32584323E-01 -0.47371878E-01
 -0.42521832E-01  0.22337606E-01  0.21196973E-01
 -0.27162060E-01 -0.42376615E-01 -0.14189841E-02
  0.40493122E-01 -0.48224094E-01 -0.27020413E-01
  0.18561251E-01  0.70187645E-03 -0.33968717E-02
  0.21517691E-01 -0.19514353E-01  0.19651028E-01
 -0.41934585E-01  0.51407500E-01  0.37614418E-03
 -0.95441977E-02 -0.11683297E-01  0.28200396E-01
  0.88966221E-02 -0.82240266E-02  0.43439804E-01
  0.19865677E-02  0.21609856E-01 -0.52530345E-01
  0.17292580E-01 -0.31910570E-01  0.11164244E-01
  0.76511823E-02 -0.18796017E-01  0.11355916E-01
  0.58286790E-02 -0.36021864E-01  0.31373610E-01
  0.25885193E-01 -0.34978230E-01 -0.24568983E-01
  0.24301751E-01 -0.29265220E-01 -0.48453325E-02
 -0.29139235E-01 -0.17589330E-01 -0.21757099E-01
 -0.50363766E-01 -0.17771460E-02  0.55960672E-02
 -0.46296861E-02 -0.21088595E-01  0.20616695E-01
 -0.18216782E-01 -0.17766463E-01  0.11964344E-01
  0.69767573E-02 -0.46737254E-01  0.24994489E-01
  0.31121744E-01 -0.31006260E-01  0.80095094E-02
  0.31144750E-02 -0.18328266E-02  0.13735213E-01
 -0.27244951E-01 -0.42278635E-02  0.18495615E-01
  0.23731946E-01  0.54640654E-01  0.39269098E-01
  0.67366057E-02 -0.61202907E-02 -0.13658799E-01
  0.47269260E-01 -0.21712618E-01  0.93463929E-02
  0.12984630E-01 -0.87870335E-01  0.35051210E-01
  0.38192496E-01 -0.22498463E-01  0.57607067E-02
 -0.20842855E-02  0.15100212E-01  0.18844713E-02
  0.56790913E-02 -0.17399952E-01 -0.21295520E-01
 -0.11753185E-01  0.35694685E-01 -0.79002813E-01
 -0.89106701E-02  0.24623410E-01  0.15146650E-02
  0.40679156E-01  0.27222343E-01 -0.18271391E-01
 -0.36204976E-01  0.39953543E-02  0.60025338E-03
  0.21666121E-02 -0.56470455E-02 -0.76566397E-02
 -0.74501531E-02 -0.49526148E-01 -0.18385429E-01
 -0.34892595E-01 -0.37866599E-02  0.27866391E-02
 -0.37141982E-01  0.88112931E-04 -0.49289975E-01
  0.38117713E-01  0.39640857E-01 -0.28268612E-01
 -0.29269622E-01 -0.45397032E-02  0.11337503E-01
 -0.79650025E-01  0.19667485E-01 -0.37531395E-01
  0.31276715E-01 -0.47659920E-02 -0.77254963E-02
  0.91557832E-02 -0.25908405E-01  0.20290368E-01
  0.16424185E-01  0.26022349E-01 -0.23856885E-01
  0.58840001E-01  0.33268507E-02  0.31785993E-02
 -0.96343323E-02  0.38822099E-01  0.62494004E-01
  0.12606495E-01  0.20210528E-01  0.84496675E-02
  0.31934282E-01 -0.59006599E-03 -0.34851662E-02
  0.17467641E-01 -0.25751819E-01 -0.43085605E-01
 
            1
   0.4000000000000000     
  0.10000000E+01  0.00000000E+00  0.00000000E+00  0.00000000E+00
  0.70288538E+00  0.64457968E+00  0.67447050E+00
  0.99985900E-01  0.52071957E-01  0.76691924E+00
  0.71964627E-01  0.88258473E+00  0.86109347E+00
  0.97257691E+00  0.69086531E+00  0.37934043E+00
  0.32119979E+00  0.93435564E+00  0.52652174E-01
  0.98434006E+00  0.62265719E+00  0.21761612E+00
  0.82897207E+00  0.35701334E+00  0.98874657E+00
  0.76576187E+00  0.11209568E+00  0.91754919E+00
  0.97011966E+00  0.45002716E+00  0.40277947E+00
  0.18076174E-01  0.83756631E+00  0.92983135E+00
  0.37887527E-01  0.25058321E+00  0.44201740E+00
  0.11845052E+00  0.32823176E+00  0.36172632E-01
  0.90555186E+00  0.13502687E-01  0.38518045E+00
  0.20672591E+00  0.65941213E+00  0.46523235E+00
  0.90635519E+00  0.26128530E+00  0.56156149E+00
  0.53328418E+00  0.61508779E+00  0.89127929E+00
  0.57330451E-01  0.20274752E-01  0.85663588E+00
  0.53578084E+00  0.38147073E+00  0.66568906E+00
  0.47320821E+00  0.55051884E+00  0.89013816E+00
  0.56950888E+00  0.49633747E+00  0.76488271E+00
  0.28599814E+00  0.50351226E+00  0.54402119E+00
  0.60768701E-01  0.16664288E+00  0.52921918E+00
  0.47836642E+00  0.44443406E+00  0.61767992E+00
  0.99813025E+00  0.37419990E+00  0.52116870E+00
  0.11198785E+00  0.20182939E+00  0.61643715E+00
  0.95192269E+00  0.36072933E+00  0.63162352E+00
  0.96421759E+00  0.47505107E+00  0.16025132E+00
  0.22025279E+00  0.41722359E+00  0.94786004E-01
  0.85069631E+00  0.94898508E+00  0.30599390E+00
  0.81183390E+00  0.60083515E+00  0.74939571E+00
  0.27857867E-01  0.88682132E+00  0.85534440E-01
  0.74709418E+00  0.63955474E+00  0.78313531E+00
  0.70610442E+00  0.75055888E+00  0.34148086E+00
  0.22653712E+00  0.58697942E+00  0.57645242E+00
  0.89475238E-01  0.84415218E+00  0.12599071E+00
  0.79167267E+00  0.65170417E+00  0.51674930E+00
  0.12834425E+00  0.83653195E+00  0.91773464E+00
  0.14393455E+00  0.88410017E+00  0.77475006E-01
  0.69240381E+00  0.66253077E+00  0.43245159E+00
  0.69155001E+00  0.51394879E+00  0.33407653E+00
  0.72740279E+00  0.69842889E+00  0.56695024E+00
  0.86054013E+00  0.21285488E+00  0.10006725E-02
  0.81531946E+00  0.58544236E+00  0.18500069E+00
  0.42358192E+00  0.85649397E+00  0.92121434E+00
  0.81301429E+00  0.21522422E-01  0.20662032E+00
  0.39829422E+00  0.86915916E-01  0.99868193E-01
  0.83182404E+00  0.68683663E+00  0.65430788E+00
  0.30510040E+00  0.97448641E+00  0.19880945E+00
  0.15540158E+00  0.44655854E+00  0.12637383E+00
  0.23951020E+00  0.38834747E+00  0.92877754E+00
  0.98373659E+00  0.60366370E+00  0.47574604E+00
  0.83114149E+00  0.92106873E-01  0.89456038E+00
  0.37521545E+00  0.16512334E+00  0.24396372E+00
  0.38492822E+00  0.94858839E+00  0.61080368E-01
  0.44176020E+00  0.50690764E+00  0.74441705E+00
  0.97026886E-01  0.20867961E+00  0.75944551E+00
  0.78671490E+00  0.33391645E+00  0.86657293E+00
  0.99803091E+00  0.39056162E+00  0.26210005E+00
  0.50331881E+00  0.75647905E+00  0.45592530E+00
  0.13614070E+00  0.30351235E+00  0.88574226E+00
  0.40504888E+00  0.88704818E+00  0.79248414E+00
  0.56084346E+00  0.73063293E+00  0.37556775E+00
  0.48669043E+00  0.85123609E+00  0.94479970E+00
  0.31449658E+00  0.12107773E+00  0.26836910E+00
  0.58252152E+00  0.26842419E+00  0.65383505E-01
  0.96920064E+00  0.16717792E-01  0.72324475E+00
  0.74554748E+00  0.23095754E+00  0.87623478E+00
  0.58247457E+00  0.11663444E+00  0.22008865E-02
  0.59601727E+00  0.84717483E+00  0.37386537E+00
  0.52802680E+00  0.31763011E+00  0.14899962E+00
  0.65036745E+00  0.86128949E+00  0.15127073E+00
  0.53308815E+00  0.74316225E+00  0.86949492E+00
  0.59647073E+00  0.88559795E+00  0.71043045E-01
  0.58412201E+00  0.41374585E-01  0.11228861E+00
  0.53939428E+00  0.11658798E+00  0.23813266E+00
  0.64506258E+00  0.77783238E+00  0.26035413E+00
  0.59478089E+00  0.79226199E+00  0.91492354E+00
  0.78580630E+00  0.16146786E+00  0.30918866E+00
  0.53262300E+00  0.26922538E+00  0.27771080E+00
  0.74031685E+00  0.13683270E+00  0.39581677E+00
  0.91730329E+00  0.16104754E+00  0.42790072E+00
  0.19535486E+00  0.29081815E+00  0.82816587E+00
  0.24826213E+00  0.76773292E+00  0.48604193E+00
  0.55982439E+00  0.96789244E+00  0.60915014E+00
  0.80054245E+00  0.46479275E+00  0.10827042E+00
  0.31255714E+00  0.69150328E+00  0.45025103E+00
  0.99923149E+00  0.76916763E-01  0.85124894E+00
  0.49674541E+00  0.91409227E+00  0.53192210E+00
  0.61220821E+00  0.94914955E+00  0.52063106E+00
  0.33375557E+00  0.58976762E+00  0.51853148E+00
  0.87313501E+00  0.39709863E+00  0.95149801E+00
  0.48814964E+00  0.86890025E+00  0.65722390E-01
  0.19425576E+00  0.52135315E+00  0.59346025E+00
  0.90114071E+00  0.18642987E+00  0.32166071E+00
  0.71806177E+00  0.22405446E+00  0.46770268E+00
  0.81639957E-01  0.82596057E+00  0.73590928E+00
  0.76529253E+00  0.24260755E+00  0.25938140E+00
  0.76752676E+00  0.40537150E+00  0.13986355E+00
  0.96495257E+00  0.91035106E+00  0.71386332E+00
  0.91212696E+00  0.22376833E+00  0.99402060E+00
  0.81681874E+00  0.21904734E+00  0.39096935E+00
  0.75516329E+00  0.74881164E+00  0.87784889E+00
  0.81140720E+00  0.48705254E+00  0.66487504E+00
  0.29705662E+00  0.48887337E+00  0.65064709E+00
  0.24663522E-01  0.45920495E-02  0.14071844E+00
  0.71820436E+00  0.81610915E+00  0.60339067E+00
  0.97244010E+00  0.48705972E-01  0.93762969E+00
  0.37826243E+00  0.57033804E+00  0.52994959E+00
  0.99154316E+00  0.76757554E+00  0.84651813E+00
  0.78703797E+00  0.54392880E+00  0.44836807E+00
  0.72531558E+00  0.57967218E+00  0.83813263E+00
  0.47761172E-01  0.27117823E+00  0.79511749E+00
  0.20326674E-02  0.85375000E+00  0.15389816E+00
  0.16140290E+00  0.69186488E+00  0.48420892E+00
  0.24710360E+00  0.83580836E+00  0.62389583E+00
  0.87616930E-01  0.99856763E+00  0.65376137E+00
  0.37824733E+00  0.28240091E+00  0.27923371E+00
  0.12879492E+00  0.71375160E+00  0.87902158E+00
  0.93909816E+00  0.47347455E+00  0.68324579E+00
  0.99040722E+00  0.19140993E+00  0.89937195E+00
  0.99079804E+00  0.41156010E-01  0.63077384E+00
  0.86619828E+00  0.26124092E+00  0.62378333E+00
  0.90767147E+00  0.97340495E+00  0.47056214E+00
  0.29496979E-01  0.73761817E-01  0.53265570E+00
  0.30425994E-01  0.45959553E+00  0.58219305E+00
  0.14640480E+00  0.53815709E-01  0.78960099E+00
  0.19415767E+00  0.31562017E+00  0.73160891E+00
  0.83942993E+00  0.57125652E-01  0.15243110E+00
  0.70693775E+00  0.71927396E-01  0.33684220E+00
  0.72409668E+00  0.18309035E+00  0.76242987E+00
  0.40985280E+00  0.89273560E+00  0.12657057E+00
  0.59442213E+00  0.68909126E+00  0.43037364E+00
  0.76460994E+00  0.10562672E+00  0.47646265E+00
  0.12082638E+00  0.40665918E+00  0.89200961E+00
  0.28182450E+00  0.40156668E+00  0.45785492E+00
  0.71990933E+00  0.84410964E+00  0.39810135E+00
  0.75905448E+00  0.41120558E+00  0.84545116E+00
  0.45049349E+00  0.92507287E-01  0.10325726E+00
  0.80995620E+00  0.69991212E+00  0.45677848E+00
  0.82531311E+00  0.86800498E-01  0.77608001E+00
  0.73986995E-01  0.95557790E-01  0.95879409E+00
  0.81256376E+00  0.32978075E+00  0.77671411E+00
  0.81757227E+00  0.80592135E+00  0.72045388E+00
  0.83869580E+00  0.61384601E+00  0.84387382E+00
  0.31184717E+00  0.15014118E+00  0.39323600E+00
  0.77673842E+00  0.96057202E+00  0.13450405E+00
  0.86108596E+00  0.70218133E-02  0.89606355E+00
  0.92242353E+00  0.35691966E-01  0.71127183E+00
  0.88112679E+00  0.67401239E+00  0.64050234E+00
  0.33476469E+00  0.92424567E+00  0.26578796E+00
  0.61093448E+00  0.87218191E+00  0.88469955E+00
  0.86268353E+00  0.22690063E+00  0.12841735E+00
  0.50540492E+00  0.72204968E+00  0.54874765E+00
  0.43718546E+00  0.95891250E+00  0.78346131E+00
  0.56366277E+00  0.75168581E-01  0.68064421E+00
  0.28276807E+00  0.32741601E+00  0.90222788E+00
  0.38456712E+00  0.12451957E+00  0.25940712E-01
  0.50557170E+00  0.96462699E+00  0.44939422E+00
  0.49889973E+00  0.95007568E+00  0.95354563E+00
  0.21151393E+00  0.18964329E+00  0.80890413E+00
  0.12356549E+00  0.23620106E+00  0.57416326E-01
  0.40857715E-01  0.41258423E+00  0.25951406E+00
  0.49484991E+00  0.49194780E+00  0.54311261E+00
  0.12465346E+00  0.28785406E+00  0.59505550E+00
  0.17255543E-01  0.17882189E+00  0.35196037E+00
  0.30897117E+00  0.65330614E+00  0.32715964E+00
  0.52018515E+00  0.31395974E+00  0.72521242E+00
  0.41374484E+00  0.60756709E+00  0.76064520E+00
  0.45082907E+00  0.62260771E+00  0.98311692E+00
  0.58541116E+00  0.55522097E+00  0.71587624E+00
  0.45151210E+00  0.37095527E+00  0.53848882E+00
  0.56032671E+00  0.30878536E+00  0.58464858E+00
  0.55517820E+00  0.62353311E+00  0.98049204E+00
  0.56564774E+00  0.64135554E+00  0.27813971E+00
  0.47463484E+00  0.46150819E+00  0.93134193E+00
  0.36695980E+00  0.94874114E+00  0.81519598E+00
  0.57767538E+00  0.91206291E+00  0.32570580E+00
  0.69034146E+00  0.80884121E+00  0.75167678E-01
  0.57383195E+00  0.31145790E+00  0.33917526E+00
  0.52406889E+00  0.70641071E+00  0.76600702E+00
  0.55512810E+00  0.10315912E+00  0.33560722E+00
  0.62294904E+00  0.28401040E+00  0.13871314E+00
  0.67029267E+00  0.95851386E+00  0.21034335E+00
  0.52598757E+00  0.43986019E+00  0.19200885E+00
  0.49967524E+00  0.58504818E-01  0.23417164E+00
  0.62595852E+00  0.77149200E-01  0.15172151E+00
  0.60293817E+00  0.32450357E+00  0.22694770E-02
  0.56740787E+00  0.84519720E+00  0.12550600E+00
  0.50506449E+00  0.29343783E+00  0.35896035E+00
  0.54042819E+00  0.81217503E-01  0.93896176E+00
  0.48363141E+00  0.31674779E+00  0.10068039E+00
  0.61699924E+00  0.67117159E-01  0.93038891E+00
  0.62993176E+00  0.70575704E+00  0.86244575E+00
  0.63125508E+00  0.46049878E-01  0.52122030E+00
  0.62340416E+00  0.68089048E+00  0.20449802E+00
  0.60981973E+00  0.46318517E+00  0.79019115E+00
  0.40405547E+00  0.80952386E+00  0.69058050E+00
  0.47072374E+00  0.71321131E+00  0.37562776E+00
  0.82046541E+00  0.93094757E+00  0.37879628E+00
  0.23342439E+00  0.65193240E+00  0.68270171E+00
  0.98749927E+00  0.27928814E+00  0.22013839E+00
  0.34535689E+00  0.77899277E+00  0.46954341E+00
  0.46761560E+00  0.96048894E+00  0.61639355E+00
  0.64635071E+00  0.88543754E+00  0.55982259E+00
  0.28674733E+00  0.18613861E+00  0.22295208E+00
  0.73821476E-01  0.35214426E+00  0.24520427E-01
  0.70977235E+00  0.29411862E+00  0.94492107E+00
  0.69349248E+00  0.52204593E+00  0.22652614E+00
  0.86406547E+00  0.58167516E+00  0.18795122E+00
  0.24110822E+00  0.49572407E+00  0.92623069E+00
  0.79435264E+00  0.64509549E+00  0.27500241E+00
  0.89233060E-01  0.73821216E+00  0.10697012E+00
  0.15908809E+00  0.98740675E+00  0.11187467E+00
  0.87470130E-01  0.88226206E+00  0.24865025E+00
  0.71168855E+00  0.43627241E+00  0.37750574E+00
  0.17686613E+00  0.82869186E+00  0.11983483E+00
  0.65752965E+00  0.68161018E+00  0.69703072E+00
  0.15919553E+00  0.86762567E+00  0.85306513E+00
  0.73871055E+00  0.70496536E+00  0.25958470E+00
  0.64799992E+00  0.47627599E+00  0.33404161E+00
  0.21274645E+00  0.58971161E+00  0.36033163E+00
  0.23122528E+00  0.83870257E+00  0.44224677E+00
  0.69252577E+00  0.53466993E+00  0.64491896E+00
  0.74463162E+00  0.15405796E+00  0.35133578E-01
  0.14103836E+00  0.11468121E+00  0.58432568E+00
  0.85148246E+00  0.84544131E+00  0.23095339E+00
  0.98224381E+00  0.45969435E+00  0.39195083E-01
  0.78550436E-01  0.27043700E+00  0.40353228E+00
  0.41424442E+00  0.41955894E+00  0.73226230E+00
  0.99160073E+00  0.33312097E+00  0.70120265E+00
  0.92695980E+00  0.72822929E+00  0.40741097E+00
  0.95251967E+00  0.68548117E+00  0.18432276E+00
  0.23839191E+00  0.31254985E+00  0.94612418E-01
  0.25661731E+00  0.93753337E+00  0.21476149E+00
  0.92134751E+00  0.42730288E+00  0.14795826E+00
  0.41060043E+00  0.75277933E+00  0.92855109E+00
  0.44698635E-02  0.78386727E+00  0.40744497E+00
  0.13996971E+00  0.43469412E+00  0.23185623E+00
  0.97275305E+00  0.64396662E+00  0.59638975E+00
  0.57053717E+00  0.91035453E+00  0.67412589E+00
  0.32562942E-01  0.61004118E+00  0.18310467E+00
  0.30439071E+00  0.11589312E-01  0.99905774E+00
  0.30611819E+00  0.84777365E+00  0.96345681E+00
  0.14235649E+00  0.55230759E+00  0.11319637E+00
  0.24589855E+00  0.51031252E+00  0.15556755E+00
  0.74127706E+00  0.27608061E-01  0.84906507E+00
  0.93430457E+00  0.93884307E+00  0.30514684E+00
  0.92387332E+00  0.40521926E+00  0.39914201E+00
  0.29039557E-01  0.60062958E+00  0.47991876E+00
  0.40537461E+00  0.13057478E+00  0.31717458E+00
  0.00000000E+00  0.00000000E+00  0.00000000E+00
  0.00000000E+00  0.00000000E+00  0.00000000E+00
  0.00000000E+00  0.00000000E+00  0.00000000E+00
  0.00000000E+00  0.00000000E+00  0.00000000E+00
  0.00000000E+00  0.00000000E+00  0.00000000E+00
  0.00000000E+00  0.00000000E+00  0.00000000E+00
  0.00000000E+00  0.00000000E+00  0.00000000E+00
  0.00000000E+00  0.00000000E+00  0.00000000E+00
  0.00000000E+00  0.00000000E+00  0.00000000E+00
  0.00000000E+00  0.00000000E+00  0.00000000E+00
  0.00000000E+00  0.00000000E+00  0.00000000E+00
  0.00000000E+00  0.00000000E+00  0.00000000E+00
  0.00000000E+00  0.00000000E+00  0.00000000E+00
  0.00000000E+00  0.00000000E+00  0.00000000E+00
  0.00000000E+00  0.00000000E+00  0.00000000E+00
  0.00000000E+00  0.00000000E+00  0.00000000E+00
  0.00000000E+00  0.00000000E+00  0.00000000E+00
  0.00000000E+00  0.00000000E+00  0.00000000E+00
  0.00000000E+00  0.00000000E+00  0.00000000E+00
  0.00000000E+00  0.00000000E+00  0.00000000E+00
  0.00000000E+00  0.00000000E+00  0.00000000E+00
  0.00000000E+00  0.00000000E+00  0.00000000E+00
  0.00000000E+00  0.00000000E+00  0.00000000E+00
  0.00000000E+00  0.00000000E+00  0.00000000E+00
  0.00000000E+00  0.00000000E+00  0.00000000E+00
  0.00000000E+00  0.00000000E+00  0.00000000E+00
  0.00000000E+00  0.00000000E+00  0.00000000E+00
  0.00000000E+00  0.00000000E+00  0.00000000E+00
  0.00000000E+00  0.00000000E+00  0.00000000E+00
  0.00000000E+00  0.00000000E+00  0.00000000E+00
  0.00000000E+00  0.00000000E+00  0.00000000E+00
  0.00000000E+00  0.00000000E+00  0.00000000E+00
  0.00000000E+00  0.00000000E+00  0.00000000E+00
  0.00000000E+00  0.00000000E+00  0.00000000E+00
  0.00000000E+00  0.00000000E+00  0.00000000E+00
  0.00000000E+00  0.00000000E+00  0.00000000E+00
  0.00000000E+00  0.00000000E+00  0.00000000E+00
  0.00000000E+00  0.00000000E+00  0.00000000E+00
  0.00000000E+00  0.00000000E+00  0.00000000E+00
  0.00000000E+00  0.00000000E+00  0.00000000E+00
  0.00000000E+00  0.00000000E+00  0.00000000E+00
  0.00000000E+00  0.00000000E+00  0.00000000E+00
  0.00000000E+00  0.00000000E+00  0.00000000E+00
  0.00000000E+00  0.00000000E+00  0.00000000E+00
  0.00000000E+00  0.00000000E+00  0.00000000E+00
  0.00000000E+00  0.00000000E+00  0.00000000E+00
  0.00000000E+00  0.00000000E+00  0.00000000E+00
  0.00000000E+00  0.00000000E+00  0.00000000E+00
  0.00000000E+00  0.00000000E+00  0.00000000E+00
  0.00000000E+00  0.00000000E+00  0.00000000E+00
  0.00000000E+00  0.00000000E+00  0.00000000E+00
  0.00000000E+00  0.00000000E+00  0.00000000E+00
  0.00000000E+00  0.00000000E+00  0.00000000E+00
  0.00000000E+00  0.00000000E+00  0.00000000E+00
  0.00000000E+00  0.00000000E+00  0.00000000E+00
  0.00000000E+00  0.00000000E+00  0.00000000E+00
  0.00000000E+00  0.00000000E+00  0.00000000E+00
  0.00000000E+00  0.00000000E+00  0.00000000E+00
  0.00000000E+00  0.00000000E+00  0.00000000E+00
  0.00000000E+00  0.00000000E+00  0.00000000E+00
  0.00000000E+00  0.00000000E+00  0.00000000E+00
  0.00000000E+00  0.00000000E+00  0.00000000E+00
  0.00000000E+00  0.00000000E+00  0.00000000E+00
  0.00000000E+00  0.00000000E+00  0.00000000E+00
  0.00000000E+00  0.00000000E+00  0.00000000E+00
  0.00000000E+00  0.00000000E+00  0.00000000E+00
  0.00000000E+00  0.00000000E+00  0.00000000E+00
  0.00000000E+00  0.00000000E+00  0.00000000E+00
  0.00000000E+00  0.00000000E+00  0.00000000E+00
  0.00000000E+00  0.00000000E+00  0.00000000E+00
  0.00000000E+00  0.00000000E+00  0.00000000E+00
  0.00000000E+00  0.00000000E+00  0.00000000E+00
  0.00000000E+00  0.00000000E+00  0.00000000E+00
  0.00000000E+00  0.00000000E+00  0.00000000E+00
  0.00000000E+00  0.00000000E+00  0.00000000E+00
  0.00000000E+00  0.00000000E+00  0.00000000E+00
  0.00000000E+00  0.00000000E+00  0.00000000E+00
  0.00000000E+00  0.00000000E+00  0.00000000E+00
  0.00000000E+00  0.00000000E+00  0.00000000E+00
  0.00000000E+00  0.00000000E+00  0.00000000E+00
  0.00000000E+00  0.00000000E+00  0.00000000E+00
  0.00000000E+00  0.00000000E+00  0.00000000E+00
  0.00000000E+00  0.00000000E+00  0.00000000E+00
  0.00000000E+00  0.00000000E+00  0.00000000E+00
  0.00000000E+00  0.00000000E+00  0.00000000E+00
  0.00000000E+00  0.00000000E+00  0.00000000E+00
  0.00000000E+00  0.00000000E+00  0.00000000E+00
  0.00000000E+00  0.00000000E+00  0.00000000E+00
  0.00000000E+00  0.00000000E+00  0.00000000E+00
  0.00000000E+00  0.00000000E+00  0.00000000E+00
  0.00000000E+00  0.00000000E+00  0.00000000E+00
  0.00000000E+00  0.00000000E+00  0.00000000E+00
  0.00000000E+00  0.00000000E+00  0.00000000E+00
  0.00000000E+00  0.00000000E+00  0.00000000E+00
  0.00000000E+00  0.00000000E+00  0.00000000E+00
  0.00000000E+00  0.00000000E+00  0.00000000E+00
  0.00000000E+00  0.00000000E+00  0.00000000E+00
  0.00000000E+00  0.00000000E+00  0.00000000E+00
  0.00000000E+00  0.00000000E+00  0.00000000E+00
  0.00000000E+00  0.00000000E+00  0.00000000E+00
  0.00000000E+00  0.00000000E+00  0.00000000E+00
  0.00000000E+00  0.00000000E+00  0.00000000E+00
  0.00000000E+00  0.00000000E+00  0.00000000E+00
  0.00000000E+00  0.00000000E+00  0.00000000E+00
  0.00000000E+00  0.00000000E+00  0.00000000E+00
  0.00000000E+00  0.00000000E+00  0.00000000E+00
  0.00000000E+00  0.00000000E+00  0.00000000E+00
  0.00000000E+00  0.00000000E+00  0.00000000E+00
  0.00000000E+00  0.00000000E+00  0.00000000E+00
  0.00000000E+00  0.00000000E+00  0.00000000E+00
  0.00000000E+00  0.00000000E+00  0.00000000E+00
  0.00000000E+00  0.00000000E+00  0.00000000E+00
  0.00000000E+00  0.00000000E+00  0.00000000E+00
  0.00000000E+00  0.00000000E+00  0.00000000E+00
  0.00000000E+00  0.00000000E+00  0.00000000E+00
  0.00000000E+00  0.00000000E+00  0.00000000E+00
  0.00000000E+00  0.00000000E+00  0.00000000E+00
  0.00000000E+00  0.00000000E+00  0.00000000E+00
  0.00000000E+00  0.00000000E+00  0.00000000E+00
  0.00000000E+00  0.00000000E+00  0.00000000E+00
  0.00000000E+00  0.00000000E+00  0.00000000E+00
  0.00000000E+00  0.00000000E+00  0.00000000E+00
  0.00000000E+00  0.00000000E+00  0.00000000E+00
  0.00000000E+00  0.00000000E+00  0.00000000E+00
  0.00000000E+00  0.00000000E+00  0.00000000E+00
  0.00000000E+00  0.00000000E+00  0.00000000E+00
  0.00000000E+00  0.00000000E+00  0.00000000E+00
  0.00000000E+00  0.00000000E+00  0.00000000E+00
  0.00000000E+00  0.00000000E+00  0.00000000E+00
  0.00000000E+00  0.00000000E+00  0.00000000E+00
  0.00000000E+00  0.00000000E+00  0.00000000E+00
  0.00000000E+00  0.00000000E+00  0.00000000E+00
  0.00000000E+00  0.00000000E+00  0.00000000E+00
  0.00000000E+00  0.00000000E+00  0.00000000E+00
  0.00000000E+00  0.00000000E+00  0.00000000E+00
  0.00000000E+00  0.00000000E+00  0.00000000E+00
  0.00000000E+00  0.00000000E+00  0.00000000E+00
  0.00000000E+00  0.00000000E+00  0.00000000E+00
  0.00000000E+00  0.00000000E+00  0.00000000E+00
  0.00000000E+00  0.00000000E+00  0.00000000E+00
  0.00000000E+00  0.00000000E+00  0.00000000E+00
  0.00000000E+00  0.00000000E+00  0.00000000E+00
  0.00000000E+00  0.00000000E+00  0.00000000E+00
  0.00000000E+00  0.00000000E+00  0.00000000E+00
  0.00000000E+00  0.00000000E+00  0.00000000E+00
  0.00000000E+00  0.00000000E+00  0.00000000E+00
  0.00000000E+00  0.00000000E+00  0.00000000E+00
  0.00000000E+00  0.00000000E+00  0.00000000E+00
  0.00000000E+00  0.00000000E+00  0.00000000E+00
  0.00000000E+00  0.00000000E+00  0.00000000E+00
  0.00000000E+00  0.00000000E+00  0.00000000E+00
  0.00000000E+00  0.00000000E+00  0.00000000E+00
  0.00000000E+00  0.00000000E+00  0.00000000E+00
  0.00000000E+00  0.00000000E+00  0.00000000E+00
  0.00000000E+00  0.00000000E+00  0.00000000E+00
  0.00000000E+00  0.00000000E+00  0.00000000E+00
  0.00000000E+00  0.00000000E+00  0.00000000E+00
  0.00000000E+00  0.00000000E+00  0.00000000E+00
  0.00000000E+00  0.00000000E+00  0.00000000E+00
  0.00000000E+00  0.00000000E+00  0.00000000E+00
  0.00000000E+00  0.00000000E+00  0.00000000E+00
  0.00000000E+00  0.00000000E+00  0.00000000E+00
  0.00000000E+00  0.00000000E+00  0.00000000E+00
  0.00000000E+00  0.00000000E+00  0.00000000E+00
  0.00000000E+00  0.00000000E+00  0.00000000E+00
  0.00000000E+00  0.00000000E+00  0.00000000E+00
  0.00000000E+00  0.00000000E+00  0.00000000E+00
  0.00000000E+00  0.00000000E+00  0.00000000E+00
  0.00000000E+00  0.00000000E+00  0.00000000E+00
  0.00000000E+00  0.00000000E+00  0.00000000E+00
  0.00000000E+00  0.00000000E+00  0.00000000E+00
  0.00000000E+00  0.00000000E+00  0.00000000E+00
  0.00000000E+00  0.00000000E+00  0.00000000E+00
  0.00000000E+00  0.00000000E+00  0.00000000E+00
  0.00000000E+00  0.00000000E+00  0.00000000E+00
  0.00000000E+00  0.00000000E+00  0.00000000E+00
  0.00000000E+00  0.00000000E+00  0.00000000E+00
  0.00000000E+00  0.00000000E+00  0.00000000E+00
  0.00000000E+00  0.00000000E+00  0.00000000E+00
  0.00000000E+00  0.00000000E+00  0.00000000E+00
  0.00000000E+00  0.00000000E+00  0.00000000E+00
  0.00000000E+00  0.00000000E+00  0.00000000E+00
  0.00000000E+00  0.00000000E+00  0.00000000E+00
  0.00000000E+00  0.00000000E+00  0.00000000E+00
  0.00000000E+00  0.00000000E+00  0.00000000E+00
  0.00000000E+00  0.00000000E+00  0.00000000E+00
  0.00000000E+00  0.00000000E+00  0.00000000E+00
  0.00000000E+00  0.00000000E+00  0.00000000E+00
  0.00000000E+00  0.00000000E+00  0.00000000E+00
  0.00000000E+00  0.00000000E+00  0.00000000E+00
  0.00000000E+00  0.00000000E+00  0.00000000E+00
  0.00000000E+00  0.00000000E+00  0.00000000E+00
  0.00000000E+00  0.00000000E+00  0.00000000E+00
  0.00000000E+00  0.00000000E+00  0.00000000E+00
  0.00000000E+00  0.00000000E+00  0.00000000E+00
  0.00000000E+00  0.00000000E+00  0.00000000E+00
  0.00000000E+00  0.00000000E+00  0.00000000E+00
  0.00000000E+00  0.00000000E+00  0.00000000E+00
  0.00000000E+00  0.00000000E+00  0.00000000E+00
  0.00000000E+00  0.00000000E+00  0.00000000E+00
  0.00000000E+00  0.00000000E+00  0.00000000E+00
  0.00000000E+00  0.00000000E+00  0.00000000E+00
  0.00000000E+00  0.00000000E+00  0.00000000E+00
  0.00000000E+00  0.00000000E+00  0.00000000E+00
  0.00000000E+00  0.00000000E+00  0.00000000E+00
  0.00000000E+00  0.00000000E+00  0.00000000E+00
  0.00000000E+00  0.00000000E+00  0.00000000E+00
  0.00000000E+00  0.00000000E+00  0.00000000E+00
  0.00000000E+00  0.00000000E+00  0.00000000E+00
  0.00000000E+00  0.00000000E+00  0.00000000E+00
  0.00000000E+00  0.00000000E+00  0.00000000E+00
  0.00000000E+00  0.00000000E+00  0.00000000E+00
  0.00000000E+00  0.00000000E+00  0.00000000E+00
  0.00000000E+00  0.00000000E+00  0.00000000E+00
  0.00000000E+00  0.00000000E+00  0.00000000E+00
  0.00000000E+00  0.00000000E+00  0.00000000E+00
  0.00000000E+00  0.00000000E+00  0.00000000E+00
  0.00000000E+00  0.00000000E+00  0.00000000E+00
  0.00000000E+00  0.00000000E+00  0.00000000E+00
  0.00000000E+00  0.00000000E+00  0.00000000E+00
  0.00000000E+00  0.00000000E+00  0.00000000E+00
  0.00000000E+00  0.00000000E+00  0.00000000E+00
  0.00000000E+00  0.00000000E+00  0.00000000E+00
  0.00000000E+00  0.00000000E+00  0.00000000E+00
  0.00000000E+00  0.00000000E+00  0.00000000E+00
  0.00000000E+00  0.00000000E+00  0.00000000E+00
  0.00000000E+00  0.00000000E+00  0.00000000E+00
  0.00000000E+00  0.00000000E+00  0.00000000E+00
  0.00000000E+00  0.00000000E+00  0.00000000E+00
  0.00000000E+00  0.00000000E+00  0.00000000E+00
  0.00000000E+00  0.00000000E+00  0.00000000E+00
  0.00000000E+00  0.00000000E+00  0.00000000E+00
  0.00000000E+00  0.00000000E+00  0.00000000E+00
  0.00000000E+00  0.00000000E+00  0.00000000E+00
  0.00000000E+00  0.00000000E+00  0.00000000E+00
  0.00000000E+00  0.00000000E+00  0.00000000E+00
  0.00000000E+00  0.00000000E+00  0.00000000E+00
  0.00000000E+00  0.00000000E+00  0.00000000E+00
  0.00000000E+00  0.00000000E+00  0.00000000E+00
  0.00000000E+00  0.00000000E+00  0.00000000E+00
  0.00000000E+00  0.00000000E+00  0.00000000E+00
  0.00000000E+00  0.00000000E+00  0.00000000E+00
  0.00000000E+00  0.00000000E+00  0.00000000E+00
  0.00000000E+00  0.00000000E+00  0.00000000E+00
  0.00000000E+00  0.00000000E+00  0.00000000E+00
  0.00000000E+00  0.00000000E+00  0.00000000E+00
  0.00000000E+00  0.00000000E+00  0.00000000E+00
  0.00000000E+00  0.00000000E+00  0.00000000E+00
  0.00000000E+00  0.00000000E+00  0.00000000E+00
  0.00000000E+00  0.00000000E+00  0.00000000E+00
  0.00000000E+00  0.00000000E+00  0.00000000E+00
  0.00000000E+00  0.00000000E+00  0.00000000E+00
  0.00000000E+00  0.00000000E+00  0.00000000E+00
  0.00000000E+00  0.00000000E+00  0.00000000E+00
  0.00000000E+00  0.00000000E+00  0.00000000E+00
  0.00000000E+00  0.00000000E+00  0.00000000E+00
  0.00000000E+00  0.00000000E+00  0.00000000E+00
  0.00000000E+00  0.00000000E+00  0.00000000E+00
  0.00000000E+00  0.00000000E+00  0.00000000E+00
  0.00000000E+00  0.00000000E+00  0.00000000E+00
  0.00000000E+00  0.00000000E+00  0.00000000E+00
  0.00000000E+00  0.00000000E+00  0.00000000E+00
  0.00000000E+00  0.00000000E+00  0.00000000E+00
  0.00000000E+00  0.00000000E+00  0.00000000E+00
  0.00000000E+00  0.00000000E+00  0.00000000E+00
  0.00000000E+00  0.00000000E+00  0.00000000E+00
  0.00000000E+00  0.00000000E+00  0.00000000E+00
  0.00000000E+00  0.00000000E+00  0.00000000E+00
  0.00000000E+00  0.00000000E+00  0.00000000E+00
  0.00000000E+00  0.00000000E+00  0.00000000E+00
  0.00000000E+00  0.00000000E+00  0.00000000E+00
  0.00000000E+00  0.00000000E+00  0.00000000E+00
  0.00000000E+00  0.00000000E+00  0.00000000E+00
  0.00000000E+00  0.00000000E+00  0.00000000E+00
  0.00000000E+00  0.00000000E+00  0.00000000E+00
  0.00000000E+00  0.00000000E+00  0.00000000E+00
  0.00000000E+00  0.00000000E+00  0.00000000E+00
  0.00000000E+00  0.00000000E+00  0.00000000E+00
  0.00000000E+00  0.00000000E+00  0.00000000E+00
  0.00000000E+00  0.00000000E+00  0.00000000E+00
  0.00000000E+00  0.00000000E+00  0.00000000E+00
  0.00000000E+00  0.00000000E+00  0.00000000E+00
  0.00000000E+00  0.00000000E+00  0.00000000E+00
  0.00000000E+00  0.00000000E+00  0.00000000E+00
  0.00000000E+00  0.00000000E+00  0.00000000E+00
  0.00000000E+00  0.00000000E+00  0.00000000E+00
  0.00000000E+00  0.00000000E+00  0.00000000E+00
  0.00000000E+00  0.00000000E+00  0.00000000E+00
  0.00000000E+00  0.00000000E+00  0.00000000E+00
  0.00000000E+00  0.00000000E+00  0.00000000E+00
  0.00000000E+00  0.00000000E+00  0.00000000E+00
  0.00000000E+00  0.00000000E+00  0.00000000E+00
  0.00000000E+00  0.00000000E+00  0.00000000E+00
  0.00000000E+00  0.00000000E+00  0.00000000E+00
  0.00000000E+00  0.00000000E+00  0.00000000E+00
  0.00000000E+00  0.00000000E+00  0.00000000E+00
  0.00000000E+00  0.00000000E+00  0.00000000E+00
  0.00000000E+00  0.00000000E+00  0.00000000E+00
  0.00000000E+00  0.00000000E+00  0.00000000E+00
  0.00000000E+00  0.00000000E+00  0.00000000E+00
  0.00000000E+00  0.00000000E+00  0.00000000E+00
  0.00000000E+00  0.00000000E+00  0.00000000E+00
  0.00000000E+00  0.00000000E+00  0.00000000E+00
  0.00000000E+00  0.00000000E+00  0.00000000E+00
  0.00000000E+00  0.00000000E+00  0.00000000E+00
  0.00000000E+00  0.00000000E+00  0.00000000E+00
  0.00000000E+00  0.00000000E+00  0.00000000E+00
  0.00000000E+00  0.00000000E+00  0.00000000E+00
  0.00000000E+00  0.00000000E+00  0.00000000E+00
  0.00000000E+00  0.00000000E+00  0.00000000E+00
  0.00000000E+00  0.00000000E+00  0.00000000E+00
  0.00000000E+00  0.00000000E+00  0.00000000E+00
  0.00000000E+00  0.00000000E+00  0.00000000E+00
  0.00000000E+00  0.00000000E+00  0.00000000E+00
  0.00000000E+00  0.00000000E+00  0.00000000E+00
  0.00000000E+00  0.00000000E+00  0.00000000E+00
  0.00000000E+00  0.00000000E+00  0.00000000E+00
  0.00000000E+00  0.00000000E+00  0.00000000E+00
  0.00000000E+00  0.00000000E+00  0.00000000E+00
  0.00000000E+00  0.00000000E+00  0.00000000E+00
  0.00000000E+00  0.00000000E+00  0.00000000E+00
  0.00000000E+00  0.00000000E+00  0.00000000E+00
  0.00000000E+00  0.00000000E+00  0.00000000E+00
  0.00000000E+00  0.00000000E+00  0.00000000E+00
  0.00000000E+00  0.00000000E+00  0.00000000E+00
  0.00000000E+00  0.00000000E+00  0.00000000E+00
  0.00000000E+00  0.00000000E+00  0.00000000E+00
  0.00000000E+00  0.00000000E+00  0.00000000E+00
  0.00000000E+00  0.00000000E+00  0.00000000E+00
  0.00000000E+00  0.00000000E+00  0.00000000E+00
  0.00000000E+00  0.00000000E+00  0.00000000E+00
  0.00000000E+00  0.00000000E+00  0.00000000E+00
  0.00000000E+00  0.00000000E+00  0.00000000E+00
  0.00000000E+00  0.00000000E+00  0.00000000E+00
  0.00000000E+00  0.00000000E+00  0.00000000E+00
  0.00000000E+00  0.00000000E+00  0.00000000E+00
  0.00000000E+00  0.00000000E+00  0.00000000E+00
  0.00000000E+00  0.00000000E+00  0.00000000E+00
  0.00000000E+00  0.00000000E+00  0.00000000E+00
  0.00000000E+00  0.00000000E+00  0.00000000E+00
  0.00000000E+00  0.00000000E+00  0.00000000E+00
  0.00000000E+00  0.00000000E+00  0.00000000E+00
  0.00000000E+00  0.00000000E+00  0.00000000E+00
  0.00000000E+00  0.00000000E+00  0.00000000E+00
  0.00000000E+00  0.00000000E+00  0.00000000E+00
  0.00000000E+00  0.00000000E+00  0.00000000E+00
  0.00000000E+00  0.00000000E+00  0.00000000E+00
  0.00000000E+00  0.00000000E+00  0.00000000E+00
  0.00000000E+00  0.00000000E+00  0.00000000E+00
  0.00000000E+00  0.00000000E+00  0.00000000E+00
  0.00000000E+00  0.00000000E+00  0.00000000E+00
  0.00000000E+00  0.00000000E+00  0.00000000E+00
  0.00000000E+00  0.00000000E+00  0.00000000E+00
  0.00000000E+00  0.00000000E+00  0.00000000E+00
  0.00000000E+00  0.00000000E+00  0.00000000E+00
  0.00000000E+00  0.00000000E+00  0.00000000E+00
  0.00000000E+00  0.00000000E+00  0.00000000E+00
  0.00000000E+00  0.00000000E+00  0.00000000E+00
  0.00000000E+00  0.00000000E+00  0.00000000E+00
  0.00000000E+00  0.00000000E+00  0.00000000E+00
  0.00000000E+00  0.00000000E+00  0.00000000E+00
  0.00000000E+00  0.00000000E+00  0.00000000E+00
  0.00000000E+00  0.00000000E+00  0.00000000E+00
  0.00000000E+00  0.00000000E+00  0.00000000E+00
  0.00000000E+00  0.00000000E+00  0.00000000E+00
  0.00000000E+00  0.00000000E+00  0.00000000E+00
  0.00000000E+00  0.00000000E+00  0.00000000E+00
  0.00000000E+00  0.00000000E+00  0.00000000E+00
  0.00000000E+00  0.00000000E+00  0.00000000E+00
  0.00000000E+00  0.00000000E+00  0.00000000E+00
  0.00000000E+00  0.00000000E+00  0.00000000E+00
  0.00000000E+00  0.00000000E+00  0.00000000E+00
  0.00000000E+00  0.00000000E+00  0.00000000E+00
  0.00000000E+00  0.00000000E+00  0.00000000E+00
  0.00000000E+00  0.00000000E+00  0.00000000E+00
  0.00000000E+00  0.00000000E+00  0.00000000E+00
  0.00000000E+00  0.00000000E+00  0.00000000E+00
  0.00000000E+00  0.00000000E+00  0.00000000E+00
  0.00000000E+00  0.00000000E+00  0.00000000E+00
  0.00000000E+00  0.00000000E+00  0.00000000E+00
  0.00000000E+00  0.00000000E+00  0.00000000E+00
  0.00000000E+00  0.00000000E+00  0.00000000E+00
  0.00000000E+00  0.00000000E+00  0.00000000E+00
  0.00000000E+00  0.00000000E+00  0.00000000E+00
  0.00000000E+00  0.00000000E+00  0.00000000E+00
  0.00000000E+00  0.00000000E+00  0.00000000E+00
  0.00000000E+00  0.00000000E+00  0.00000000E+00
  0.00000000E+00  0.00000000E+00  0.00000000E+00
  0.00000000E+00  0.00000000E+00  0.00000000E+00
  0.00000000E+00  0.00000000E+00  0.00000000E+00
  0.00000000E+00  0.00000000E+00  0.00000000E+00
  0.00000000E+00  0.00000000E+00  0.00000000E+00
  0.00000000E+00  0.00000000E+00  0.00000000E+00
  0.00000000E+00  0.00000000E+00  0.00000000E+00
  0.00000000E+00  0.00000000E+00  0.00000000E+00
  0.00000000E+00  0.00000000E+00  0.00000000E+00
  0.00000000E+00  0.00000000E+00  0.00000000E+00
  0.00000000E+00  0.00000000E+00  0.00000000E+00
  0.00000000E+00  0.00000000E+00  0.00000000E+00
  0.00000000E+00  0.00000000E+00  0.00000000E+00
  0.00000000E+00  0.00000000E+00  0.00000000E+00
  0.00000000E+00  0.00000000E+00  0.00000000E+00
  0.00000000E+00  0.00000000E+00  0.00000000E+00
  0.00000000E+00  0.00000000E+00  0.00000000E+00
  0.00000000E+00  0.00000000E+00  0.00000000E+00
  0.00000000E+00  0.00000000E+00  0.00000000E+00
  0.00000000E+00  0.00000000E+00  0.00000000E+00
  0.00000000E+00  0.00000000E+00  0.00000000E+00
  0.00000000E+00  0.00000000E+00  0.00000000E+00
  0.00000000E+00  0.00000000E+00  0.00000000E+00
  0.00000000E+00  0.00000000E+00  0.00000000E+00
  0.00000000E+00  0.00000000E+00  0.00000000E+00
  0.00000000E+00  0.00000000E+00  0.00000000E+00
  0.00000000E+00  0.00000000E+00  0.00000000E+00
  0.00000000E+00  0.00000000E+00  0.00000000E+00
  0.00000000E+00  0.00000000E+00  0.00000000E+00
  0.00000000E+00  0.00000000E+00  0.00000000E+00
  0.00000000E+00  0.00000000E+00  0.00000000E+00
  0.00000000E+00  0.00000000E+00  0.00000000E+00
  0.00000000E+00  0.00000000E+00  0.00000000E+00
  0.00000000E+00  0.00000000E+00  0.00000000E+00
  0.00000000E+00  0.00000000E+00  0.00000000E+00
  0.00000000E+00  0.00000000E+00  0.00000000E+00
  0.00000000E+00  0.00000000E+00  0.00000000E+00
  0.00000000E+00  0.00000000E+00  0.00000000E+00
  0.00000000E+00  0.00000000E+00  0.00000000E+00
  0.00000000E+00  0.00000000E+00  0.00000000E+00
  0.00000000E+00  0.00000000E+00  0.00000000E+00
  0.00000000E+00  0.00000000E+00  0.00000000E+00
  0.00000000E+00  0.00000000E+00  0.00000000E+00
  0.00000000E+00  0.00000000E+00  0.00000000E+00
  0.00000000E+00  0.00000000E+00  0.00000000E+00
  0.00000000E+00  0.00000000E+00  0.00000000E+00
  0.00000000E+00  0.00000000E+00  0.00000000E+00
  0.00000000E+00  0.00000000E+00  0.00000000E+00
  0.00000000E+00  0.00000000E+00  0.00000000E+00
  0.00000000E+00  0.00000000E+00  0.00000000E+00
  0.00000000E+00  0.00000000E+00  0.00000000E+00
  0.00000000E+00  0.00000000E+00  0.00000000E+00
  0.00000000E+00  0.00000000E+00  0.00000000E+00
  0.00000000E+00  0.00000000E+00  0.00000000E+00
  0.00000000E+00  0.00000000E+00  0.00000000E+00
  0.00000000E+00  0.00000000E+00  0.00000000E+00
  0.00000000E+00  0.00000000E+00  0.00000000E+00
  0.00000000E+00  0.00000000E+00  0.00000000E+00
  0.00000000E+00  0.00000000E+00  0.00000000E+00
  0.00000000E+00  0.00000000E+00  0.00000000E+00
  0.00000000E+00  0.00000000E+00  0.00000000E+00
  0.00000000E+00  0.00000000E+00  0.00000000E+00
  0.00000000E+00  0.00000000E+00  0.00000000E+00
  0.00000000E+00  0.00000000E+00  0.00000000E+00
  0.00000000E+00  0.00000000E+00  0.00000000E+00
  0.00000000E+00  0.00000000E+00  0.00000000E+00
  0.00000000E+00  0.00000000E+00  0.00000000E+00
  0.00000000E+00  0.00000000E+00  0.00000000E+00
  0.00000000E+00  0.00000000E+00  0.00000000E+00
  0.00000000E+00  0.00000000E+00  0.00000000E+00
  0.00000000E+00  0.00000000E+00  0.00000000E+00
  0.00000000E+00  0.00000000E+00  0.00000000E+00
  0.00000000E+00  0.00000000E+00  0.00000000E+00
  0.00000000E+00  0.00000000E+00  0.00000000E+00
  0.00000000E+00  0.00000000E+00  0.00000000E+00
  0.00000000E+00  0.00000000E+00  0.00000000E+00
  0.00000000E+00  0.00000000E+00  0.00000000E+00
  0.00000000E+00  0.00000000E+00  0.00000000E+00
  0.00000000E+00  0.00000000E+00  0.00000000E+00
  0.00000000E+00  0.00000000E+00  0.00000000E+00
  0.00000000E+00  0.00000000E+00  0.00000000E+00
  0.00000000E+00  0.00000000E+00  0.00000000E+00
  0.00000000E+00  0.00000000E+00  0.00000000E+00
  0.00000000E+00  0.00000000E+00  0.00000000E+00
  0.00000000E+00  0.00000000E+00  0.00000000E+00
  0.00000000E+00  0.00000000E+00  0.00000000E+00
  0.00000000E+00  0.00000000E+00  0.00000000E+00
  0.00000000E+00  0.00000000E+00  0.00000000E+00
  0.00000000E+00  0.00000000E+00  0.00000000E+00
  0.00000000E+00  0.00000000E+00  0.00000000E+00
  0.00000000E+00  0.00000000E+00  0.00000000E+00
  0.00000000E+00  0.00000000E+00  0.00000000E+00
  0.00000000E+00  0.00000000E+00  0.00000000E+00
  0.00000000E+00  0.00000000E+00  0.00000000E+00
  0.00000000E+00  0.00000000E+00  0.00000000E+00
  0.00000000E+00  0.00000000E+00  0.00000000E+00
  0.00000000E+00  0.00000000E+00  0.00000000E+00
  0.00000000E+00  0.00000000E+00  0.00000000E+00
  0.00000000E+00  0.00000000E+00  0.00000000E+00
  0.00000000E+00  0.00000000E+00  0.00000000E+00
  0.00000000E+00  0.00000000E+00  0.00000000E+00
  0.00000000E+00  0.00000000E+00  0.00000000E+00
  0.00000000E+00  0.00000000E+00  0.00000000E+00
  0.00000000E+00  0.00000000E+00  0.00000000E+00
  0.00000000E+00  0.00000000E+00  0.00000000E+00
  0.00000000E+00  0.00000000E+00  0.00000000E+00
  0.00000000E+00  0.00000000E+00  0.00000000E+00
  0.00000000E+00  0.00000000E+00  0.00000000E+00
  0.00000000E+00  0.00000000E+00  0.00000000E+00
  0.00000000E+00  0.00000000E+00  0.00000000E+00
  0.00000000E+00  0.00000000E+00  0.00000000E+00
  0.00000000E+00  0.00000000E+00  0.00000000E+00
  0.00000000E+00  0.00000000E+00  0.00000000E+00
