POSCAR               
   1.00000000000000     
    44.5639053018341542    5.5760930489964196   -3.5157700172182795
     0.0000000007241160   37.0110396639764616  -11.7207516667713918
     0.0000000009939980    0.0000000000766856   41.7931680321745915
   C    H 
  2880  5120
Direct
     0.2742540400352701    0.1598729738587413    0.1718769436190917
     0.2168805755519251    0.9696382541251696    0.3700930297892631
     0.2600991452300344    0.1179307474775518    0.4788705587302495
     0.3672430729901674    0.0847592692521111    0.8236565511382640
     0.2727016749507073    0.2107996244535117    0.9281106146592212
     0.4040667327127944    0.3807447589805935    0.2782422050697843
     0.3077739486681359    0.2663455244272434    0.4817379694591853
     0.3039187509280196    0.4360092642249089    0.8772466018169579
     0.3186735764415566    0.5766066763816778    0.1936890487784007
     0.3494843550290135    0.6566364636843339    0.4361458185518787
     0.3849233333431546    0.6827695332568201    0.5873929092449623
     0.2812200718899522    0.6479931379743892    0.8615052394633450
     0.2913192984028340    0.7139751495390078    0.0944052771232060
     0.4619853807517204    0.8806133955390268    0.3499013155909593
     0.2349169934799288    0.8551275780169850    0.5919099497145160
     0.2893248957129106    0.9502596087535898    0.9507347316672996
     0.8864398081828810    0.1961471058423246    0.1000188112423415
     0.8846972937520075    0.1535788142699483    0.4357743048546239
     0.7817494831285399    0.0304108740927883    0.5473866998527951
     0.7663953333749820    0.0307847848033481    0.6723032636773286
     0.8171253736777900    0.4295890940715013    0.0790801799681426
     0.9316211949437908    0.4339711874645599    0.4283812461450844
     0.8285627357509747    0.5267440800581403    0.7917508050006067
     0.7792101626936652    0.1486651953651200    0.8873964432542274
     0.8724361345085979    0.6557046336398524    0.2223884390280404
     0.6897408227454869    0.5997366895604881    0.3673569534725643
     0.8454276853539822    0.4746778427867796    0.4946531843436653
     0.7972291744580410    0.5913969926399731    0.9025642594262636
     0.8674006284218395    0.8389783270974746    0.1670067132950560
     0.7060072644185241    0.0527051401800958    0.3703673454171139
     0.9650203856202324    0.5934740941736327    0.4821799378268458
     0.8414471345419061    0.8466907011484890    0.8820584433499610
     0.4545870107908787    0.0826522749040394    0.9883358173208063
     0.4418717795407840    0.1152188120666555    0.1984726669716995
     0.5244899354429529    0.3318063798135392    0.4992898385749894
     0.4366222365575121    0.1498227994039808    0.5549509530975091
     0.5407066375519960    0.3199161259527921    0.9573326987079933
     0.5107334428454161    0.3873794781541053    0.1215796371370543
     0.5401917972037610    0.4377762844313842    0.3504195265908176
     0.4987725475282570    0.5280192134605273    0.8871152847286100
     0.4836710840851952    0.7206051734014755    0.8181672179226651
     0.4863832103870611    0.7347669833386996    0.1436292768250885
     0.5587932004709013    0.6108924086218952    0.4649165503447067
     0.5762763670790427    0.5911362721682973    0.6121985086831753
     0.5431544210029413    0.8983842936902471    0.8117281925371853
     0.4802421271745032    0.9337058924390420    0.2161056295808379
     0.5345628481309124    0.9170504496288286    0.4566541070135228
     0.5456267264674581    0.9238109821822338    0.6191008444793465
    -0.0095820293505343    0.2830903627630159    1.0868208509960187
     0.0322814293554062    0.1367599382633383    0.2459846592727273
     0.9178334746041286    0.2093391934164962    0.6199370715467004
     0.0603437590811503    0.0942329979466316    0.8374955060371431
     0.0264124339113315    0.4218812936347326    0.0629916431746942
     0.1387733366569335    0.4980649344259950    0.1841010821257361
     0.0544377706079396    0.4103906261790608    0.3926120837664900
     0.0481316460601435    0.3239379058972705    0.6382020074513642
    -0.0050016890537564    0.5972501857128627    0.8696038600436193
     0.0308194560910134    0.7891101286081461    0.2145348729297859
     0.0538676752698476    0.7532908236327388    0.5465269043959295
     0.9552352138143202    0.6034862275463090    0.6804562691027215
     0.0112862887900828    0.8819687410780892   -0.0166313532573055
     0.1080931803713455    0.8424006118583738    0.1944647827026014
     0.8860736087198945    0.9051416743287181    0.4198833135940651
     0.9118770044241084    0.9200687430915364    0.5702521779691003
     0.4070847185212264    0.0493021512492233    0.9784533133307369
     0.3981375397978951    0.1019861141602328    0.2299486397182071
     0.5265984564423560    0.2706865710860817    0.4981464576331047
     0.4023810179522039    0.0972623993911462    0.5230187195579447
     0.5216871681505565    0.3558052083003079    0.9149264393034745
     0.5378516612118781    0.4372872575886134    0.1640239804063548
     0.5677284883731328    0.4735009293469876    0.3242410672476372
     0.5490502790224669    0.5512412335043196    0.8779371495058913
     0.4983149670405624    0.7770472001422308    0.8641962292375492
     0.4471809589932409    0.7807485442493936    0.1230771573491903
     0.5014096523811257    0.6111447765175181    0.4643712043079900
     0.5489758176688631    0.5844878497837636    0.6604560771593952
     0.5763243025244855    0.8511540892266709    0.7685693361044665
     0.4227397894636849    0.9449304468972776    0.2277451029893907
     0.5559969175088953    0.8741956747622268    0.4903812278315167
     0.5689029002773170    0.9039787744704230    0.6707255344388008
     0.0123134585217942    0.2205282536166460    1.0534537166558984
     0.0108431679560960    0.0847407069982056    0.2611447280813147
     0.9362144122421401    0.2491971073497508    0.6793382459882720
     1.0158734781655709    0.1396673196937795    0.8289811628656404
     0.0147728714841327    0.3209707323478708    0.3496216315307439
     0.1052194004993770    0.5344171490659460    0.2341626896340971
     0.0585638897417041    0.4032351309301396    0.4528865001183944
     0.0187467541344211    0.3501027974069423    0.6960103734436124
    -0.0359151278592086    0.5480661703642375    0.8299730871670928
     0.0177121992984745    0.7766215143698195    0.2701505372587384
     0.0645742779311940    0.8055979476711272    0.5948885666656628
     0.0004479463704723    0.6374003448966284    0.6847568999885013
     0.9783399381453918    0.8835660304123163   -0.0104035809664552
     0.1539167941964618    0.8047951989495735    0.2144056361595188
     0.8283937542164065    0.9105173311323821    0.4320380621882900
     0.9326713571116957    0.8523688836305799    0.5665589994396573
     0.0097538647540718    0.0894035379460789    0.0751061586888133
     0.8457373415122463    0.3141048635954248    0.5147489245084266
     0.0837086860580922    0.1824575436685245    0.7038759341996969
     0.9100957647055001    0.2835072983873217    0.8282818058009702
     0.0680127570673191    0.5901182928488217    0.0548179607583389
     0.9838687337180562    0.4363686604966194    0.1894139390580594
     0.9542523600945934    0.5041808515055509    0.6006745036268527
     1.0100618893115705    0.4754476581630930    0.9191930755669893
    -0.0467605379829282    0.6628133447502974    0.0314308282015983
     0.0883046765938926    0.6433640306444406    0.4044778871552053
     0.8435810396479253    0.6554522710650007    0.4481093669184493
     0.9913005698749247    0.7855895585122903    0.8210947439112835
    -0.0075619481335639    0.8397534904085768    0.1425081808525349
     0.0407997359892461    1.0011074702080700    0.4374099520786698
     0.8666822939667379    0.0957416144070000    0.6937727113751958
     0.0482590099331913    1.0227933109561456    0.9612880112025338
     0.5852079649466599    0.2306033963477670    0.1502532307394530
     0.4297957403193925    0.2632958511520199    0.3347397598189408
     0.4293382932943711    0.2930298009149774    0.6957429683706233
     0.6190996040306802    0.0496582593702121    0.9266083191572579
     0.3583877625604189    0.3642875213663652    0.1793454692637530
     0.6456596959554866    0.5448057085515310    0.2723661693753466
     0.5275831530173388    0.4893519280941959    0.6992274964489154
     0.3750006540528932    0.3063599812833018    0.9079919693142114
     0.6731510020206872    0.7367961623172710    1.0579686484741095
     0.5077197611087508    0.6772025602103439    0.2820080455728701
     0.6046586609743103    0.7601421094462987    0.5726457617094431
     0.4521132158117162    0.7006406917152050    0.9239623129484373
     0.5478932074851838    0.8794527692761767    0.0489179368440045
     0.5598132746915528    0.0734991627191368    0.4219591208988240
     0.3617929969780559    0.9399840723963127    0.5760261808313070
     0.4328706539398833    0.0026928731891679    0.7341817502642674
     0.2244565924387587    0.2281895006430687    0.8051229494090002
     0.2260550467226566    0.3575414379530955    0.3660421276278883
     0.1344454478330877    0.3795981333642541    0.5838369722095861
     0.1567982965141978    0.3294080143918201    0.7947392817971600
     0.2660692553848840    0.3779328032756583    1.0132793994080964
     0.1870256758919782    0.8044777574014439    0.3329642266310009
     0.2986644251287366    0.5639230510133205    0.5565054219714040
     0.0881873428934710    0.5210400582741099    0.7445655190846673
     0.2193769697632966    0.8874838085639603    1.0061871893245031
     0.2680066781321154    0.8129502599105521    0.4492551262157600
     0.0964527576784174    0.8635001918727239    0.5048257901655790
     0.0705995854585722    0.9449934240278368    0.8238258357353002
     0.3024649433170096    0.0670247410848444    0.0974241090707157
     0.2258663222624348    1.0350735959382666    0.2582382651260274
     0.0909907000622011    0.0683625264434472    0.5558197916571771
     0.3915243580413190    0.1059041311636969    0.6502154162733954
     0.6132113750955555    0.3502239887970477    0.0267986039805631
     0.7708553365445184    0.4079392594782138    0.3624108393826689
     0.6601059932390293    0.4532964663830342    0.6621179632747484
     0.6057397026895986    0.3672557524438174    0.7918053316100782
     0.6601058026905591    0.5937121621751842    0.0684627655668019
     0.6685087884458981    0.6887214008666691    0.2089327663153875
     0.6954435596676052    0.6096154108056369    0.6509603405899735
     0.6245165111944307    0.5612255746417119    0.8097839666034409
     0.5910092232407617    0.8771794542423874    0.1535261981851547
     0.6506405341737164    0.0387572552048749    0.1784629694789524
     0.7247214320296137    0.8730119864858029    0.4290487910587477
     0.7304709502483246    0.7567490845097390    0.6991354122616815
     0.7828455647217879    0.0379347298897298    0.9263207190552829
     0.6844673297085035    0.1148064227769122    0.2542546568272747
     0.6328869968892940    0.2978369860309816    0.4742118703345738
     0.6025844465718490    0.1047583243307839    0.6787037869439615
     0.0269012560976618    0.0735759252485872    0.0433161826626468
     0.8774664378369088    0.3223188343993793    0.5244196123933619
     0.0978242205756700    0.2134385482400214    0.6976741854181346
     0.8755690251838827    0.3000447321878796    0.8291868899486997
     0.0525589459805678    0.5753598384511477    0.0203469303683858
     1.0151580395743385    0.4462413785307797    0.1868108496827416
    -0.0183828030500230    0.5076704577480037    0.5827684630013862
     0.0233614892694521    0.4417019281101895    0.8925511228205926
    -0.0813040752833016    0.6682236811443548    0.0361517677767439
     0.1020596930585814    0.6560702670272857    0.3805061050103933
     0.8256346628249478    0.6756641855479972    0.4788673899027483
     1.0173877481164126    0.7558232346346666    0.8042735531626072
     0.9895916248279905    0.8430966622195037    0.1073977955667412
     0.0180174074103524    0.0337541561479939    0.4361278782058587
     0.8944164303293911    0.1148831404406416    0.6928987268973305
     0.0567325073695245    0.0139166948224663    0.9235594824638755
     0.5758414315470871    0.2461865101503203    0.1219854513811007
     0.4562619834815383    0.2702586090678240    0.3182575332330563
     0.4580590589453596    0.2644003339410033    0.6973438417454797
     0.6188166180147090    0.0085836091947198    0.9082040417458973
     0.3438675840196984    0.3968409965632098    0.1684846845355684
     0.6310765922266617    0.5369948065085453    0.2370583315717992
     0.5280546136915450    0.5323668335625980    0.7094220317008268
     0.3630451354891703    0.3446459915813642    0.9102723653423855
     0.6914024614308497    0.7416827271784506    1.0940267629129017
     0.5244580356834977    0.7069403588268531    0.2731840359027027
     0.6300875673992477    0.7801055750143973    0.5831281025548751
     0.4592129847364150    0.6788833739278801    0.9500460457968128
     0.5433348879803834    0.8415775746093613    0.0163145253574213
     0.5499659594505240    0.1093415631396933    0.4100017352827577
     0.3584257757639822    0.9499700419540130    0.5433955743009934
     0.4568715945954764   -0.0104052459862494    0.7096149900665750
     0.3685043467773857    0.1777593319905108    0.1124072458493788
     0.4723247089313556    0.1171615842506775    0.3146292575429360
     0.4185986361462806    0.2179060920185884    0.4630939356272128
     0.3477788558827561    0.4504690787194975    0.7788327381178419
     0.4384707922791023    0.4753835260424506    0.2367710153940567
     0.4258084034431644    0.7356468164281031    0.2567224332015388
     0.4340376105879096    0.4923847158414318    0.4902857450930666
     0.3928330354230927    0.5876935551615262    0.6981838410524888
     0.3334703942332727    0.7546266229335438    0.8717017735326106
     0.5182364824617417    0.6095937463938974    0.1853458776611391
     0.4964034335002456    0.7504030562141123    0.5014862406869635
     0.2145320696790063    0.7498252193235121    0.8376211921913309
     0.4098818352570921    0.8362166104706609   -0.0250919967946255
     0.5642441161881285    0.2163315172025946    0.3876611889580723
     0.3271483405903661   -0.0275919158611410    0.7249965133702228
     0.2911825563748633    0.8575182958949452    0.7431768463556598
     0.9285222525940277    0.3717918121294228    0.0910779859748253
    -0.0655079703872279    0.2242562958160204    0.3739644279962847
     0.8291905825230538    0.1564361351466676    0.7732808759146433
     0.8356390685900609    0.2887483670143715    0.7135817943164432
     0.9016759063161061    0.5687769607138191    0.0963911425564390
     0.8417192881325780    0.6392038571955010    0.3293663433599636
     0.9315719632886881    0.5448362867006181    0.3675757530934101
     0.8890083578674951    0.3849267227569570    0.8023405466235287
     0.1754008728230135    0.6444680074127465    0.1209503623571370
     0.8971490863940987    0.8101499225664663    0.2837780611104917
     0.7857612161831639    0.7819089536288590    0.4174930022285427
     0.1411078023185921    0.5754707190941181    0.9566353210227372
     0.8905795266210866    0.9566227063361614    0.1647096560298971
     0.8944294807671160   -0.0056104239436884    0.3630258483786639
     0.7735754920080834    0.1152714068572541    0.6267793639347427
     0.9463330530839240    0.0199132182649355    0.8101557229285037
     0.4885442631263511    0.0367406856329515    0.3076473939627577
     0.3983264272755891    0.1918453253291016    0.3931568754921415
     0.3684411950123028    0.3765270960895106    0.7318997567789616
     0.3348622982731657    0.1377864989578442    0.0499266542796824
     0.3872795058566361    0.7811818277850672    0.2155597339488723
     0.4221220906187237    0.5712436413171488    0.5302025192330708
     0.4342593825018932    0.5541075648835025    0.6411780846737857
     0.3777805225419200    0.5100468582449235    0.2197571234425885
     0.4556577972033864    0.6330714586075974    0.2007930307518560
     0.4943091451000400    0.7884115295664315    0.5709477476394630
     0.2063547131773002    0.8198633522687307    0.8172264365621985
     0.3474036828410112    0.8179677277510710    0.8552078348548717
     0.6110561536114092    0.1489858124144636    0.3649071432872256
     0.3465126071611091   -0.0156714509074769    0.6659478201531916
     0.3557483554095256    0.8409427669348926    0.7235073534158989
     0.4156397286542499    0.8777620058149668    0.9252306278651427
    -0.0155935650766362    0.1931838467089616    0.4140744248968211
     0.8597116779069274    0.2084119286820030    0.8262587062509493
     0.8295091987300057    0.2433558231589705    0.6412706180749478
     0.8986553180466698    0.3778682523988374    0.1554563344854203
     0.9087160855787586    0.6504353330744735    0.3252051735591004
     0.9797718317830945    0.5590487471412691    0.3244689525175793
     0.8713475236294641    0.4609491642095017    0.8470052663465126
     0.9271587484654226    0.5458219313536780    1.0272708852397880
     0.8526601737055041    0.7727527993276770    0.3104250259843900
     0.8446302168477927    0.8046144830391317    0.4495481549200814
     0.1724492654109050    0.5382432375075449    1.0054646486599237
     0.2102214266182524    0.6667256018129792    0.0746808804351883
     0.8411022282299448   -0.0367982001243261    0.3279687466660375
     0.7561971245569475    0.1868368027618846    0.6741533550256904
     0.9461215068347032    0.9503632352522763    0.7566232354799824
     0.9419747893422886    0.9959901691751751    0.1675063099183459
     0.0424764126938871    0.0487370637983320    0.1069109722562889
     0.8621102765846007    0.2429654388026859    0.5026778040778798
     0.0884121706934543    0.2114212443345759    0.7681927002343018
     0.9165964828415386    0.2903631626938091    0.8908119294627888
     0.0433707188727249    0.5501862090380201    0.0769041126726927
     1.0072866574242345    0.4291316022143639    0.2455831345478070
    -0.0055021584838116    0.4808242594091044    0.6410087073258226
     0.0076371090260102    0.4220482812772046    0.9439306709374389
    -0.0394644761324945    0.6810907120644045    0.0945556624200654
     0.0608394155367021    0.7085996728174121    0.4272539045889380
     0.8854991335478112    0.7007920512032259    0.4699332873259896
     0.9716408751800815    0.7354989598198460    0.8386211222078915
     0.0258918106060404    0.8937764169498964    0.1625449587104299
    -0.0014064639043385    0.9580894473530652    0.4103343799178938
     0.8723239125646094    0.0713980561980030    0.6338480831209625
    -0.0061673036160819    0.0100616810169666    0.9365283519616000
     0.5290170952585470    0.2449744708458605    0.1721447134239882
     0.4382903065845251    0.3168762598632840    0.3892857398469132
     0.4469814800010490    0.3065139136037712    0.6412573662456738
     0.5677059743121079    0.0624332119014263    0.9073885078491595
     0.3966220362444016    0.3424096723138604    0.1303621367290558
     0.6066769704235369    0.5960613397376581    0.2949239000041641
     0.4874822655881951    0.5031864898378121    0.7479853173096925
     0.4290894774776048    0.3184978138543352    0.9175497515645079
     0.6263996519756104    0.7280647147815551    0.0888033158810859
     0.5156882924711810    0.7073582341989022    0.3456417099747270
     0.6338083194799846    0.7174138872571572    0.6055248702358497
     0.4499588223464908    0.6384190959874003    0.8817082765002078
     0.4906192509236993    0.8873049336003099    0.0617255656467850
     0.5251913521303179    0.0922057871687066    0.4657564231375287
     0.4014996720324265    0.8847771496461265    0.5491260413182256
     0.4677317828841426   -0.0127039306589886    0.7832086513198367
     0.4108045335007027    0.0079580932994861    0.9588026621496737
     0.3664363715636796    0.0901712546620940    0.2231737419085521
     0.5256325248866679    0.2680989158212598    0.5343005954883221
     0.3695828410263498    0.0848181285755104    0.5289661421708123
     0.5134799249025463    0.3198035621813250    0.8870602767535416
     0.5704918629427779    0.4206164677793185    0.1551857206387667
     0.5765704389350141    0.4452747717089340    0.2895570853891997
     0.5584955278597804    0.5746351902932298    0.9121943690806994
     0.5309219039293646    0.7736121801124817    0.8506634411576663
     0.4222791755185878    0.7837185239145538    0.1481338651672269
     0.4880001520778126    0.6055563958056791    0.4928224887345747
     0.5214565678584082    0.5738861990368690    0.6381848318655412
     0.5911619062579810    0.8120676843810877    0.7543428093599680
     0.3955778307966538    0.9282105429588682    0.1994459778955480
     0.5508574107980797    0.8398628500633251    0.4584204474227824
     0.5579289112271811    0.9383538738340931    0.6987865529169396
    -0.0001568875766742    0.1902591606183419    1.0248949441491142
    -0.0119659264076342    0.1051641105024618    0.2890213055113423
     0.9641883321091833    0.2602542390444584    0.7024608337558328
     0.9965727120658641    0.1400877027754512    0.8586650090299209
     0.0011077426755918    0.2857584912267449    0.3352182829483140
     0.1296495432884241    0.5603035043050568    0.2504163431661177
     0.0464337110434950    0.3659555959653072    0.4373591821323397
     0.0468792917354931    0.3582946873999767    0.7215380885410049
    -0.0183161493574272    0.5100038972951338    0.8253155011767158
     1.0206928952317775    0.8029579943884355    0.3078177735994879
     0.0379887835884461    0.8332727551837158    0.5903342960451584
     0.9911815739525146    0.6720300028772805    0.6801435064066935
     0.9534572130158530    0.9081541906171271    0.9778750244837114
     0.1517376583112014    0.7648032345740741    0.1902616036552330
     0.8179737096932849    0.8858737082161278    0.3945096401480266
     0.9645273731242758    0.8461074843173577    0.5541720157546730
     0.9218429567143632    0.2314625944057134    0.9143237736815438
     0.0470082829356493    0.0333543867591366    0.1654230629125796
     0.8793929035572118    0.1952095493423071    0.5317602295983617
     0.0694979948262011    0.1848846244324700    0.8106609699095477
     0.0108591109475009    0.3675912158776572    0.9671746410473436
     0.0609772438575289    0.4894427081204533    0.0930369784316704
     0.0175619149110241    0.4298997340645968    0.3039728547531191
     0.0318653044917638    0.4533466898572615    0.6818207307474790
     0.9595623474398673    0.6861398535918297    0.8652691090825037
     0.9584399800266195    0.6897705308622156    0.1597544239410923
     0.0161215512934720    0.7466194454346065    0.4690980479257034
     0.9321465715070029    0.6854858410405643    0.4448412125579308
    -0.0223628501069640    0.9421750616218274    0.9049434750035977
     0.0472220748732238    0.9559574247500044    0.1882219169998208
    -0.0028252379593787    0.8874681273416368    0.3911420694777710
     0.8768950003968338    0.9992176275094016    0.5958310886598606
     0.5151146358978708    0.0766245627234125    0.9351395368309519
     0.4871055549617759    0.2048154326009466    0.1629097324933259
     0.4498358045805789    0.3748395391280964    0.4343868934018807
     0.4010285784985750    0.2822420781466523    0.5998965674123208
     0.4626693505364071    0.2772020303780668    0.9472854787077076
     0.4386422280582792    0.3229941618550191    0.0889219747516808
     0.5914939578602054    0.6380504682768596    0.3563354714279502
     0.4482742226313162    0.5115292048719713    0.7896469294048613
     0.4409318282473151    0.6336543218260977    0.8188297122164376
     0.5673049858827319    0.7165874075092550    0.0755953249791133
     0.5003199734115185    0.6948258548954966    0.4005352080206014
     0.6236246034059562    0.6563631927073866    0.6112002329441766
     0.5096798377644230    0.9789514039220678    0.8239617298876295
     0.4496544754146664    0.8840445642731950    0.1023897259018074
     0.5164409551945639    0.0595777380030063    0.5099481858032409
     0.4627324655160343    0.8847205545967275    0.5547977936117949
     0.0967112397404517    0.2262652349691070    0.9309976496245984
     0.0282190089171373    0.1739122728891245    0.1840458768777097
     0.9561562884843193    0.1141845302354837    0.5861789009754055
     0.0873290246571746    0.1223112761336601    0.9052915803930613
     0.0266457206642808    0.3615894593747116    0.1084906926482578
     0.1415499235940004    0.4069321773866065    0.1100429863737871
     0.1003813224084039    0.4707207404095441    0.3910632363227760
     0.0096869551003782    0.3512265759845248    0.5638803723008821
     0.9760323323874600    0.6847678995547729    0.9464373466997489
     0.0648876598838408    0.7334263035318260    0.1596866282074513
     0.0648801375047469    0.6632848322079901    0.5440708943591567
     0.8863554625094986    0.6025081709007371    0.7291052511784823
     0.0687401029281651    0.9311148386366673   -0.0064326290776409
     0.1621081935090319    0.8817988273114375    0.1663552110165480
     0.9176023183505365    0.8262927961285222    0.4173424275003122
     0.9471171040724852    0.9797811904958107    0.5339692131936874
     0.5116405487712338    0.0096467290540644    1.0241400137633798
     0.5081358593171498    0.1438199453870946    0.2154998883982573
     0.4939564395318080    0.4361168422257367    0.5440964904145621
     0.4877644807333910    0.1632041153602022    0.6149808969569135
     0.5794149746585384    0.2579567079144227    0.9720290084984665
     0.4856152203387911    0.4487992049525641    0.0884888137388888
     0.5296645481869013    0.3803497690664962    0.3871108097172882
     0.4289134432470549    0.4754189806296900    0.8975888061133633
     0.4222533942761166    0.7376004380346014    0.7649047104299466
     0.5572496424880148    0.7674624112226766    0.2014495770456398
     0.5991511348345913    0.6640139269272693    0.5063926096108012
     0.6283577563978281    0.5072851425411127    0.5715883680670780
     0.5505414977756312    0.9268216859882419    0.8887687074524743
     0.4843703406809949    1.0050177739453738    0.1897584833044442
     0.5803630952315646    0.9363760983214535    0.4108616362153629
     0.4895405398337083    0.9956187133673730    0.5864090403307965
     0.5289472337865230    0.3224289777039911    0.2888885107109425
     0.3957003861544366    0.3872480853404211    0.5053728048193764
     0.4454940016649745    0.3729380245644722    0.5759903030323679
     0.4452433372248688    0.1169284431685939    0.8563896771057371
     0.4387673389644872    0.2055186520625153    0.0979517213778354
     0.4927892058052634    0.5672773184883518    0.3178631263827963
     0.4731895553897046    0.3619254904360656    0.7374421694728559
     0.3847784483060149    0.2122028812550014    1.0323896491750233
     0.5224905485425222    0.7868418544106410    0.0661546803273710
     0.3908419942265007    0.7217523888271846    0.3861249563575557
     0.5338195131275576    0.7574439024015941    0.6673840710258738
     0.3656916636134983    0.6113124898901398    0.7742966775005767
     0.3852817733151117    0.9755702426993930    0.0587894585078794
     0.4226277040278561    0.0262776620945594    0.4088662546682069
     0.4067124381551612    0.8730177088971982    0.6669973126125865
     0.4159972272875702    0.9477065620535585    0.8723926397946362
     0.1227007255545477   -0.0111732489577026    0.1739237963881780
     0.7912510540197444    0.1272497064032150    0.4550082363007832
    -0.0199555834926073    0.2922742506044790    0.7998612505678634
     0.8730072794848234    0.3042571502252351    1.0103546724683992
     0.9896143875288977    0.5659925589614115    0.1885142195358525
     0.9511001652340445    0.3154209230724335    0.2511925667273240
     0.9450202217131893    0.3830452694175986    0.6487661024705065
     0.8986432079117741    0.3990487703528022    0.9621163467060164
     0.0661275171677129    0.6272890393590431    0.1837150969839754
     0.9470865344916211    0.7168565962844469    0.3471644955136967
     0.9680171304838197    0.7071817309354141    0.5731301951612120
     0.8560172509260217    0.7473888746989056    0.8725141997647666
     0.0817387376231431    0.9283987624323152    0.2855178226405319
     0.9635542198350859    0.9102669325711498    0.2625037425357744
     0.8452049830191809    0.0584620475934152    0.5031499755864433
     0.8724808391612151    0.9886683817906172    0.8863980041863299
     0.6929303630071925    0.9865392958971995    0.9921193423031401
     0.7723010218502885    0.1131043079830159    0.1342730940318181
     0.6568562619275885    0.3022731078088799    0.1899094147488338
     0.5963815698309208    0.2248876708761520    0.7270357911827949
     0.5851320874745424    0.2121529694408006    0.8422946633231536
     0.6904056605871282    0.1872300766298340    0.0563473123201215
     0.6185852990977880    0.3415897928040663    0.3430625377657898
     0.5844099295202304    0.3250899249266120    0.6312980088167749
     0.6028481264234329    0.4452938293182239    1.0218241481781447
     0.5411031376541657    0.6346496901903165    1.0549991215845360
     0.6368911941356756    0.5203021572808738    0.4470211792432651
     0.3911921208362704    0.6030296318844348    1.0581884894054863
     0.9190434044498343    0.8019053379185893    0.0724192326341327
     0.6329208242057597    0.8185314707980335    0.8365441081150529
     0.6349385831079006    0.8478708614722678    0.2965583767582997
     0.5786025414990984    0.6627570875447266    0.7835855110760391
     0.1173602083794572    0.8218340554845127    0.7909722235517259
     0.3034545989689696    0.2884440574855939    0.3909183041249789
     0.1332908002702046    0.3482713088355162    0.2572620408580339
    -0.0087725697261647    0.0626938033949296    0.6574702221625617
     0.1731320686049699    0.4211954683535189    0.9900295003005094
     0.3813142493576450    0.2487642400765270    0.2488665220988954
     0.1501234051635484    0.1266896226319476    0.2476975046214196
     0.1262369149087264    0.2586089647229476    0.4209969485586231
     0.1286330248396821    0.7387699021106130    0.9015199029628171
     0.9009210335651796    0.5398196924894429    0.9050144883410411
     0.2223986079216515    0.5199237156192974    0.5074588851033661
     0.1354684773971625    0.4755956629016871    0.5431273128135797
     0.9936131102908788    0.8177892260502831    0.7491224501452082
     0.1401442920467235    0.8258046484832707    0.0829970313485843
     0.2085467215541125    0.7047287091310284    0.4924127512428112
     0.7932904253124843    0.8537565063888733    0.6237357419368003
     0.5005885097298414    0.0896530063978146    0.8576080619332975
     0.5004785285601179    0.3015886595186061    0.2342758659901812
     0.3863774544101350    0.3409027936630982    0.4499497594304417
     0.4425949191195805    0.3077453615443649    0.5487452509169567
     0.3744247465716773    0.3035184439757351    0.1074706615165347
     0.4376310428656604    0.2717404443843540    0.1402918439866576
     0.5298595987776533    0.6139596260976435    0.3388893247331535
     0.4527412714585384    0.4266016444392435    0.7433584368785748
     0.3757805844008785    0.6349267222154773    0.8428185604117959
     0.5541203547171548    0.8000422011217404    0.1188407524577846
     0.4436213510710105    0.7256173936359820    0.3739429010193075
     0.5827285961601051    0.7157969662357605    0.6638807378467645
     0.4396163387589404    0.9878878827963075    0.8464914040162951
     0.4400556408354894    0.9459993215336846    0.0672892031056080
     0.4546385484186007    0.0770659063559954    0.4441676045700104
     0.4194533647030704    0.9147037745578858    0.6367383683633052
     0.9111363820098238    0.3082361527350010    0.9715584186378297
     0.1199427371596860    0.0295494072330684    0.1288876129817761
     0.8072873029678610    0.1924106083661237    0.4783653186764342
     0.0194577699216476    0.2370265103150328    0.8017500912824008
     0.9484911889493977    0.3951231098151890    0.9403496897451782
    -0.0097953261326152    0.5626588472737570    0.1230916789288859
     0.9547944524370870    0.3831057515663470    0.2676713122914459
     0.9682210493115871    0.4350751001822943    0.6826063959062504
     0.9037476107778389    0.7449762927560342    0.8382593749604593
     0.0222516973830698    0.6466371292620442    0.1493555734050692
     0.9724654096114356    0.7289730194181319    0.4080139454246423
     0.9206902537498768    0.6860407723168109    0.5322882359036776
    -0.0837785403877881    0.9813496963734302    0.9274151438671284
     0.0422934858852086    0.9039177049630069    0.2395152472994654
     0.9852116675922478    0.9095766846653466    0.3220449625378390
     0.8548272736537728    0.0837132597298390    0.5670891489887209
     0.1459794584241035    0.2983130087555900    0.9045967793160877
     0.2345664168480784    0.3711256044371135    0.2795964373158299
     0.2232377019075260    0.3981366020496415    0.5316478142417266
     0.2733918232160522    0.3195226059930798    0.7889366308657393
     0.3739234863858655    0.4711341141796210    0.0034562878501043
     0.2253888004959487    0.6287978280156842    0.2697979214034212
     0.2161389065235857    0.6926393493082638    0.6180508225976092
     0.1586729583678636    0.5583599324271030    0.6615618422132431
     0.2402227003058574    0.7397313168078153    0.9811378857674099
     0.2893095179635283    0.7742325255183279    0.3105369121869717
     0.1955748858400116    0.9553534271858249    0.5027537047396946
     0.1613318816405988    0.8776180050123578    0.7559569257964369
     0.2539639529204433    0.0801710744407538    0.9704078065845979
     0.2820886474682309    0.1026969836987882    0.3820642274207564
     0.1794883029039155    0.1623706040354487    0.6064717721409965
     0.4883868292789162    0.1039801278657849    0.7372330883859560
     0.7345690706795441    0.2960587140071715    0.0186071944194316
     0.8153627804119081    0.3612569757867491    0.2278990418716175
     0.7466426654082831    0.3475430598764322    0.5927636625560110
     0.6750411909203607    0.2533651449836579    0.7652662627801163
     0.7755190216331593    0.5784054778289530    0.0539472369844964
     0.7493012752929498    0.6019651107930564    0.2327874577962472
     0.7433160816387629    0.4977078601046093    0.5318463433292090
     0.7245047206123502    0.6447515030169442    0.8350307821327920
     0.6561861882086781    0.8551310883308928    0.0234196416203220
     0.6474129453122591   -0.0178319500705679    0.2572368672821105
     0.6925575098294127    0.8159291531749440    0.5251198473855118
     0.8488954594298218    0.7518656660297579    0.7225147516022099
     0.8478644419340019    0.0218837548960309    0.0183679037224537
     0.7603238975184869    0.1994788988818251    0.2781965800175534
     0.7034531487556471    0.2443392636199384    0.4940177209059665
     0.6281525167969357    0.0590031401104344    0.7854026956226429
     0.4251210370230199    0.0749764550465903    0.9674585177648954
     0.4092694048829493    0.1062131246958888    0.1953607920850018
     0.5075287318388768    0.2998242870262657    0.4843888660752946
     0.4049970899910261    0.1344672587607294    0.5556610263443762
     0.5206239586178008    0.3532847795747414    0.9514234025352208
     0.5170068305408007    0.4076390250901373    0.1564815715597052
     0.5363114725658802    0.4703118182258408    0.3331688538592594
     0.5321686858539433    0.5201149106541111    0.8827368591381866
     0.4759885603322735    0.7614398333327287    0.8346839597449114
     0.4669241889528232    0.7424628574624843    0.1127179268737385
     0.5317018108080342    0.5872083438421782    0.4478072184637497
     0.5781374792000604    0.5739068517383578    0.6403332123108904
     0.5516437767117754    0.8570910129533176    0.7930394835192103
     0.4533510936889915    0.9195144016594394    0.2245894052901985
     0.5297044838112022    0.9053877720830279    0.4887745031264780
     0.5445621109590234    0.8982676721108377    0.6404845299637046
    -0.0141090765314195    0.2425518596889010    1.0760544356671180
     0.0387666568704596    0.1043973703149613    0.2604660679706777
     0.9433237000336635    0.2323896618155277    0.6420102264474534
     0.0347580724362357    0.1022154352945279    0.8151795963197564
    -0.0079156140407203    0.4279670870477375    0.0571862003735399
     0.1199387619231241    0.4968417629460672    0.2151196288335763
     0.0487219702785790    0.4310116666262290    0.4314863490400053
     0.0249714827200663    0.3183950118581353    0.6612234950375673
    -0.0191214994525691    0.5824971065375655    0.8358628286416402
     0.0203400228641819    0.8057937093184034    0.2507651288268273
     0.0791132457449289    0.7751646917799987    0.5647031842687771
     0.9791390412135837    0.6236682011999675    0.7029038392448388
    -0.0020206470219348    0.8998629466046372    0.0165786450512077
     0.1249179008711229    0.8261079024535790    0.2243397326415238
     0.8621076465358025    0.8995928204783278    0.4406924139416222
     0.9250728363609123    0.8928802539857124    0.5904111925873351
     0.0934636929322231    0.3010707990960586    0.8740023756234589
     0.2480756398861048    0.2984314579284916    0.2470377204782670
     0.2070146052521228    0.3582353323311502    0.4668457305039745
     0.2967865849688332    0.2903392428710263    0.8299832587975537
     0.4295980662253230    0.4602092135956860    0.0072053771446982
     0.2432980019207779    0.6106497281729709    0.2075722193523817
     0.1716796191266816    0.6957443310035637    0.6492212217660596
     0.2071452814524285    0.5127095342591395    0.6410533191176732
     0.1945825582620884    0.7147956966496893    0.9928155003369481
     0.3078503876764624    0.7056317158157112    0.2920140293278054
     0.1902492040081531    0.9891964359373446    0.4584708807333895
     0.1939426347984297    0.8219490847007287    0.7173697500462721
     0.2427910978428348    0.0955124157522754    0.9145645684462949
     0.3276221001584586    0.1280531505437934    0.3781560235919056
     0.1933414295814213    0.1652526341821872    0.6673690114739661
     0.5246761497790252    0.1527544320575329    0.7441311959595747
     0.7279411717056572    0.2258919320349974   -0.0147518631724016
     0.8416578028710342    0.3079815438990855    0.1892774964253739
     0.7562516362423715    0.2815134956787571    0.5908588071294388
     0.6743883795667152    0.1883734061957086    0.7695241996505040
     0.7965748711768118    0.5140190902223559    0.0541537206580193
     0.7659230023444548    0.5323178392806331    0.2241332235578578
     0.7626706869450226    0.4429190670940700    0.4814231471065720
     0.7633089560464436    0.6877693368640567    0.8444631189623104
     0.6140188655111702    0.8750049129930744   -0.0159143892689843
     0.6056892269462701    0.0277044476453403    0.2917417195229163
     0.7409127277901596    0.7740478988069808    0.5071695135116372
     0.8696775498693853    0.6967050580535402    0.7399850531895080
     0.8367264880132953    0.9660893752545309    0.0314731904775142
     0.7592870688163273    0.2641917718906081    0.2826444667915204
     0.7241580239967925    0.2978345849204829    0.4785542043151707
     0.6154495960261618    1.0111416333905512    0.8071816931966581
     0.1538072683033110    0.3252525496549341    0.8876348562550942
     0.2280117483581183    0.3686369075766902    0.2395870629330602
     0.2397823654319211    0.4201631558528331    0.5168136279134610
     0.3064942237250324    0.3218121120024909    0.7760251180130150
     0.3725035491125973    0.5104529800821254   -0.0021619500963996
     0.1942323178116902    0.6173359314563808    0.2541086912323388
     0.1991751022787837    0.6973803383596875    0.5852595247599802
     0.1681328689247240    0.5841764413979670    0.6440320651260995
     0.2546078888455343    0.7003961627046479    0.9607233182598803
     0.2742337001766262    0.7761406553724304    0.2743510328801592
     0.2278367435178649    0.9434275152804031    0.4962297611414516
     0.1346940323212482    0.8693214546001476    0.7309189662107924
     0.2723404069726282    0.0473244523448558    0.9499736558945736
     0.3006849441278723    0.0770892074133327    0.3997988722374806
     0.2046105046979885    0.1870275014229970    0.6074782446432646
     0.5037445612092204    0.0805881536176083    0.7042067834676643
     0.7580068595214249    0.2807894976333997    0.0420903040421596
     0.7885720236067618    0.3556912124177634    0.2035730101727980
     0.7631618835894540    0.3412745923585040    0.5624972107393241
     0.6918171877959793    0.2362676153573158    0.7326591701055434
     0.8047340221903801    0.5801183408505656    0.0381481764806127
     0.7724777586122740    0.6008475132765227    0.2089594026527390
     0.7090310588881650    0.4920080013719644    0.5176560160405014
     0.7160005026120261    0.6521845479499209    0.8017569866496477
     0.6463172661833787    0.8161817642468558    0.0118535284267786
     0.6406808636098335    0.9551517465010989    0.2735207765631015
     0.6762172818233342    0.7861185443204262    0.5030363360367720
     0.8812104996919167    0.7645443806320318    0.7278545290121379
     0.8812782223490980    0.0028051409345536    0.0127189224469248
     0.7429387225591370    0.1917033357386989    0.2443931821880252
     0.6955473872016436    0.2265205691681011    0.4548315349305096
     0.5964222217572902    0.0668793266386487    0.7723627282891810
     0.1118149715858810    0.2912256417388205    0.9001865563099637
     0.2564312938467761    0.3331909983003235    0.2749159992112799
     0.2200486332592757    0.3593123977514699    0.5040054695596523
     0.2737972871510366    0.3202451449018826    0.8252779118245837
     0.4016364794417320    0.4569932999547747    0.0225893354506568
     0.2414187085988057    0.6395117137511411    0.2418289285165447
     0.2028314783717922    0.6746275609649032    0.6396498632347899
     0.1805196171384954    0.5255986147727976    0.6642039625993079
     0.2163593179121943    0.7442824455491776    1.0077663488755046
     0.3135302392459954    0.7451073785261952    0.3124633589762991
     0.1772960444855478    0.9640333109173195    0.4723940065114324
     0.1924028247653601    0.8606538994790014    0.7414231520745664
     0.2289879444583403    0.0879322850916159    0.9449896826650546
     0.3022244986842745    0.1112943175051415    0.3590729946999563
     0.1662992388235595    0.1704470060723477    0.6424067281872682
     0.5084288737796391    0.1320046585606953    0.7622975506633268
     0.7133580121611605    0.2655450415640991    0.0028889968215958
     0.8449400548223013    0.3451028431189125    0.2115627840736103
     0.7524476579339512    0.3206215550707843    0.6135361680260428
     0.6782807276122279    0.2277228671384890    0.7854125945404276
     0.7800704886225949    0.5517171886731463    0.0724498749412970
     0.7618298779333962    0.5713142968460208    0.2483995631762633
     0.7650069617311793    0.4832539651616752    0.5016712590260785
     0.7374481507623596    0.6781446850203162    0.8607970649209012
     0.6281053176256325    0.8821635319347867    0.0204383032051240
     0.6394082849047581    0.0222238040799753    0.2831193976946833
     0.7238923411538891    0.7992950725022423    0.5369039224277133
     0.8436467332114131    0.7281985036367949    0.7438887711735422
     0.8366437087441803    0.0110799501956461    0.0473437860346377
     0.7503480445928861    0.2393609860785570    0.2995920900773899
     0.7033882464533344    0.2848823699760564    0.5008603525748878
     0.6382000026970334    0.0191664198340067    0.7842199385496944
     0.5344348382718985    0.2008854883871187    0.8513924178322698
     0.6361704914226791    0.1736846800535425    0.0444978353545312
     0.6726900736868091    0.3187910284165206    0.3568772783343244
     0.5510892788170869    0.3172782452863049    0.6733017668810899
     0.5741775635952566    0.5060519429400485    1.0549221565657292
     0.5596457512249338    0.5806374925170515   -0.0012620468673317
     0.6844378162999981    0.4916241969857002    0.4122612454569136
     0.3997237401906409    0.6604882043581988    1.0987245464757400
     0.8896837638101524    0.8398712811162548    0.0381895520422872
     0.6695557845974721    0.7902824626627435    0.8733097195220557
     0.6268321331924257    0.7787854676343837    0.2880609166926771
     0.5734058547871230    0.7049086028342946    0.7478524964155477
     0.6738206042836231    0.9453268511860803    0.9411368927189394
     0.7335725961661955    0.0990654796560375    0.1687089125071073
     0.7054927662226496    0.2559764997322501    0.1696166724615121
     0.5452829126838485    0.2182742091749802    0.6995737474744461
     0.1320613721050807    0.4058400621634949    1.0255343718141352
     0.3330394079737585    0.2802417584104392    0.2302224279088051
     0.1179067648594549    0.1529470415050534    0.2016849102834217
     0.0868239108671263    0.2277265025808096    0.3824293560527307
     0.0707026054975369    0.7649001620357047    0.9083622868103004
     0.9358638487093720    0.5771184072157771    0.9463893675128247
     0.1687203182370184    0.5508009112661953    0.5142604268339567
     0.1089986487048980    0.5210622512638508    0.5921918522933173
     0.9397738751082008    0.8381831289708359    0.7293388080167633
     0.0855771562839999    0.8091870840374834    0.0640312183982640
     0.1895184005960840    0.7294593572490352    0.4449946147880005
     0.8063258934177837    0.8368318606651394    0.5607433184458263
     0.1094289096875265    0.8324739857032019    0.8525923106741591
     0.2933820735727226    0.2184044908021222    0.3623150757289524
     0.0860399728091371    0.3594373894218879    0.2212840300975716
     0.0118404720723932    0.0044794868521759    0.6707091505536986
     0.5001342148032186    0.0433068658333969    0.9269520441574385
     0.4580635033158746    0.1977000934769976    0.1729428852861902
     0.4572769085040311    0.3616955837009600    0.4647985233700767
     0.4084969284059279    0.2426270585770227    0.5974544172671963
     0.4812557015087375    0.2770474111476844    0.9791522429417313
     0.4692806682956774    0.3291536791965584    0.0781464777910395
     0.5901078966578536    0.5567239127903535    0.3756338084398992
     0.4694258715737105    0.4976352449542827    0.8139281320013868
     0.4722309063806393    0.6410387002446425    0.8147742681104629
     0.5408268741897704    0.7194852147936256    0.0932487614079713
     0.5298249759252149    0.6842037170254964    0.4188068705542505
     0.6072033623863112    0.6428842565154222    0.5822172555130148
     0.5051999431244660    0.9540348630001834    0.8429562993673294
     0.4798217879563660    0.8818495107779050    0.1170176480719086
     0.5332525702023824    1.0229116502963655    0.4946068486208183
     0.4902374665962762    0.8995224042852803    0.5715944484170811
     0.9423796263522766    0.2158688943054947    0.9408628548552239
     0.0264620820573446    0.0613057758879576    0.1866371440803925
     0.8730255246362837    0.1802348757875307    0.5625499072798416
     0.0996275651750163    0.1640997919400393    0.8180564876680071
     0.0361067477845704    0.3601263921440307    0.9908044485460067
     0.0926542113376842    0.4799303888141513    0.1015837876128766
     0.0377449644941047    0.4001893215864114    0.3114041030816382
     0.0375501700492602    0.4110765316915496    0.6660199128719034
     0.9358632424885240    0.6666366633231401    0.8697928292021787
    -0.0306243390933857    0.7272501165654817    0.1679230219823358
     1.0121533286430395    0.7205845919801430    0.4878069299830026
     0.9399028386637578    0.6606336995994169    0.7897784230506364
     0.0058755839359221    0.9139011325478268   -0.0974676025622653
     0.0797027908090318    0.9366595678166211    0.2011219879545384
     0.9754425082423199    0.8907241864894008    0.4175759381445585
     0.9097582057157753    0.9917065235938098    0.5934897826289915
     0.0976659864534467    0.3411441662905502    0.8753049300764929
     0.2424252782280612    0.3021700533483690    0.2115172360952428
     0.2222949196650149    0.3844608258798802    0.4573262777321265
     0.3296321200261485    0.2902592439721368    0.8198779812061694
     0.4300506641848909    0.4967387687549041    0.0046913840540944
     0.2134359618159993    0.5976235959875019    0.1948635510662874
     0.1515256685001731    0.6962168664396130    0.6142874751787041
     0.2184012075022399    0.5445990810668297    0.6361415473390558
     0.2115495331513833    0.6772959710679333    0.9792662611908648
     0.2917699471213290    0.7079429274358187    0.2583235825642449
     0.2256763638827872    0.9758383605474831    0.4501134605428991
     0.1684775907050509    0.8167566388864502    0.6891206228826610
     0.2656990097892978    0.0597596236762585    0.8960633793794037
     0.3476085185977538    0.1020321471451240    0.3951616832198941
     0.2178039022825908    0.1906422080408149    0.6704573895935159
     0.5437568449820719    0.1228276284107224    0.7170123675384936
     0.7537816448776096    0.2128954682137728    0.0071383564446502
     0.8131586143847246    0.3059693660994894    0.1644744530064903
     0.7827559592098688    0.2732360470189595    0.5656200677270951
     0.6918056492812698    0.1716796898895977    0.7357710357602069
     0.8280847485612248    0.5146478195062183    0.0377935734643929
     0.7834873901073283    0.5321360896940890    0.1945895183209503
     0.7331307094763844    0.4302515145219744    0.4756912909895851
     0.7523362890170257    0.6978485286496835    0.8114014073272765
     0.6292425536700934    0.8393499067654464   -0.0393394268987725
     0.5968872739264629   -0.0035999956816496    0.3017371822949554
     0.7221411028102727    0.7465498154285888    0.4805609744055389
     0.9015407099014848    0.7069407016223901    0.7423871056378166
     0.8599662262274613    0.9438091666642855    0.0035798206493841
     0.7428608002794911    0.2576132112393474    0.2474106532549386
     0.7118222030197001    0.2792860423513785    0.4412137368552567
     0.5881533082251332    1.0416942930983817    0.8207413720048887
     0.5362042847296518    0.0877103105492016    0.9104058377337069
     0.5045285922939127    0.2357958394292681    0.1885319287822020
     0.4235783662263237    0.3556005870772894    0.4093603466112544
     0.4281364196110289    0.3059216289675196    0.6083764541514709
     0.4442772550647309    0.3156478577354613    0.9497208314771766
     0.4310498006296399    0.3341685627453418    0.1246250488699921
     0.5825287143864721    0.6229186948457905    0.3206464554987392
     0.4542227272596996    0.4986985671667281    0.7533696588363094
     0.4349279144502456    0.6192427968289143    0.8475870542977774
     0.5915567929293973    0.7366282714189166    0.0970919396283976
     0.5020253039569419    0.7225706657176943    0.3815013198964640
     0.6328644298233321    0.6925955571691212    0.6275642567308919
     0.4827021415804785    0.0029196946594566    0.8163459804972564
     0.4708831403136045    0.9023673519913223    0.0919403114898883
     0.5009753899883358    0.0810266305892323    0.4849312569045368
     0.4311097907842029    0.8986167671730341    0.5715484758170801
     0.9311663733461949    0.2698692904793539    0.9157809475915620
     0.0617115209267991    0.0340668576089531    0.1325854671818166
     0.8526418733768123    0.2128369914725115    0.5172213125265662
     0.0729683684186152    0.2208752646798627    0.8028107035042112
     0.0004381041337300    0.4064809408419137    0.9733204547632995
     0.0431694206025971    0.5301290236809340    0.1029807495317736
     0.9952228559979693    0.4217439821486205    0.2771876934461482
     0.0040296271028105    0.4775492115926836    0.6771645194992376
     0.9567766501991634    0.7267007139306073    0.8666610376526561
    -0.0263390920010332    0.6654061757310498    0.1226027721660885
     0.0267694627704349    0.7297569574499525    0.4312487304313303
     0.9177623223985285    0.7050009934862355    0.4783998625816050
    -0.0302198152147302    0.9813708013706397    0.9311385749729282
     0.0233543927533490    0.9324674041726871    0.1909449664498670
    -0.0078934191758657    0.9250074731497379    0.3810757524876269
     0.8634691945466842    0.0387130391316927    0.6006158025019164
     0.4920598439719920    0.0264156800037569    0.9539278365376883
     0.4504554053485560    0.1607369909366085    0.1694456963364935
     0.4809610288497939    0.3783980991229214    0.4868521002822962
     0.4263408010070082    0.2163671889021927    0.5764326581183864
     0.5106036462583852    0.2941901363483359    0.9871489551618448
     0.4689905817007331    0.3671438937531183    0.0769868420690492
     0.5736270489361951    0.5804527678599007    0.3825694104489895
     0.4535768399749219    0.4943573774635595    0.8430896868688459
     0.4716687631065248    0.6602311308884053    0.7856378602698075
     0.5390589187873629    0.7200874496443673    0.1290103054703058
     0.5400069248188544    0.6543120109707675    0.4261127621914957
     0.6050280079411885    0.6040249381749604    0.5664778774252256
     0.4905029629869298    0.9233653165208128    0.8255752469418621
     0.4886168523066088    0.8980435498646087    0.1541931767587368
     0.5219863286460897    0.9864100823259120    0.4841980775679484
     0.4922509795660145    0.9234947591064070    0.6050498758731061
     0.9746630182448411    0.2126612775573579    0.9423700657300939
     0.0262012921895060    0.0983267188680709    0.1868427820744398
     0.9002138343627021    0.1564613097480083    0.5749237748458729
     0.0979491447481565    0.1232044991162270    0.8146187861229924
     0.0254628822979606    0.3581107064429247    0.0246280667830796
     0.1009011696533068    0.4870303120890360    0.1397158860347507
     0.0628846268183924    0.4149697801382345    0.3382744085595525
     0.0288633951987846    0.3925850742887451    0.6357984902264049
     0.9408024753882737    0.6431914925122220    0.8911450516506967
     0.0002295883437954    0.7317960563781477    0.1781441121344320
     0.0353642677084360    0.7008796677329123    0.5019219374981031
     0.9492495242517989    0.6324044770665829    0.7864753850420497
     0.0086300162808180    0.8892962990741565    0.9267501277299670
     0.0959444289815420    0.9069609214875807    0.1802680536761690
     0.9415577507475701    0.9001649372626908    0.4087775642913273
     0.9308777050966425    0.9717851250119988    0.6108632626314976
     0.5246502739103032    0.0838882070629511    0.8752832108096213
     0.4865609151613001    0.2702857588118868    0.2076170122855931
     0.3923047602266977    0.3626109966893251    0.4264249112616401
     0.4509437112136597    0.2973546071136383    0.5807416856841339
     0.4226718754041774    0.3292855521522991   -0.0219830119839882
     0.4473793766558118    0.3102054784644835    0.1461122829992497
     0.5526980353093071    0.6012774125487320    0.3132669188143148
     0.4430170982332746    0.4621804312297877    0.7330611946094786
     0.4013725154099384    0.6116157269154583    0.8514977443425328
     0.5828170571735123    0.7799853899500625    0.1008139475880276
     0.4688000599379164    0.7460287665282002    0.3808135232448008
     0.6167712310807483    0.7095818011953074    0.6647955634850882
     0.4596328570555672    0.0137521394939068    0.8434356171011330
     0.4605625541560620    0.9421158480039697    0.0983914389385355
     0.4751241053282916    0.0617094039506789    0.4633057367795230
     0.4293883217410937    0.8855912317958341    0.6057020824040786
     0.9310547719604132    0.2979244418975862    0.9469367563091518
     0.0914463060249181    0.0492918499112956    0.1430128638831152
     0.8314075087815767    0.1841601367682234    0.4977529020005005
     0.0468376788920348    0.2515307081780327    0.8055652233884707
     0.9648193744595511    0.4116486579938411    0.9724659828824381
     0.0108021745443201    0.5290375993886224    0.1124154036613795
     0.9866234177766204    0.3825599716479806    0.2696139590873746
     0.9771080718130561    0.4733740302532150    0.6978630998932066
     0.9243240921624722    0.7454964585757293    0.8690244750651235
     0.0091801593998667    0.6557684490157928    0.1233805054321232
     1.0024317729178451    0.7094382651414840    0.4100007225267469
     0.9327442752828484    0.6939088289530589    0.5078889366881552
    -0.0580071292000027    0.9969350612210328    0.9191914681384814
     0.0202615987320869    0.9303662300399417    0.2280569389481448
     0.0061809120367133    0.9226564931943539    0.3497941315222992
     0.8707283477453284    0.0493214198200164    0.5701719205552173
     0.0416714379443463    0.0347681246832116    0.0404096463546939
     0.8996829672952622    0.2922872273093012    0.5022763854158582
     0.1202575297657521    0.2337674772134378    0.7261632871446499
     0.8662102599808532    0.3187802473284634    0.8654115559841923
     0.0232545550898866    0.5614599224484251    0.0241659485729531
     0.0241931653052254    0.4757113233470830    0.2181654442037045
     0.0090066479091353    0.4792682614530955    0.5864865703896867
     0.0501071146373709    0.4188583686009908    0.9065875020816737
     0.9113202019152132    0.7019648176510809    0.0676633605152568
     0.1059725083615891    0.6969711935755485    0.3949745699767068
     0.8306929840060355    0.7183658594558054    0.4929788464230269
     1.0136725972730298    0.7146444969300129    0.8018239192191214
     1.0183996228740089    0.8593313922870416    0.1034807564674277
    -0.0146877970305389    0.0287450994384982    0.4290807651172879
     0.9019006022974095    0.1234874012388510    0.6610071355283795
     0.0293864686129527    0.0293516116748707    0.9047378200310598
     0.5458075095747682    0.2781826423145011    0.1376302460750162
     0.4796628926378835    0.2880240477412874    0.3435138807111724
     0.4803267983006590    0.2697746400461865    0.6743373527870518
     0.5961182189696191   -0.0048492786725134    0.8799882408258910
     0.3459686952050418    0.3884738037919266    0.1297553255399094
     0.6161628071289200    0.5715019558532902    0.2312914856124274
     0.5264515035867651    0.5470646881463460    0.7469035666038554
     0.3821622433491166    0.3726820983473150    0.9293607066933167
     0.6789481420457254    0.7214158184017199    0.1153783077439668
     0.5436670850556510    0.7278597744921992    0.3017684054963198
     0.6604627165910194    0.7551148910985400    0.5849717748954373
     0.4752966821020396    0.6399196110257969    0.9363034293587424
     0.5108945246212758    0.8334704926183141    0.0122499084406871
     0.5386111214557615    0.1434701686786700    0.4384641425637153
     0.3855485016842823    0.9381496410081435    0.5200329488778462
     0.4768994500774660    0.9608921514818474    0.7177834690494136
     0.0531149131469080    0.2735244453080676    0.9372798526583703
    -0.0058231135350985    0.2126819521001421    0.1528300834133018
    -0.0141347033226763    0.0808498313391679    0.5364948049083941
     0.1328919732854361    0.0903342417678457    0.9296777071090245
     0.0595486788368790    0.3098403543336968    0.1219569772692628
     0.1845661497427083    0.3593425055248073    0.1196961565569429
     0.1037438002949995    0.5355416239570382    0.3913759133615852
    -0.0168416194930140    0.3016719522336815    0.5251597561414525
     0.0224656529768063    0.7000216633022263   -0.0158712812556105
     0.0745720919628000    0.6994062071976128    0.0998227696198947
     0.1131913624283534    0.6229515627649593    0.5499975438389670
     0.8481955255559555    0.5641418053963851    0.6890142508479575
     0.1177817570572228    0.8992767338612189   -0.0377158362002128
     0.2010051946041030    0.9221065459457481    0.1963253648285879
    -0.0267957427343966    0.8170513443094404    0.4016182901508814
     0.0004555601083054    0.9698467143037495    0.5244022298880714
     0.5221400229784016    0.0644720808443331    0.0736991083219103
     0.5362939257657641    0.1896683561088812    0.2594910572691008
     0.5142295715710251    0.4630345948153989    0.6042903741474106
     0.5419467617192407    0.1471410672354166    0.5880827774706415
     0.5920969747326557    0.1928613427273346    0.9746130314031742
     0.4491834022935629    0.5092017343651725    0.1004469406645151
     0.5472412365588657    0.3950019344553876    0.4525768482307489
     0.4665916148884104    0.4277133138179200    0.9122523626004475
     0.4337482983184310    0.7711281296787392    0.7269671274838770
     0.5313637231351768    0.8254698743232661    0.2495880925502489
     0.6493508446131887    0.6677801419233020    0.4885670121296416
     0.5961204172833964    0.4576322755973824    0.5381684126907689
     0.5309756334678968    0.9259192783838719    0.9450352915084718
     0.5362137238733853    0.0302426642309699    0.2015442766525948
     0.5627308210611957    0.9516603245804793    0.3585148756506107
     0.5093885882021093    0.0563515817208326    0.5933510690466454
     0.5502947939188324    0.3438579358578565    0.2758056496987537
     0.3670955304875764    0.4025836594874723    0.5308547284200779
     0.4182999842576369    0.4077821876006046    0.5895504331554496
     0.4280619318825282    0.1516309366612686    0.8800431410250235
     0.4472264354919130    0.1777332736521472    0.0679146396824195
     0.4735296376227154    0.5795380532091250    0.2906276367160348
     0.4681140045812471    0.3680313533517636    0.7744270768142232
     0.3998037401551325    0.2405884410557698    1.0298711453944107
     0.4988615821331059    0.7691015029060195    0.0502005613275998
     0.3982025685897507    0.7239471629097531    0.4213708916470968
     0.5157296343701423    0.7256537372852385    0.6557255654457608
     0.3618169302210741    0.5717439853619337    0.7655280835480449
     0.3670843389152125    0.9666575049628906    0.0882293292593202
     0.4461979711728864   -0.0035168276002668    0.3955809327995078
     0.4334996953873182    0.8420978268810284    0.6632025006160730
     0.4055254423744062    0.9268205908174303    0.8387931745908940
     0.1387481306920733    0.0114229145124630    0.2052058169731542
     0.7710583997973265    0.1178369430304018    0.4800136676362241
    -0.0051867626347246    0.3213785414319328    0.8269141881386215
     0.8449778315694408    0.3320927736510358    1.0218155131209687
     0.9603594142424811    0.5834908215951907    0.2116248910189163
     0.9332582146179264    0.2948831196181552    0.2217905951031624
     0.9229967008872850    0.3873663118271820    0.6788733636202056
     0.8679122458975573    0.3924109919358632    0.9549753927150985
     0.0976211062562675    0.6107688552202849    0.1763656597178359
     0.9690641579855382    0.6896778473218323    0.3221131267389339
     0.9649240460239672    0.7476709839039792    0.5752187163520546
     0.8349666700732855    0.7248881272115197    0.8790322908377728
     0.0734558121085744    0.9448181565522500    0.3246046693587813
     0.9362411448619634    0.8935311095698849    0.2672586768156121
     0.8566663315417107    0.0758328359755419    0.4778081506929667
     0.8599153390168596    0.9516906096498765    0.8750167056226772
     0.2950836552295944    0.1813486444118046    0.2337226464158867
     0.2149938896528595    0.8988870831782798    0.3424718221143039
     0.2958748462357400    0.0880018059494603    0.5182208348356366
     0.3512141473533016    0.0385736213490869    0.8470219103225834
     0.3226254638808403    0.1809761641360641    0.9084111833307802
     0.4619988932920621    0.3836111310649977    0.2757883781902707
     0.3135136157274126    0.1970160207643533    0.4671540681638813
     0.3364837046490798    0.4852899146301853    0.8893920153794965
     0.3496037611406760    0.6274214150629023    0.2063467145504987
     0.3467378197381832    0.6168316235093200    0.4761951483475383
     0.4323225034627514    0.7105152393469613    0.5964680846831907
     0.3129213429086707    0.6417711033839878    0.9107359677887058
     0.2883718477049508    0.7084386781243454    0.1543185719710045
     0.5079856906953059    0.8664589681306240    0.3780186098229216
     0.2165228845257454    0.7964361449447676    0.5613587923417772
     0.2968809994555805    0.9125955404730791    0.9871958688435881
     0.8571795263287733    0.2057852763359174    0.1516096870910893
     0.9362293253022247    0.1124478455790071    0.4251489359088738
     0.7821149279344904    0.9628035150039981    0.5504916813403884
     0.8137313796590401    0.9922510443946013    0.6698100111594882
     0.8604447280311973    0.4577825936068032    0.0702515012033316
     0.9316371365974485    0.3875060229218902    0.4608765374285576
     0.8394924407224987    0.5936498219733629    0.7987199823346124
     0.8278846587992712    0.1467523540140589    0.9261999830896703
     0.9182583341909482    0.6838329472363237    0.2169335622809915
     0.7205630040755632    0.5358200561029346    0.3489547768402472
     0.8755727107296088    0.4266482041430981    0.5192304325020697
     0.7883510259423232    0.6516841770222511    0.9456478027350720
     0.8867309594196986    0.7724198778905726    0.1580938759848374
     0.6666870540768041    0.1095380257162436    0.3973221202254784
     0.9718724449943286    0.5726116420115719    0.5337270667374311
     0.8356705495210632    0.8687959821036861    0.9479443475383155
     0.3890806646102302    0.9897596796598173    0.9729298001709321
     0.3546624017294838    0.0937843929111109    0.2583261619431298
     0.5447036098254744    0.2319950161472414    0.5380263936499147
     0.3670984519850596    1.0471785733370984    0.5012840525088633
     0.5111011769115913    0.3286357982850275    0.8533160023220175
     0.5867007069305602    0.4466587033304180    0.1455652363061819
     0.6038049482778269    0.4553592848224040    0.2771461330499150
     0.5757351614502174    0.6049859585445414    0.9076275398326399
     0.5528881069415481    0.7927393515498506    0.8808234167150872
     0.4058206350402629    0.8242935963244032    0.1611001832447383
     0.4644859387416577    0.6376107747703657    0.5098978765011059
     0.4972456440668401    0.6032359729632871    0.6273767697466291
     0.6192034340006020    0.8043729997741970    0.7315493520571306
     0.3637570607409085   -0.0525734010497360    0.2120025505974960
     0.5761638107219050    0.8097214178650839    0.4615478819852762
     0.5814687031065201    0.9475015134687591    0.7301492980657650
     0.0241218910092070    0.1679331279068512    0.9979334415466187
    -0.0415363629852322    0.0868962372561021    0.2890848018373884
     0.9896052036113213    0.2252378820139512    0.7028202869699310
     0.9662643619179013    0.1650573651362376    0.8596095823555612
     0.0115698057954390    0.2607412918760758    0.3015150265148404
     0.1139443806470818    0.5975352626838886    0.2696886593283329
     1.0183543570297018    0.3546826403774349    0.4477772784892192
     0.0365666544088455    0.3892709456097814    0.7522392118829729
    -0.0394323479395594    0.4819492725644229    0.8235891660889522
     1.0202872194939616    0.7822437375806897    0.3346453452399736
     0.0258425277942815    0.8584558838146867    0.6237689000022332
     1.0138368762589836    0.6909781919650462    0.6670341924951365
     0.9309363347092956    0.8915391681781821    0.9480224784381496
     0.1814941985963456    0.7457349934683480    0.1703580778727596
     0.7881982345294019    0.9009669177837430    0.3771066342444344
     0.9738344590817983    0.8083391924027349    0.5339878349286942
     0.3014726510455394    0.1577866823743988    0.1954555517735733
     0.2342126024807072    0.9310310754337471    0.3558485500517875
     0.2916946404197519    0.0986600705930981    0.4871973184340470
     0.3750953585379143    0.0484637209954456    0.8302688082077221
     0.2906721070716848    0.1913993675889954    0.8970310849375442
     0.4333936188568205    0.3684356563363831    0.2560695578170284
     0.2928687790652731    0.2314416356686872    0.4669827275228883
     0.3378872088378744    0.4453678015272786    0.8840370355365887
     0.3182132655962500    0.6176517288748971    0.2109304391132875
     0.3575770692869609    0.6207702974133537    0.4436004055098874
     0.4094463777639668    0.6954243882300019    0.5690367764734284
     0.3098385443899629    0.6609036333487013    0.8837602659020659
     0.3051450487793919    0.6951526827283920    0.1212856897703353
     0.4953192490963704    0.8711885265675688    0.3476674373588937
     0.2298833165028308    0.8297059540396513    0.5564242886054406
     0.3099283765698005    0.9412078656331753    0.9779875453358985
     0.8881589381872282    0.1948246658529222    0.1382692609491138
     0.9177936865173379    0.1469498264980668    0.4392077362243353
     0.7995805403500248   -0.0038622622700006    0.5555025760937899
     0.7934840060197290    0.0134282367732328    0.6525950237452574
     0.8420315817301772    0.4296690683870472    0.0563687431401794
     0.9455127405218411    0.4202198867193693    0.4587755780125007
     0.8416932925531698    0.5609856052503520    0.8120260736483383
     0.7967757901275070    0.1361145536079632    0.9164668298901778
     0.9030638840456572    0.6682772424487458    0.2403954857029577
     0.6907931788948326    0.5591001661987197    0.3476017696230304
     0.8473711219267992    0.4374787464506354    0.4988346342164737
     0.8056067393295999    0.6290907996686841    0.9151380504200554
     0.8942720510745914    0.8088176537380128    0.1570770410832949
     0.6727034798236650    0.0697926013599637    0.3733772541178413
     0.9510564557905357    0.5902974214942230    0.5114905869763480
     0.8550261096431138    0.8539630528852880    0.9183721747219645
     0.2186466921700078    0.1433176670456650    0.1283798858352303
     0.1672691315405392    1.0360569580253078    0.3740547115272853
     0.1947543044781102    0.1475705419293045    0.4750487417406133
     0.3467991015414796    0.1534723054006455    0.8127670721999318
     0.2584305852000979    0.2465996587823440    1.0020419981267308
     0.3707076643137043    0.4143526312356881    0.3529157817043388
     0.3328541473862728    0.3277639400833405    0.5739892906399300
     0.2169352318874262    0.4650813143600604    0.8924666377550807
     0.2961079172288630    0.5134625908040036    0.1348001160696531
     0.3000733290039735    0.6888369525461039    0.3811597367294978
     0.3358936896891857    0.7252273546916835    0.6640727130523562
     0.2385266870043186    0.6227470394721726    0.8085428850939000
     0.3091468098820022    0.8135391391029784    0.1170376973862921
     0.3975430745759519    0.8863169767038945    0.3671253937164666
     0.2101170119562177    0.9322680327201257    0.6369248014650086
     0.2456041667649900    0.9465903344185831    0.8950877506914355
     0.8984322636039758    0.1511638261895414    0.0279802491727837
     0.8330672409419220    0.1911415614111736    0.4039554528121376
     0.7295396788136116    0.0769648213880023    0.5190618055485051
     0.7544408325213444    0.1033962813311517    0.7606884842525828
     0.7686282497127866    0.4553176148653580    0.1309675001067352
     0.8858580992314324    0.4525550981863226    0.3751434171093472
     0.7864991764974022    0.4850047276233426    0.7269553378529181
     0.7466843983634698    0.2432578674094431    0.8859904786849737
     0.7928482878355160    0.7030526556488985    0.2063016547508005
     0.7082456361808346    0.6795489667988551    0.3998157399081744
     0.8667891244452678    0.5720027665091352    0.5277784617273364
     0.7481127931423873    0.5328884635102915    0.9207218846163880
     0.8127759642386886    0.8607115704531716    0.1008352783297718
     0.7726213897869991    0.0619300422680667    0.3253886599914074
     1.0395372697060690    0.6108588115100534    0.4639759169523520
     0.7728492818327815    0.8525595521656690    0.8407393361528430
     0.6905528160551987    0.9786431412466988    0.9546909266339626
     0.7599973721923542    0.1187205176376097    0.1692926111441118
     0.6723095817292585    0.2607529323550602    0.1826125645484166
     0.5761501943711900    0.2289354421208425    0.6970511776981131
     0.5530875588313371    0.2205567697885104    0.8350460628146209
     0.6587434133000518    0.1951221712569748    0.0698910707141490
     0.6467378002609074    0.3500873582791124    0.3666838866618731
     0.5696468587741044    0.2978911620766035    0.6445378945775495
     0.5824103773505770    0.4803213155777505    1.0184038537038909
     0.5680425066654986    0.6097600074269829    1.0299825072461761
     0.6569162326991829    0.4852424642369983    0.4303077358652572
     0.3750507976784486    0.6391171445713144    1.0794632159772546
     0.8910720459607313    0.8292548702791811    0.0704169975624068
     0.6371587213352560    0.8108866416964697    0.8721812442894343
     0.6345318153526934    0.8098094588797505    0.2719558928871626
     0.5672052093169332    0.7005281169890554    0.7817796010753277
     0.1273772725662389    0.8423772719264732    0.8273680126464067
     0.2802147779671266    0.2585318098942040    0.3776544024050095
     0.1038310835894535    0.3754632887696653    0.2550271553708585
     0.0094144677343937    0.0237139287824338    0.6459310672747146
     0.1685606529172702    0.4014293158393192    1.0174545542996867
     0.3470065569188004    0.2550903087846010    0.2488875093755043
     0.1195870639259939    0.1330421902284969    0.2280728458009938
     0.1160052128696044    0.2449694229784166    0.3823829353976529
     0.0987915742718668    0.7623524543747708    0.8904749122234484
     0.9331108579111957    0.5512949565761386    0.9103795282237849
     0.2023510493252375    0.5547039522103586    0.5262752929956354
     0.1301138580151333    0.4857764597523109    0.5812739858072679
     0.9593261634054563    0.8270887353989828    0.7572243926543889
     0.1060818051209049    0.8353112617664803    0.0925162380459689
     0.2157785651328639    0.7271866726057646    0.4685433349955954
     0.8028271100547429    0.8229081973430927    0.5924678021624591
     0.3543463242037111    1.0025136915099075    0.9668800947908192
     0.3547178087157861    0.1311174431706402    0.2832633328920717
     0.5774925844045306    0.2290620527641327    0.5289180621267141
     0.3928362212024427    1.0183878712812555    0.5052564540832486
     0.5411929574729483    0.3352845736940127    0.8433744313580005
     0.5882997531603014    0.4814798736694095    0.1764975144178099
     0.6305202445138839    0.4542030258930895    0.3038294966300037
     0.5573027408579520    0.6320193584259384    0.8918045075538349
     0.5544460137217249    0.7762751109081598    0.9112591114670415
     0.3922181213698847    0.8350586538026865    0.1327577373232044
     0.4352782851184990    0.6344064164325487    0.4810312773169163
     0.4907748075867570    0.6356883361252305    0.6580693955140872
     0.6256347170296953    0.8390015468761136    0.7259319298196857
     0.3661338545608800    0.9878630689239196    0.2110294247204375
     0.5831757894054295    0.8013102344857370    0.4948541521431925
     0.6123802930215186    0.9463418775268457    0.7181404786088942
     0.0477515253176067    0.1532567186288548    1.0189091473821665
    -0.0326548434820089    0.0496491458484729    0.2926902402807086
     0.9755369755176111    0.2000273726216201    0.7161825532589963
     0.9488679137007467    0.1534001904277393    0.8245478739594185
     0.0464156821665774    0.2534401676296171    0.3000683787239105
     0.1000181313079440    0.5951669741526081    0.3017828124566502
     1.0189649520243498    0.3678712487241650    0.4885175600765068
     0.0088819673254385    0.3889278309553600    0.7702391023798665
    -0.0653971982370221    0.4814737856919141    0.7969051538172887
     1.0429714231584377    0.7479748668333984    0.3255398870855301
     0.0505531721491231    0.8777872295329661    0.6412941233881461
     0.0412325743441853    0.6631007580576848    0.6500837289879321
     0.9316463086644229    0.8487371181591977    0.9359157279504920
     0.2071533061055890    0.7496810336998426    0.1978900255983941
     0.7841392438105442    0.9416333173087988    0.3857607938343491
     0.9530976796384223    0.7953874860160151    0.5032510243376900
     0.2411924161719538    0.1669212762445933    0.2171302998959973
     0.1816433506881366    0.9426090812825544    0.3170861792907451
     0.2384038549930982    0.0780581831312440    0.5145026548355447
     0.3092930596654253    0.0752617024800763    0.8255646147438889
     0.3088974770228408    0.1818231518554231    0.9626477647460155
     0.4319820005415334    0.3895825026282502    0.3338255758666475
     0.3385679242569795    0.2342046299518721    0.5223916835374230
     0.2788052360679185    0.5006005241131429    0.9019574233000558
     0.3523435471666042    0.5843137741124040    0.1508600814445617
     0.3032541388742603    0.6687201117514199    0.4659053506318184
     0.3845016431304369    0.7467403175874524    0.6295191445155185
     0.3051014332022882    0.5828622457558916    0.8658281253511280
     0.2710703376552352    0.7714398609226094    0.1456677728949489
     0.4610121148435146    0.8423394517968220    0.3873570872326087
     0.1949192541936164    0.8334338271992177    0.6174323242105894
     0.2927492047264683    0.8775607434821632    0.9256716544893335
     0.8314674406489687    0.1899870216413639    0.0940238125228180
     0.8887528943771795    0.0996966505847729    0.3825152719916904
     0.7475552496010411   -0.0108530267709391    0.5101956045106378
     0.8062043153202421    1.0549015906847445    0.7167321504799604
     0.8364546029373211    0.4762782505803617    0.1276248148240972
     0.9054984453446896    0.3759701454499551    0.4047875189007470
     0.7965278003070582    0.5670013900822539    0.7644122340471732
     0.8121342682573611    0.2024580976414610    0.9038155305517042
     0.8653043172021868    0.7073952032308272    0.1938391833811161
     0.7501941345207409    0.5911727197014290    0.3684636318639224
     0.8837420822863158    0.4931966441557600    0.5453800717667161
     0.7775454860680407    0.5981992814904366    0.9617472915648765
     0.8296619506369598    0.7969015925486880    0.1520863097520815
     0.7224834168195851    0.1150423792179503    0.3916170320758773
     1.0130672965467598    0.6023648102237708    0.5213333706646252
     0.7893967360524256    0.8533143297361394    0.9098267324214840
     0.3709899613760741    0.0655929760547653    0.9725783813257811
     0.3971002571809643    0.1409884388436264    0.2525748311851946
     0.5599166360604999    0.2669064636989128    0.4922200702027910
     0.4293561732612918    0.0672870992705665    0.5232879800635873
     0.5509196167418225    0.3679880707729280    0.9076235713378003
     0.5388534856967850    0.4689527153035765    0.1975847328322503
     0.5901132972038682    0.4759873233855759    0.3539914090675363
     0.5320480933756657    0.5732145429124259    0.8541736449508914
     0.4973933257037256    0.7619711016478430    0.8934461108757181
     0.4307327451156838    0.7920756089187193    0.0918378437368837
     0.4754846045321675    0.6091123917078742    0.4352876018984720
     0.5431743064967290    0.6274352981051827    0.6734802992232518
     0.6013008610908386    0.8757507303804819    0.7807081565681797
     0.4217936158119184    0.9835591556652891    0.2273522552625830
     0.5587583373059595    0.8679657675640471    0.5230927926208914
     0.6031147724793090    0.9051582264379163    0.6611617831215573
     0.0373353367318910    0.2010485889612157    1.0697905246704644
     0.0162789814791206    0.0442988991815936    0.2635018367666743
     0.9235624136574687    0.2191676665299743    0.6916667237322611
     0.9982146314061205    0.1396721343530788    0.7956048722301726
     0.0467541528292866    0.3142903730126600    0.3523075974291521
     0.0874653373968942    0.5339814516139193    0.2664716065000420
     1.0536618951313224    0.4173810006745143    0.4904397331314896
     0.9919819759751044    0.3465886894173412    0.7156929383674268
    -0.0637165203719517    0.5477050687418421    0.8041171823902400
     0.0409059056528521    0.7432561544374726    0.2631301073689917
     0.0904495984358594    0.8238222039491744    0.6207006067793410
     0.0137722923211862    0.6088526696251847    0.6531521312196257
     0.9652979270695955    0.8492078708583889   -0.0141658485720900
     0.1771938891505879    0.8055791874384792    0.2421088145913363
     0.8214348346035969    0.9531763217718138    0.4355607722798195
     0.9097836781365286    0.8411843645918281    0.5358825114555413
     0.3464544612589686    0.0461281267619665    0.9817616717422669
     0.3859155438343878    0.1452868411575235    0.2857132672700506
     0.5765488262040530    0.2325061340659443    0.4931266873234140
     0.4240169542199164    1.0283646152469210    0.4991875459230434
     0.5479859343181642    0.3740223478668425    0.8701189867935653
     0.5555371361496645    0.4982066059036767    0.1881309486917450
     0.6201375237165180    0.4801133931909536    0.3411346951717817
     0.5454878517122523    0.6071287655103865    0.8551446489588317
     0.5210667636031927    0.7767484222233935    0.9218544986899256
     0.4142750678533230    0.8277879216689771    0.1052784963109480
     0.4464606381665759    0.6389649907352766    0.4494519448462581
     0.5135242197164755    0.6401326613255084    0.6886694545313703
     0.6295215186712363    0.8675210279272778    0.7615589105271275
     0.3917519708583131    1.0040710248716966    0.2342713013046276
     0.5838585020076301    0.8366520298386645    0.5228025404233176
     0.6224368675756753    0.9110795797455018    0.6920580307206095
     0.0642594796140056    0.1815650770211626    1.0456088242526136
    -0.0125304967530371    0.0261110631932758    0.2643906556156809
     0.9475114902689495    0.1850223771443102    0.6937205233589883
     0.9645161937090362    0.1617227376407077    0.7991270513649941
     0.0614754827058071    0.2884187822993773    0.3186656061889647
     0.0747386621292776    0.5701300283836340    0.2878434380729850
     1.0264871920063614    0.4069451919707229    0.5027766845274207
    -0.0187664919127224    0.3761030247319063    0.7461580709438802
    -0.0818650554365944    0.5185347618440224    0.7997090295884938
     1.0384318052700066    0.7217461436904823    0.2898207448328369
     0.0768537507935247    0.8535160773049564    0.6492976402667341
     0.0296369450543022    0.6286794286480688    0.6324798667639902
     0.9594136009486991    0.8272782545493176    0.9471264842634507
     0.2072071134224530    0.7877642968596871    0.2245358049778976
     0.7902205159198830    0.9641501523575338    0.4220092290044868
     0.9201929993669314    0.8046192721478294    0.5113326563423840
     0.2265166656176121    0.1299505270349377    0.1577737206090319
     0.1736822766310603    1.0092605866112931    0.3396407099570304
     0.2040371544824098    0.1084249165314755    0.4720101211868084
     0.3240213309225518    0.1265957224257385    0.8073025279225392
     0.2582336289276214    0.2061885371708681    0.9846753827626800
     0.3764175186079489    0.3784547442282705    0.3277374167636649
     0.3367027860858549    0.3015016376305664    0.5391681351615086
     0.2491542413267298    0.4460073211290810    0.8954670179701593
     0.3253932381057205    0.5276032863161427    0.1384445026784326
     0.3044768554344977    0.6956203239573454    0.4177672022370094
     0.3562988510172052    0.6989009346216128    0.6416444496143420
     0.2629935938832725    0.5914683927073914    0.8193630770160254
     0.3134580899789807    0.7740494957905115    0.1117464750204911
     0.4141173134684068    0.8519083338493508    0.3492563351147127
     0.2136220319468498    0.8923748844301540    0.6411112649048862
     0.2704791740773617    0.9154006408579572    0.8906867498339793
     0.8675951867053491    0.1636323290592754    0.0422372538061895
     0.8417931119906377    0.1509214166349718    0.3958994584050541
     0.7471977524107815    0.0471200713010347    0.4974078461923329
     0.7501020053998574    0.0858446383134203    0.7240797230483108
     0.8008663982239626    0.4402331073971494    0.1402672787992676
     0.9060141417460174    0.4157762152709922    0.3666923376968160
     0.7856512164192800    0.5018417694230619    0.7621492558253573
     0.7633789165103964    0.2051964525261203    0.8713645932726285
     0.8202245260914695    0.6725662177118157    0.1995625368775996
     0.7248690669055584    0.6479422836541402    0.4054200333772751
     0.8681575694839211    0.5338718826055888    0.5104847470050319
     0.7804310517976502    0.5364183058141463    0.9175539661859988
     0.8197466977074798    0.8603266354542634    0.1380371271452591
     0.7570703083520738    0.0619211224441626    0.3545529439270906
     0.0093405523886859    0.6119860290745114    0.4624283052310972
     0.7954936705346405    0.8211069725758871    0.8476766917328666
     0.2068534248694721    0.1026714656098021    0.1565337025607156
     0.1619223644545963    1.0089706687588202    0.3072816810229602
     0.1833483265261735    0.0813147625614441    0.4603339496738552
     0.2911823161174495    0.1403137331501531    0.8003232663653462
     0.2470459908451466    0.1853189193522013    1.0004598079270737
     0.3564834213671419    0.3508241355600829    0.3175012011569395
     0.3629088095537699    0.3030315775584957    0.5193645119205430
     0.2488703219992076    0.4065031727496726    0.9001515180412367
     0.3537314478209527    0.5058257863352833    0.1335455169697101
     0.3139258757893138    0.7298320249475961    0.4386045680134703
     0.3561641259872917    0.6553412821773831    0.6335092807302348
     0.2581037195838215    0.5535579546032754    0.8135995969992406
     0.3460384586281884    0.7550240124480326    0.1153683428071237
     0.4022535213930719    0.8178429950892340    0.3413811291734262
     0.2311752183677496    0.8808606032402079    0.6691279509245283
     0.2811435026755052    0.8912065099931048    0.8567006510693852
     0.8394947370840182    0.1674785364570731    0.0208053271891515
     0.8180752137254562    0.1281464855062904    0.3829256626046604
     0.7483328793489286    0.0410250255318824    0.4611604930300136
     0.7196383900017195    0.0914315470711381    0.7065728750733098
     0.8019176444563630    0.4178339459342403    0.1648547918033001
     0.9061904110081146    0.3889690070976705    0.3319348418903130
     0.7820229681918238    0.4766459893047467    0.7836641015442334
     0.7641176538261372    0.1848393243665044    0.8373559188784361
     0.8190759741151042    0.6375742692926091    0.1855568793922432
     0.7503367404012775    0.6484649211478398    0.4282744088853452
     0.8885915350056300    0.5207351346114903    0.4816176876803260
     0.7930704988386517    0.5049771347345038    0.8878689557998636
     0.8056829418012991    0.8815630986663515    0.1645788171189758
     0.7697541110726861    0.0408360066368569    0.3791431608930333
    -0.0094810582802145    0.6326097571031432    0.4398863822425814
     0.7950638587325191    0.7830611770048742    0.8238344807001473
     0.2504549467780645    0.1403522125739872    0.1823898657179190
     0.1995056452708006    0.9740541651935957    0.3360493309338867
     0.2356825875693380    0.0917355815934936    0.4802570153059142
     0.3331235878417607    0.0886315661719387    0.8104538336209012
     0.2753887003865222    0.1871589614868942    0.9533952691776216
     0.4061568025512383    0.3728212078416953    0.3111000015892544
     0.3179512480975018    0.2710809397169867    0.5203213806671535
     0.2786893180094615    0.4603333005744476    0.9008074861240293
     0.3231209970622859    0.5703378504456792    0.1537238921061833
     0.3156317313330111    0.6625165118167439    0.4326003126770466
     0.3812497739270509    0.7086196692719603    0.6247594951896688
     0.2884483729207838    0.6066703609413582    0.8438670933819480
     0.2858164662383048    0.7564708094979007    0.1104340980722920
     0.4479201636608728    0.8477353287479978    0.3507857132922492
     0.2065976006428868    0.8653377088188979    0.6120697737839561
     0.2934406261257319    0.9148178260065351    0.9198986345960386
     0.8651474914853864    0.1705423549721293    0.0787047535144728
     0.8747176446001559    0.1415341344686545    0.3985167570989112
     0.7677140235228394    0.0184730254140001    0.5102018020286578
     0.7735002443327293    0.0515847928047550    0.7077747027404853
     0.8269615453456158    0.4385472510880087    0.1184094959822394
     0.9221160138281503    0.4009861793048572    0.3948871824329980
     0.7974384283854802    0.5341129837702936    0.7788793932556991
     0.7785594474309345    0.1897044312886872    0.8958855413564956
     0.8483908949945503    0.6858646742722431    0.2119418617274815
     0.7216782791569901    0.6087504031865963    0.3882698415492998
     0.8581615469932901    0.5048215993262738    0.5234568746115451
     0.7942656621484250    0.5719444642073440    0.9296754611062933
     0.8406248993155951    0.8297792343212802    0.1426902208931976
     0.7261471966869216    0.0759516884896691    0.3607016260633772
    -0.0059590720828552    0.6142641896658356    0.4924900069259113
     0.8114240216491826    0.8286659046624613    0.8821489303820446
     0.3810945308909466    0.1472841972649062    0.0848798570155581
     0.5022361276592039    0.0976156964953370    0.2992882059219508
     0.4050893812650855    0.2466523005623147    0.4432137109097162
     0.3653503385115159    0.4476238378519514    0.7473304493468822
     0.4089382687446584    0.4611773752877509    0.2397420463798991
     0.4093627197330906    0.7185309165393182    0.2221664998397988
     0.4096830204849408    0.5213205066580522    0.4802688509120938
     0.4120292973079033    0.5499836008105712    0.6941818951671526
     0.3566642111376583    0.7777340485515861    0.8928198288330836
     0.5078884222164943    0.6534055700270789    0.1971797534714172
     0.4693169676771078    0.7512942511685228    0.5199087754823888
     0.1846818583718398    0.7655790067014113    0.8234535002581423
     0.4393172043016438    0.8277577268069904   -0.0457434370339062
     0.5584493904368740    0.1809385100119321    0.3600340553974511
     0.3502517460243849   -0.0007149302681848    0.7292802184642336
     0.3203825642703575    0.8620726453876159    0.7701502661591665
     0.9422625282330683    0.3872514981439250    0.1253861081606884
    -0.0524317311179151    0.1851331666049550    0.3638126739002935
     0.8587333596938447    0.1406747726211919    0.7888604592953419
     0.8266431393096032    0.3059584203926213    0.6847420026398496
     0.8844752543566794    0.5743706553654133    0.0624976036915871
     0.8569096065724267    0.6689336235963197    0.3547675978474379
     0.9428276019724703    0.5813623149164552    0.3718855086391943
     0.9011783088700155    0.3980825488632278    0.8399586071085009
     0.2109160621973483    0.6474097213040172    0.1270189264016436
     0.9061728644990764    0.7746408748584152    0.2932335607451086
     0.7860842812698167    0.8154702637345852    0.4507513000886818
     0.1764152603364225    0.5713252629401687    0.9588388756158551
     0.9216724909629845    0.9342058957064127    0.1518137900643785
     0.8692400596215983    0.0168734453512947    0.3465745322899970
     0.7708045379672783    0.1474158469342446    0.6143462754804196
     0.9505064548352714   -0.0153509576697195    0.8215799394862663
     0.3682568966443789    0.1678241478991758    1.1695872503338225
     0.4840771621094373    0.1682125272051624    0.3669512893480637
     0.4690523287573454    0.2098108320919069    0.4924976069819871
     0.3710277075460642    0.5020399665963975    0.8178496060482523
     0.4711663108874327    0.4864226371160577    0.2937872297915197
     0.3859400302967875    0.7145504582698521    0.2875950219786691
     0.4234365296860506    0.4643203244736910    0.5364217824597827
     0.3383764458626404    0.5746449979197648    0.6979842533258976
     0.3771049704476016    0.7143998488117728    0.8303949548555978
     0.5409982974112995    0.5745700305206448    0.1286477621045206
     0.5125993563989923    0.7691901504515671    0.4559296783879143
     0.2242179098133098    0.7081382060787941    0.8743602367247533
     0.4033994500697853    0.7937824715661972    0.0064343410043989
     0.5548345917823512    0.2607487181988471    0.3549988010138102
     0.3592785307585732   -0.0605056289516689    0.7633415914982913
     0.2559297070505272    0.8145049241769158    0.7549660868348961
     0.9264667068300377    0.3935844798179418    1.0391736075443174
     0.9287545720786476    0.2746350826284245    0.3451731758294068
     0.9548479049547112    0.4396149541129641    0.3439273168691629
     0.8814977101067902    0.2825774690280528    0.7510018403306797
     0.8961048009993866    0.6257913071220950    0.1401814744457920
     0.8194444145447124    0.5874443174229582    0.3417748906858111
     0.9319283469719438    0.5282343639205423    0.4220500605287137
     0.9215218889730540    0.3560289737861376    0.7524846026980024
     0.1532831002042243    0.5797797311220810    0.1103835348144350
     0.9225604151031961    0.8604045850620546    0.3255810340123602
     0.7972922768580063    0.7144543714659086    0.4196709390327044
     0.1350466837934839    0.6421476800403778    0.9476807506422217
     0.8618975369045303    0.9428872637353988    0.1113562932215646
     0.9287833031861721    0.9836464208580700    0.3153099642453842
     0.7185022979592163    0.0998970703996619    0.6109181233795177
     0.9048261975886154    0.0723682767825769    0.8093765350158103
     0.1922691409224886    0.2420697703487006    0.8577887478486698
     0.2120020319224581    0.4153666127386276    0.3463935262306323
     0.1872835938704966    0.3870127188516168    0.5904397827215037
     0.2064170044124168    0.3151959321823338    0.7667554128202846
     0.3183920962550882    0.4052930613740126    0.0192192444037608
     0.2093451245079766    0.7357502728375447    0.3206921586195781
     0.2687614698772718    0.6045869779781170    0.6080168578849500
     0.1036792811375638    0.5462592536109443    0.6989317716639136
     0.2139589434046766    0.8144850950709590    0.9736107126208543
     0.2802345851422027    0.8178907819920196    0.3907383977852648
     0.1551445234962549    0.8706203728269121    0.5086904474447849
     0.1091886593358648    0.9573195145752645    0.7840469637542146
     0.2678642685148274    0.0469716317023686    0.0407824182507057
     0.2523358789498678    1.0205587388846087    0.3101543285117231
     0.1400896621600048    0.0970171214024795    0.5720108963714066
     0.4467521985250809    0.1137349026313767    0.6697025141566511
     0.6653919452017287    0.3544252841133904    0.0687132972523152
     0.7901728992247019    0.4109707155621878    0.3083444042662625
     0.6870040042225316    0.4103175483595757    0.6093066048908110
     0.6605148491594756    0.3580226377942626    0.8170562271116785
     0.7071510991474519    0.6081696091986263    0.0385320346602684
     0.6772566441800431    0.6221871494640979    0.2210053839496076
     0.7000621787774401    0.5669966130141438    0.5869027799505626
     0.6814620196587925    0.5692727136380721    0.8111379780289625
     0.6290755087306175    0.8779265917342614    0.1052584356940902
     0.6757337752235805   -0.0226246724205547    0.1803406043426580
     0.6732398388862265    0.8834768089240768    0.4639026103803786
     0.7867138838262138    0.7475122693055691    0.6817293379052181
     0.8000962074558585    0.0771014657710783   -0.0154479263719598
     0.7099649244542613    0.1647126823728045    0.3012840686351912
     0.6388752885441766    0.2760039114882100    0.5249401129360434
     0.6372213785015275    0.0613801546990820    0.7054957594520097
     0.5698857860634542    0.3242891386685035    0.2480983095579017
     0.3428815086827803    0.4229785385997292    0.5095887581776642
     0.4265006255107918    0.4382345171287149    0.6200847589948384
     0.4453133090760558    0.1825080520148329    0.8884678789450841
     0.4648421808111436    0.1916552860115352    0.0430618508253695
     0.4404542678722598    0.5946508363853716    0.2906870463321213
     0.4904266156967177    0.3917631845532037    0.7973914828971340
     0.3901330435312431    0.2675770019171169    1.0102996772460839
     0.4910590639255638    0.7510972792359726    0.0146221446174224
     0.4103960448080352    0.7569926305635045    0.4447528761130720
     0.5097809465559925    0.7066831598591545    0.6187472545079350
     0.3318713031386115    0.5621214995911857    0.7740867555924059
     0.3757023973699206    0.9325276771835744    1.0996690482126343
     0.4517767754726292    0.9896235075780304    0.3592396313717492
     0.4602094237094755    0.8527558759462619    0.6847141614699795
     0.3844335293006308    0.9002091464842721    0.8414082437464392
     0.1287182386263110    0.0153385262527618    0.2386172020861413
     0.7777559944546097    0.1351159502493408    0.5172563394828172
    -0.0117710483042739    0.3290910285111874    0.8643893312642225
     0.8132071732543416    0.3155695767895236    1.0128700278079652
     0.9334899870084901    0.5613195438600768    0.2060372212910178
     0.9314497485548087    0.3019747398332834    0.1873115674829248
     0.8938233163769260    0.4133666975286787    0.6789761880649340
     0.8519192310428452    0.4159342445066271    0.9332471904736548
     0.1196216834713398    0.6388970379029946    0.1780043119680936
     0.9928061595811287    0.6625902856579619    0.3314632901982160
     0.9391185973719258    0.7726222897063258    0.6001218756464298
     0.8492688184138596    0.6901444934323061    0.8899728824447766
     0.0846609897734956    0.9166078440241012    0.3447723030324308
     0.9186861531160202    0.8829996048338472    0.2335167664071720
     0.8920729712103526    0.0704306932802604    0.4795114665495268
     0.8826901219124519    0.9200521246711707    0.8800646600136027
     0.2617251765040755    0.0251787376667011    0.0903666095567004
     0.2838601766655843    0.0199797448293236    0.2584708768176754
     0.1120286128356771    0.0756378278909615    0.6124210048455405
     0.4295647346675496    0.0532776173612553    0.6361923543426139
     0.2281427389324612    0.1811474554125800    0.8369673386118087
     0.1806962375484800    0.3998405656984435    0.3887325884359726
     0.1721538982919757    0.3353231909082132    0.6073863219330364
     0.1563146884387674    0.3330840566942619    0.7322927032271879
     0.3088740228768269    0.3467169076352191    0.9700295286978715
     0.1523270026701401    0.7615737573218823    0.3387682738559523
     0.3194465890079156    0.5617626227369300    0.6167338634495362
     0.1153373974678187    0.4757997744849559    0.6928793609670142
     0.1862993697858588    0.8535159598256286    1.0290660064181467
     0.3053734377736618    0.8552935232012426    0.4457688124291118
     0.1167701364370416    0.8832520463513504    0.4643580116811892
     0.0630758330688764    0.9231483416256956    0.7613947060871031
     0.7835415260836257    0.0091024675537121    0.9701252857425544
     0.6527899790786875    0.1453002204805315    0.2964290929425031
     0.6434846116184534    0.3438923239985420    0.5296325357773222
     0.6485617022392349    0.0610184026982516    0.6450763878317176
     0.6307244110730328    0.3023153180188574    0.0555297250753866
     0.7335192417332106    0.4075910605087613    0.3136864627556127
     0.6448760068940188    0.3945348631029981    0.6404731628463310
     0.6529877937914216    0.3787231062307764    0.7642977844262927
     0.6529611480288550    0.6026196092949003    0.0102330202260178
     0.6633603308286259    0.6250794407705649    0.1635533789660111
     0.6974355048175392    0.5388984913072202    0.6300462918381522
     0.6636807574612995    0.5102832577924410    0.7741175225981961
     0.6463741740179156    0.8843392672354636    0.1648994404146671
     0.6660072965264296   -0.0106455160599180    0.1245700972519630
     0.6790748806147532    0.8663094978633875    0.3929808492634281
     0.7679332969088274    0.7016223953900452    0.7017493953796152
     0.2682768397621049    0.1645934170786416    0.2448465991953369
     0.1988004878266662    0.9024678857599756    0.3093998216692902
     0.2721749251964432    0.0606233071261910    0.5167794507964810
     0.3200363742744496    1.0399876931965293    0.8330679007681355
     0.3292859051681427    0.1600121637153448    0.9340708789861698
     0.4618256803511380    0.3782804237353248    0.3116567209839404
     0.3252266929449877    0.1985648777773266    0.5036681488602549
     0.3131292756326113    0.5118052094396605    0.9125425639579330
     0.3548489895075967    0.6218404387426951    0.1703461739505523
     0.3094837670550480    0.6289892804965027    0.4750545754347662
     0.4159310593290655    0.7484785600217562    0.6207233772911910
     0.3235811361587430    0.6014346751240932    0.8976922907171678
     0.2841046240558235    0.7488068599128833    0.1713348085533964
     0.4959093845974353    0.8346099707030954    0.3858925799871614
     0.1896000794675217    0.8047274202183547    0.5840089648793069
     0.3009741476678918    0.8748113066428019    0.9598754607051135
     0.8310246411084835    0.1866819085704197    0.1288719249463578
     0.9246198062483115    0.0935188297291610    0.3881941864518825
     0.7667745391644496    0.9580308214753952    0.5162239399144311
     0.8260537699873248    1.0181671539088482    0.7046751519340528
     0.8612363030369214    0.4800516255583900    0.1069548437028572
     0.9268493611352101    0.3579103545009639    0.4283543126151252
     0.8068514421555888    0.6017041707927885    0.7897450607382930
     0.8276917740676291    0.1874149970035556    0.9317469085872407
     0.8962262398425095    0.7149265324451307    0.2101880412092840
     0.7510903979330271    0.5507503811593520    0.3450146615250724
     0.8851438160027085    0.4550390314437552    0.5527142921617865
     0.7906851931755020    0.6339460786777233    0.9721856870025585
     0.8539898283866678    0.7641695412025070    0.1415309493279582
     0.6902056454249796    0.1343589538469548    0.3948278110158375
     0.9962981235462783    0.5965989321420226    0.5480418534520523
     0.8065895972955777    0.8493992594279437    0.9424701384448492
     0.2075296093515194    0.2008076559640365    0.7779442036652436
     0.2099540375664688    0.3372422584502122    0.3365919093460714
     0.1140430067116929    0.3488073861914503    0.5699839637744006
     0.1250589028062833    0.3548179439772701    0.7984138139564498
     0.2428315490676809    0.3672102180922573    0.9827001003946717
     0.1858388160480724    0.8241133080211247    0.3715823497430537
     0.3021491936212692    0.5234752250402844    0.5522302278816296
     0.0806614181836811    0.4892836565896093    0.7552086652093697
     0.2028241546079116    0.9240570303418608    1.0307811402869040
     0.2838530257258788    0.8153203623399871    0.4828719738462312
     0.0637695374906116    0.8761792774418318    0.4983478030632006
     0.0382471829902497    0.9501880868283832    0.8286539055217875
     0.3053562892966631    0.0717957421487786    0.1328089003687120
     0.2255113695180461    1.0579752706564871    0.2332074648010416
     0.0772350017884278    1.0333588412348567    0.5523797234901592
     0.3688057366445026    0.0836155042916225    0.6204253798505486
     0.5876514598925444    0.3627530376556315    0.0523504392671953
     0.7566419335550135    0.3720504386035732    0.3610423750275707
     0.6283346939270107    0.4742960459946380    0.6688652538671069
     0.5953589877035825    0.3614993119085064    0.7558204669249768
     0.6708725490240680    0.5540209344628709    0.0550202232204431
     0.6338020851552782    0.6955329550372641    0.2085627690824162
     0.6947573672804580    0.6032289338387803    0.6837480651240926
     0.6010354218756990    0.5359881612733232    0.7951425952008769
     0.5876265854140291    0.8651733238878551    0.1849589355558420
     0.6372348748184655    0.0636386900408516    0.1554689631028686
     0.7234027079224069    0.9109115120886878    0.4298210679624200
     0.7033384307760454    0.7341625984897497    0.6942821951559728
     0.7805943120470742    0.0056733406506059    0.8979492673434253
     0.6725416495285562    0.1386533452485018    0.2334615586472226
     0.6186036897066888    0.3297126865388487    0.4577677699091667
     0.6037238690738399    0.1220489106939431    0.6509233512552214
     0.0655191151256970    0.2354188016403088    0.9141506534080238
     0.0227727378515793    0.2090111972281691    0.1718828940042740
     0.9826293235222470    0.0842372965278825    0.5730340763469078
     0.1031250350924119    0.1194544909833989    0.9386580139020764
     0.0408319725217448    0.3476969630049613    0.1378502599238428
     0.1499175118336774    0.3647644818086679    0.1071978370209087
     0.1167685417628858    0.5049563300255892    0.4059403077282063
    -0.0193234863920736    0.3424715117759593    0.5429353967683955
     0.9952152074846022    0.7142432952822793    0.9662749030318332
     0.0867319591205865    0.7229537992924895    0.1311681765830123
     0.0856144198960590    0.6471974054680287    0.5680309761094254
     0.8548220228562610    0.6037595112168781    0.7094695923929915
     0.1030486177223445    0.9279608365424967   -0.0078532759637032
     0.1962850391895845    0.8834526299008203    0.1733897192279424
    -0.0572254170572577    0.8102463035662520    0.3883787054415141
    -0.0294510287477926    0.9761507454862063    0.5080582718846463
     0.5344112641979077    0.0361359431580132    0.0432515985517696
     0.5327904255161535    0.1499233653666521    0.2438202506434701
     0.5038841205415910    0.4703602893240860    0.5716914220911659
     0.5229482850812032    0.1564779279786120    0.6207583372196029
     0.6043557916203945    0.2215662323110222    0.9624924955114386
     0.4827477955897315    0.4896530012598372    0.0949431157733411
     0.5524098382143947    0.3758141266967647    0.4145543973218505
     0.4425645343795750    0.4360463714594132    0.8879441955165834
     0.4095013111848799    0.7493406724439704    0.7359207513032245
     0.5539902634837367    0.8092383005732638    0.2225409487815943
     0.6252628187555904    0.6831623919432586    0.5127342253458006
     0.6274363204363627    0.4685344457169147    0.5450961830045395
     0.5590792423049683    0.9171141542655933    0.9230943510733753
     0.5037214636150268    0.0350035719551839    0.1854692586291719
     0.5906997248115665    0.9494772947451791    0.3840262063327122
     0.4934468527986124    1.0268435290579121    0.5724539137591875
     0.0326895591318998    0.2705044679860783    0.9651823328895163
    -0.0302825966121437    0.2037401118390725    0.1740158536625858
     0.9933925684969606    0.1171412627997377    0.5341468673541250
     0.1483856186353305    0.0877294269347516    0.8969915879298100
     0.0835650974091615    0.3140150773094023    0.0994294950088441
     0.1898935952603490    0.3847991824941616    0.1538787912946548
     0.0684789974535390    0.5359908808441288    0.3835421683912709
    -0.0144657560714968    0.2824992181056459    0.5527250825124258
     0.0392541102910669    0.6643135321893361   -0.0377893519459392
     0.0480248941999481    0.7212684565133833    0.0900912191565116
     0.1173710787485486    0.6322952705774576    0.5160762810065663
     0.8745239963328427    0.5477982312230865    0.6656942135613694
     0.1066641005681015    0.8637777523105118   -0.0377184867880253
     0.1822317934260194    0.9348982711784134    0.2281383555367635
    -0.0194597889906655    0.8528128120652153    0.4290885436260031
     0.0031485529400139    0.9362826073316124    0.5378788430322575
     0.4893666849597362    0.0859003193576543    0.0687183266104350
     0.5077161014298897    0.2066388348139383    0.2773362966016646
     0.5393122247726152    0.4319575147854156    0.5973006916658986
     0.5275822802306217    0.1614393102041533    0.5586643878140437
     0.5618985423626627    0.1866546732431323    0.9577848116905806
     0.4290889145465519    0.4892510941282409    0.1167577855642375
     0.5380745836036913    0.4358005831827726    0.4601558386521999
     0.4881591913906474    0.4557710661717974    0.9251925773022782
     0.4634455266986467    0.7470265573156892    0.7187819088194193
     0.5100769856922706    0.7985167827360933    0.2475208919149861
     0.6405682898637280    0.6622943284344405    0.4525055458733534
     0.5734661865510561    0.4859787986245014    0.5292711766684521
     0.5013577210772443    0.9075725029133940    0.9257589931647411
     0.5535136037964126    0.9896466886513903    0.1888869872448971
     0.5389397555303265    0.9818214785618691    0.3769016820859287
     0.5417927411994055    1.0401696303193708    0.6018108623212830
     0.0322599061702403    0.0874917948816806    0.1064986280451307
     0.8421709018737722    0.2775172657710537    0.5197108689305099
     0.0692041702368896    0.1935672260898776    0.7375011530909531
     0.9209185005164332    0.2648783698173585    0.8563105098860475
     0.0738329354250381    0.5604388086171779    0.0735666310803154
     0.9789424451036913    0.4312702288217124    0.2231977826943687
     0.9644505615338906    0.5032352637700388    0.6374697428164038
     0.9947612510294516    0.4633989975374409    0.9447687286716990
    -0.0323012624284060    0.6486379963974034    0.0600267609688218
     0.0598897495095695    0.6653365657959944    0.4164116644563989
     0.8778580067751591    0.6597118191431977    0.4569144222892784
     0.9764461501375146    0.7771380903414209    0.8487302716485393
    -0.0021473023479276    0.8751536714919007    0.1681000358000668
     0.0318285324504226    0.9642478299698916    0.4126388799059093
     0.8715022979326943    0.0586233291859670    0.6646948386809540
     0.0211715872340135   -0.0012445755318576    0.9549905303380020
     0.5558963781363541    0.2130391089371251    0.1570894097178061
     0.4165267444405488    0.3001085423029883    0.3600177037131234
     0.4258179339124635    0.3167842066420677    0.6693807099173706
     0.5871888343732589    0.0670987020451561    0.9388061734893973
     0.3895796176834684    0.3519129455725448    0.1689706846639766
     0.6226581954294175    0.5608891740611123    0.3014168111403954
     0.4990295214630882    0.4796036193479624    0.7126105716440825
     0.4089798131832684    0.2917990108647715    0.8983309108132417
     0.6381525315588140    0.7480234292325724    0.0644677230088214
     0.4971866031328998    0.6864647760709057    0.3170116081979262
     0.6042621341332323    0.7372986398353732    0.5972179986525015
     0.4361589379353447    0.6780606597355018    0.8909492775983003
     0.5252310275172020    0.8862183223060550    0.0755141668725169
     0.5327908647672795    0.0639978852490802    0.4346466697308740
     0.3708470943087727    0.8980878713936736    0.5671901115386506
     0.4455513240901567    0.0131273187389222    0.7700480105221394
     0.5136959815935049    0.0616704294973091    0.3121056300005502
     0.4073787767390698    0.2299673184646244    0.4055737339248452
     0.3608873596193127    0.4119581078320892    0.7207991210213038
     0.3617550467132361    0.1185048104696287    0.0640702662368934
     0.3828553365500949    0.7386089316239891    0.2094879338488859
     0.3987950487424058    0.5504054216047580    0.5115625644781393
     0.4164483517174238    0.5331309875858049    0.6565901495632560
     0.3812821945768530    0.4900290522177552    0.2455074284240473
     0.4747867132317732    0.6557323837014030    0.1877664950730869
     0.4642466796967551    0.7847065306104259    0.5496737626338085
     0.1901897386746919    0.7868529788202868    0.8005634019931828
     0.3724869860331396    0.7952478413050824    0.8698413697674419
     0.5838838879226180    0.1568354635744513    0.3414959246508580
     0.3500781565193977    0.0144308057835934    0.6986643549403798
     0.3451671397511434    0.8340977687252401    0.7544140372703729
     0.4428006045705916    0.8566453150439026   -0.0617075307155330
    -0.0222038884821221    0.1750950874585245    0.3775669569051524
     0.8691145594012175    0.1670576170408488    0.8254009664004551
     0.8358683943036741    0.2814840493021892    0.6495954702019147
     0.9336557680078275    0.3657836590053424    0.1464095159211564
     0.8910629058560647    0.6651264491157166    0.3575087741370668
     0.9747986729089746    0.5827698350839831    0.3629246227728282
     0.9038223037349231    0.4407596350878994    0.8556318603581391
     0.9063588355188226    0.5795248956975851    0.0414399289202607
     0.8867277944037568    0.7707491065075077    0.3191395295008727
     0.8148068024034802    0.8133972665514764    0.4736461972493220
     0.1902425426467070    0.5399217474412867    0.9745736753914266
     0.2264730422866778    0.6397350562683080    0.0922293937926085
     0.8501056718468785   -0.0057632009965187    0.3204479629187509
     0.7496135489058873    0.1792952040942906    0.6361189443297396
     0.9399207101835575   -0.0439326064346125    0.7928906403841522
     0.9406490016425519    0.9567996945564975    0.1429926156973197
     0.2666896593313295    1.0254364117889772    0.1249257344483494
     0.2834638236878758    0.0459318345069618    0.2355588964519088
     0.0976421181424383    0.0400390658213627    0.6097162923784830
     0.4111275328622591    0.0318625270052354    0.6064288346352923
     0.2152104385068059    0.1518391067531064    0.8095818636758122
     0.1608719832508901    0.3769005461391920    0.3582893018997438
     0.1498886975265485    0.3085913767933259    0.5999410708146732
     0.1304325314900805    0.3617473933427711    0.7384182759158997
     0.2843163711346377    0.3329600524031592    0.9406331385614409
     0.1507075710592718    0.7842765218072049    0.3797032589445120
     0.3461761740178801    0.5374818784949135    0.5941540611784444
     0.1105221872498711    0.4460615722765597    0.7077239362755334
     0.1687408518483578    0.8894082170202555    1.0457750665526020
     0.3157797992642102    0.8618492777341215    0.4800532674242977
     0.0848301427412458    0.8981176515243510    0.4557947646235059
     0.0282379610287814    0.9290264616991364    0.7653815675564417
     0.7819437880854131   -0.0275482587053877    0.9400977486404115
     0.6365333434010626    0.1697796891780422    0.2766606725559903
     0.6400129966641915    0.3722146155113387    0.5118670917468597
     0.6491551609931856    0.0859713564086925    0.6224160371419495
     0.6039870478840422    0.3109132712908112    0.0770398653409512
     0.7095414240152472    0.4061606919455147    0.3383551997748212
     0.6131340020786290    0.4094631257128513    0.6527733754876663
     0.6483512097943342    0.3474851114273143    0.7325223760793557
     0.6546960523053584    0.5617614905184021   -0.0049416912110370
     0.6287671391184414    0.6340941301954808    0.1623160077336330
     0.7031050866896658    0.5363135479298182    0.6654752645281520
     0.6356765903939023    0.4889645109227212    0.7607789804372622
     0.6439144097983825    0.8778968514300386    0.2009347708488602
     0.6497962927417268    0.0121545158622952    0.1046238976583855
     0.6799922405828465    0.9023973660799781    0.3850373342014568
     0.7411071051876617    0.6803709623863701    0.6983462945134118
     0.2219009705074128    0.2227332885261573    0.8401517689584120
     0.2134626458074036    0.4002086715689234    0.3754787556741421
     0.1676114751832919    0.3573996298258667    0.5826345648597991
     0.1747203183803408    0.3356976162189382    0.7662665689136567
     0.2934867682816589    0.3825144968688885    0.9948754102219027
     0.1809568775766115    0.7654513197931860    0.3228955066592502
     0.3013502803994007    0.5881802241881797    0.5939384417539738
     0.0946625436690671    0.5104427194652310    0.7065454406297522
     0.1979425494492243    0.8550758260985813    0.9958390562803594
     0.2925176246107146    0.8196999697880619    0.4277039726523527
     0.1196477180035757    0.8862794327843109    0.4995147116089525
     0.0746536217524386    0.9540034661908459    0.7904656809030796
     0.2705596725491202    0.0557535481184188    0.0789918676300520
     0.2557414864947662    1.0361487960996740    0.2800466779964683
     0.1211253053152163    0.0716075735911125    0.5756438025237786
     0.4230025496903776    0.0952304515142877    0.6426076066326283
     0.6421561359839655    0.3316594405315018    0.0433623071315638
     0.7624209625986396    0.4207140692541607    0.3317281210100841
     0.6584083319053399    0.4228064437374853    0.6304059253562003
     0.6380939286000079    0.3800156204236996    0.7979748308350456
     0.6719083616746006    0.6131573197199468    0.0430652659293459
     0.6801489609741340    0.6475574729102048    0.1960695835966270
     0.6854986420766589    0.5747446371035840    0.6213540728503529
     0.6543696757336093    0.5514374732468285    0.7893915688285390
     0.6240769931582321    0.8687112885038218    0.1386361772765780
     0.6751608866564504    0.0085160068766795    0.1615397675790908
     0.6917492359186871    0.8636498899588436    0.4275810925096702
     0.7595215813962772    0.7312676143390420    0.6816817521533038
     0.7981533772516880    0.0361603886644826    0.9600949581216083
     0.6880533738011806    0.1353582374071444    0.2920268820157624
     0.6295679128803948    0.3075651538777497    0.5115634633512076
     0.6352266067509423    0.0830859788510623    0.6796563107568963
     0.1288054891971160    0.3378217333622939    0.8639960683902880
     0.2189054877494514    0.3325787978522551    0.2132900699451004
     0.2242506327593302    0.4252124919431465    0.4844668107540223
     0.3266651230371121    0.2895743273541692    0.7832576666119101
     0.4032225254155046    0.5103893941145424   -0.0165179272716044
     0.1975329170024304    0.5862355641074386    0.2204364593853535
     0.1665754939480571    0.7160171223390953    0.5959371484997914
     0.1953098892538734    0.5685777873482358    0.6223866078644662
     0.2297154381068901    0.6749602848843930    0.9476393605138550
     0.2665017316212300    0.7358704917286144    0.2569742433325470
     0.2420736461157264    0.9663940665721905    0.4794204128170169
     0.1351282731310849    0.8295000335879122    0.7017747760567701
     0.2916732831006763    0.0500502416362355    0.9231024563877992
     0.3274756759361017    0.0946517826112332    0.4180275047006785
     0.2283259289327609    0.1824870860440567    0.6333350924662027
     0.5255227126458522    0.1003295511381255    0.6906128121833739
     0.7746819821806135    0.2408031456852101    0.0224989489655215
     0.7867855582280415    0.3169621158251246    0.1844084397780142
     0.7696221159495888    0.3008868393200602    0.5431083760240637
     0.6850452948007364    0.1952301842948056    0.7129535955838212
     0.8181485382797791    0.5431451138869603    0.0167069846590014
     0.7965711726091260    0.5671954861339196    0.1989163371088537
     0.7112954858448903    0.4474644589737286    0.5059612536700238
     0.7400620092799317    0.6660338805511844    0.7838266111501457
     0.6351069452486863    0.8061205754680674   -0.0249768275277604
     0.6052680507173920    0.9589720481038291    0.2736498425526284
     0.6928756879511682    0.7649624408613418    0.4716194168603064
     0.9061198106428372    0.7326058682051692    0.7222479510560542
     0.8874819217382504    0.9617569252304521    0.0065924483243875
     0.7482590588681808    0.2190400197248032    0.2246645338887743
     0.7148173898765988    0.2378477931745090    0.4312295100168802
     0.5731014042643562    1.0512501792479616    0.7883256932701561
     0.4825675810309463    0.0536556139902094    0.9894800943554274
     0.4497576094959208    0.1563717154814573    0.2057215668190927
     0.5043887193622122    0.3663939772029363    0.5120345373404271
     0.4418000324339680    0.1825981506146432    0.5833106361765253
     0.5294267097667350    0.2843802410862842    0.9569136562107280
     0.4776952149564455    0.3930464801626752    0.1126285319363822
     0.5350880099546980    0.4439745068156623    0.3866027036319298
     0.4733289426451015    0.4959131815126210    0.8727823344973231
     0.4578396706125817    0.6998334164231492    0.7934972851493886
     0.5179475440255098    0.7475803505218778    0.1495167745583806
     0.5554669863830949    0.6490705250580220    0.4598127651504130
     0.6028396589883189    0.5757144611433582    0.5867732608097627
     0.5206570242831758    0.9130989270361900    0.8370263984072648
     0.4798703570429221    0.9369831180328523    0.1784266423121038
     0.5469193091500728    0.9551035296391102    0.4637771009933465
     0.5169712727721393    0.9509546953090553    0.6179016567716896
    -0.0318925579030916    0.3110151885858716    1.0227213765441330
     0.0122648374356674    0.1293534151765791    0.2134502949490198
     0.9275026361668912    0.1771741536646600    0.5882333749084717
     0.0810775746684152    0.1249085407877365    0.8460059118551372
     0.0416499821080436    0.3823125695497058    0.0544285567839306
     0.1336109617567315    0.4740575829311419    0.1488286746544662
     0.0523800685830421    0.4387801692787304    0.3703389966451618
     0.0372791775002887    0.3509369667188458    0.6182264083489332
    -0.0251198580746163    0.6246301098720566    0.8990833273989391
     0.0141346358097804    0.7673654243822786    0.1814066156034807
     0.0630305602860313    0.7172088501476136    0.5187491784856887
     0.9235340959387637    0.6087977051031181    0.6898832951286419
     0.0224518141600439    0.9027508059708721   -0.0374017768926727
     0.1156399840841952    0.8814553421228859    0.1983968541713710
     0.9167091043385961    0.8951621742111769    0.4320507382414852
     0.9247746060178794    0.9561709039579840    0.5765365554313443
     0.3408877293045910    0.1948755789615442    0.0933358229270134
     0.4488137230834069    0.0906300007958686    0.3066560940255791
     0.4016833106871041    0.1831745373480254    0.4510782800306772
     0.3605300472032323    0.4179769901781188    0.7925243856194542
     0.4317857789913965    0.4977283392852437    0.2095173683424480
     0.4278600068243377    0.7769891687199837    0.2616100440673532
     0.4595064629472841    0.5151675214495821    0.5098497512878011
     0.4147655424612292    0.6099948788079624    0.6851791308925634
     0.3090220846598978    0.7788477110284903    0.8539959668103057
     0.5015188818179426    0.5894030141721911    0.2025107445162885
     0.5267885060146484    0.7439308845695070    0.5226843691451862
     0.2301883071479246    0.7837067158484802    0.8560248602780743
     0.3825531535677422    0.8513668397092514    0.9571248095811548
     0.5945999188238527    0.2070347980130175    0.4087199703046294
     0.3237224145325980   -0.0556678690814059    0.6911880031514396
     0.3013596749457340    0.8616277154575349    0.7103481234996578
     0.8943201289887952    0.3817286697031008    0.0974371986125612
    -0.0565411133442418    0.2406029182656081    0.4108311015435882
     0.8240208705323244    0.1976672781283963    0.7789530981613273
     0.8252462936336871    0.2507612746034880    0.7070560242405877
     0.9255164096528339    0.5342949673445773    0.0843077021239301
     0.8565515959558675    0.6342510964108564    0.2950337337489852
     0.9368332065271165    0.5214157022574403    0.3318207374477399
     0.8587837392213818    0.4070418302809998    0.7983639157742957
     0.1601845339835749    0.6728594676791372    0.1010828901664424
     0.8601856342355647    0.8101503092975302    0.2697727604167263
     0.8137152638728956    0.7822808517410497    0.3993607320336588
     0.1298086633696159    0.5801566685173491    0.9919753884440643
     0.8949800448450516    0.9952501065233442    0.1926369451222918
     0.8795023340735495   -0.0352841332764676    0.3729077261146279
     0.7835095158507568    0.1256978865744627    0.6649563969981159
     0.9541173541485367    0.0144700557129860    0.7730770994410442
     0.8834687055052267    0.3028467624675189    0.8930923279967636
     0.0576257612857979    0.0294075003688032    0.0725312230846616
     0.8942766244325774    0.2541213008181165    0.5108633573918042
     0.1039183757699707    0.2421641402891050    0.7601620122567875
     0.0426099998590896    0.4166974021513620    0.9430337939545129
     0.0288174864351330    0.5323391051726313    0.0426021900567152
     0.0273499810194216    0.4607635132150102    0.2487358320321527
     0.0199117031433212    0.4882060289022023    0.6235668595902496
     1.0029288375593479    0.7120478137819386    0.8329828848535412
     0.9263564036452189    0.6941485473179058    0.0995554784576487
     0.0759957874788467    0.7169349939463762    0.3967546255815837
     0.8636911216192084    0.7226230981932020    0.4975264529314759
     0.0013732011003168    0.0125867225324583    0.9028814416637541
     0.0249099083218394    0.8960057314256881    0.1270858648568720
    -0.0202214206393571    0.9915752311936784    0.4054290090616858
     0.9014628163957555    0.0895964435706940    0.6322150199359160
     0.5640323367108425    0.0211252846763569    0.8937265447735637
     0.5195424015661578    0.2646260341653606    0.1446662871664872
     0.4701526162679132    0.3191420358554573    0.3753905641161978
     0.4653443853609672    0.2690413046778956    0.6400480013624906
     0.4156576521683403    0.3582424140633111    0.9177885032973494
     0.3781888679552927    0.3746365815542615    0.1173573970753604
     0.5935108231537820    0.5938914289174748    0.2593382639441281
     0.4955897036503674    0.5434955584297975    0.7556182205053438
     0.4538662400163769    0.6201748259394588    0.9106987335217720
     0.6445492236904127    0.7370194071969306    0.1218127730250686
     0.5278675106140966    0.7403129518084089    0.3346537349482354
     0.6612354800699823    0.7402388845750494    0.6153702811750947
     0.4925512927346882    0.9727348402282984    0.7512181749906397
     0.4840641126576395    0.8523218979184566    0.0351518524805813
     0.5169842730066420    0.1321604421520566    0.4625434018414306
     0.3966841704013507    0.8979164490778656    0.5137852387028293
     0.1631934865595428    0.2546360063047582    0.1607004599830459
     0.0696156229387128    0.1248280009629928    0.3960212406542121
     0.2279752535045664    0.2512297974736882    0.5346401281551932
     0.3182042878852371    0.1224503813659418    0.6962646361004199
     0.2632289502102012    0.2693659719119030    0.1155139320104666
     0.3266000322219381    0.4848027932297081    0.4511769426065838
     0.3423989339877093    0.2714222879744221    0.6584776336763655
     0.1147724943341274    0.4671405964238788    0.8273935352269634
     0.2218915148530572    0.4462977471582283    0.0920804442809248
     0.3375320917851737    0.5521862696917463    0.3447544616345942
     0.2557779652444139    0.7204502826340218    0.7459278008599465
     0.1585887132689030    0.6172186412750665    0.8650704968780712
     0.2570080480889513    0.9200828608941969    0.1157034018398879
     0.3277270045738115    0.9498549273911323    0.4478363825707879
     0.1504501371247548    0.9874541512521752    0.7156281808295702
     0.1473259154510696    0.9391050621306598    0.9060779034390207
     0.9146463479656609    0.0973919697047917    0.9163861664506290
     0.7848266340156007    0.2976148433006596    0.4030961852817908
     0.6407360741564249    0.0490213163855628    0.4631932186015331
     0.8279608147771558    0.0522176884536679    0.8139029067016369
     0.7016319967516259    0.4163304209348306    0.1796993802829158
     0.7891263250478117    0.5115421687683311    0.4134793576499864
     0.7724790762313800    0.3564962333986506    0.7323241047106042
     0.6478012448424273    0.2663634785486619    0.9035175161969569
     0.7008920084077058    0.7659104738938530    0.2251367074406795
     0.6179789946783099    0.7298990505489403    0.3731443203056379
     0.8772472239160317    0.6792168303358237    0.5973416474040107
     0.7074759246106085    0.4674865324736673    0.8303132381681957
     0.7470719319535521    0.9804908986986868    0.1234891135558395
     0.8278312326324238    0.0423667263056499    0.2359852458861854
     0.6996503778938988    0.8477921660855231    0.6660000224957696
     0.7160703922478743    0.9353096553855287    0.7800213060033481
     0.4791439978922976    0.0326910573319224    0.0156289721257410
     0.4772094039427843    0.1596058243571928    0.2305257037758407
     0.5172648085291223    0.4011257550754209    0.5333833483556080
     0.4778367759292509    0.1822721963048991    0.5837716199993058
     0.5520775312833813    0.2504835518382115    0.9499709501768413
     0.4678328784631847    0.4354387811916035    0.1117933666564427
     0.5155079137537985    0.4233658233088947    0.3975489738908505
     0.4540939383870783    0.5007415231593405    0.9032906781115574
     0.4519212974395569    0.7145331524231850    0.7619430558186779
     0.5252655358601149    0.7535270588580207    0.1881135830272182
     0.5859506146846729    0.6651673173161271    0.4694810485218608
     0.6044427289299502    0.5330689656632339    0.5622297338823623
     0.5269252686024833    0.9020957599079991    0.8694406163016454
     0.5020147832855838    0.9679127542911303    0.1773950016346754
     0.5544816945804473    0.9637334359395257    0.4320824467733025
     0.5210315211972807    0.9790231540314976    0.5965808995411763
    -0.0362916109648743    0.2831905031268823    1.0130208454688114
     0.0065742881486732    0.1657058318601580    0.2046725220846996
     0.9567613693917216    0.1525615956854234    0.5840940831187725
     0.1033869803408283    0.1243926851934122    0.8763451642914231
     0.0506307056751044    0.3702729905773911    0.0873463649343387
     0.1470483539773838    0.4315020551385997    0.1472137469454049
     0.0648334158074323    0.4755695024181550    0.3866999947610092
     0.0107777200378024    0.3349514690523476    0.5915962857235831
    -0.0061504318724260    0.6520434620979143    0.9221090697945282
     0.0372624677275320    0.7576474632372339    0.1514045449052604
     0.0826125694643585    0.6887467264246111    0.5335265939765962
     0.9125971250401413    0.5827389299171599    0.7082327886556377
     0.0558908713959537    0.9041130170360152   -0.0386383500573291
     0.1494000808760030    0.8874625065335704    0.2003338647751779
     0.9238693987270042    0.8624741406743504    0.4433039500446917
     0.9498110859324742    0.9507798204226700    0.5524194675601590
     0.2637330561824154    0.0144899476273848    0.0173642180544591
     0.2591591916793278    0.9799622773681659    0.2978670501582640
     0.1544503363191550    0.0796295247540531    0.5338797978786387
     0.4382102544033871    0.1552610200134116    0.6695137485384242
     0.1643710267605317    0.2130304754363573    0.8487948268030630
     0.1931956789361009    0.4555707802792192    0.3521168119378216
     0.1868409870276969    0.4159155575217129    0.6251964990734817
     0.2026041218223784    0.2735074582654524    0.7450283333105056
     0.3406649985939963    0.3807738688256965    0.0326111890927037
     0.2245180413030905    0.7363342510906531    0.3551651616262856
     0.2685422654385156    0.6088465256616158    0.6457459661156588
     0.0763459284188591    0.5746360464455578    0.7036781821154784
     0.2222951747921061    0.8176999217841366    0.9387100972982017
     0.2551254105975457    0.8533814309614866    0.3922226452753025
     0.1605447208403523    0.8305711982378192    0.4892763890874071
     0.1144247767586413    0.9943020229258444    0.8121379308901773
     0.7707105420750441    0.1050978935266764   -0.0122770994076068
     0.7102492674404963    0.1916029134113271    0.3359617565396103
     0.6310518820490315    0.2822618985185134    0.5618932960682160
     0.6589138239096410    0.0216614395413513    0.6961395312719431
     0.6590194215200308    0.3655275827174216    0.1054888314395848
     0.8010138716134364    0.3715018560849701    0.3033552336164938
     0.6929743630834515    0.4383478163034613    0.5908063250962228
     0.6527879568985235    0.3759703452568837    0.8542701144451589
     0.7099192584058451    0.6335143657276595    0.0178587571513702
     0.6880605592089509    0.5810530229135056    0.2049007675838228
     0.6907001932446204    0.6003853847285131    0.5751673506194469
     0.7137608474339967    0.5557376261955514    0.7990857036030968
     0.6247666305147745    0.9201515177344245    0.1094025585114633
     0.7014079486256469    0.9488016285659138    0.1662513559918724
     0.6409120074671911    0.8999871214569024    0.4576080016067889
     0.7874375159786284    0.7661416625369127    0.6534124292167045
     0.1845885907683872    0.2221568678277668    0.1410009276544201
     0.1044067615068438    0.1201391017882172    0.3878024222354037
     0.2223476087926312    0.2138133883871827    0.5191177165003298
     0.3340479211364767    0.1179911626408453    0.7314203322863184
     0.2486372153034768    0.2547655556809156    0.0788483553234172
     0.3404209593053419    0.4569215941625543    0.4214369169172694
     0.3353111569439320    0.3056310710582548    0.6468394138314281
     0.1483011748019805    0.4516704927816641    0.8273727323817366
     0.2509910491376268    0.4640074090652595    0.1071413781894572
     0.3083401148068381    0.5828731412034976    0.3530248979669007
     0.2635446214429397    0.7233781642446473    0.7119483608727125
     0.1809722070555532    0.6278787923526173    0.8464085380136160
     0.2668367610834509    0.8783467335845848    0.1082749428412465
     0.3542980813524660    0.9256405266929068    0.4247270230969131
     0.1709376738402399    0.9831113040377285    0.6879996853026547
     0.1823149795260169    0.9289832483903733    0.9023527297355847
     0.9021872570234724    0.1109260071155545    0.9522414851019210
     0.7951493206207956    0.2580601925672989    0.4031517577263141
     0.6717199560932355    0.0634844521604804    0.4725056638827388
     0.7963054093415137    0.0732402600905010    0.8115906895803336
     0.7273739369848602    0.4225356704716702    0.1625400238527888
     0.8133997466842322    0.4785415581266246    0.3938134931618817
     0.7878385366152649    0.3887718449663288    0.7420542868398904
     0.6782382078261194    0.2513315117972989    0.8918264991417938
     0.7316314067476418    0.7362189459071584    0.2166400715835501
     0.6452362291673985    0.7016864870844663    0.3703551456369089
     0.8642924838493081    0.6458377968884039    0.5691192717431909
     0.7259101572260149    0.4922342981698097    0.8538047939013749
     0.7673146213437723    0.9426987135638052    0.1255477651066857
     0.8115882635857194    0.0377098801261396    0.2641794956329256
     0.6887934547971509    0.8759679203667270    0.6471475635859616
     0.7459589650753961    0.9162104572857669    0.7836973176036744
     0.2663487096827973    0.0776317324489329    0.0272356861626979
     0.2727600826825680    0.0387769088521230    0.3393208804684497
     0.1297220630138773    0.1372480839856567    0.5774010935098820
     0.4397504842474779    0.1081094643630241    0.7036200363975947
     0.1945458071820823    0.2616936974057015    0.8958695345962356
     0.2462500711608518    0.4139353354180437    0.3401312705577451
     0.2209756414395536    0.3752659714432326    0.5836279305481993
     0.2281718389704691    0.3350232951192098    0.7531335583410431
     0.3317321929449613    0.4281019802554885   -0.0006325347326429
     0.2007125032740905    0.6958514344471245    0.3026439712832081
     0.2487188576133100    0.6313742590824962    0.5916170023038148
     0.1314735725859303    0.5606417999870776    0.7164231519301913
     0.2413175829641941    0.8064684448344906    0.9969753257332810
     0.3032312176133174    0.8203869679227034    0.3687954043192760
     0.1788982573259432    0.8906857639976605    0.4999490189575132
     0.1329521885005543    0.9304585727679657    0.7934970009509041
     0.8136907725300315    0.0817854491301263    0.0208432589213437
     0.7431270852998553    0.1481472756765090    0.2904217151067596
     0.6506858316482848    0.2387535190288606    0.5074940156390884
     0.6413579387347718    0.0858314345205545    0.7402716036050975
     0.6990907270223317    0.3338907790887201    0.0653644905376014
     0.7849379514906164    0.4206512834919496    0.2740661244093698
     0.7155423722073403    0.4025453376030159    0.6300076585571733
     0.6602512329369347    0.3169700336889487    0.8076807916032505
     0.7246489710742945    0.6142310739558289    0.0730201549756520
     0.6953542047200094    0.6331460712542488    0.2565971123860596
     0.7348081230990113    0.5525596734741401    0.5842119725602187
     0.6762300100100819    0.6104969227779578    0.8256141782251591
     0.6594293005857796    0.8599907549175233    0.0898722209550483
     0.6804906114185577   -0.0016710004735324    0.2180636925120840
     0.6686611562136837    0.8585137124425216    0.4864282233863571
     0.7954172849031302    0.7769893609636784    0.7156877114789767
     0.2196835875051257    0.1618232802660764    0.7767767569630574
     0.1754332815342862    0.3404894647885491    0.3420347074306417
     0.1192861408018576    0.3255324346351516    0.5923934529869985
     0.1092340794444515    0.3586172719391300    0.7647923362105836
     0.2524395331494348    0.3322216902842818    0.9555980610805889
     0.1537587546333859    0.8212619382530051    0.3845158813483503
     0.3348012103665655    0.5098819607137350    0.5611912623407820
     0.1077036755192313    0.4575452372935790    0.7452430034074350
     0.1872493818844067    0.9207750872530572    1.0592505737048297
     0.2937950307298233    0.8516680149269104    0.5034059964094468
     0.0615896823441093    0.8743544562279336    0.4627152523678237
     0.0195642517319742    0.9262359442923974    0.8003683366266225
     0.2981967527353004    0.0342760457444429    0.1382275980298107
     0.2549358492201404    0.0450455006671954    0.2113559513490728
     0.0719592052443741    0.0347590017354098    0.5877313002763712
     0.3769842651572121    0.0426215595645625    0.6089184994564830
     0.5761992110526603    0.3285868164967714    0.0565211554909648
     0.7222217656055225    0.3749489876925951    0.3530301862993617
     0.6097949315385911    0.4478374178270929    0.6783641493333392
     0.6146925812936765    0.3386580072549095    0.7254720324048451
     0.6559666674168343    0.5356554095103532    0.0190813004902704
     0.6191161048854436    0.6792903336889006    0.1739230549928207
     0.7185600122808763    0.5693471313998730    0.6860428402532990
     0.6093226532321143    0.4954009230812587    0.7825260826873448
     0.6120481018877703    0.8816271155277352    0.2111783266710097
     0.6237934306665738    0.0409346671313444    0.1205610922094331
     0.7102378167104189    0.9162457329787533    0.3963096344737376
     0.7117372546947169    0.7041307176228735    0.7101180191092765
     0.7619996670854167   -0.0177050346847530    0.9105123414716196
     0.6407890251138245    0.1548836594013746    0.2387123579603703
     0.6338933123893828    0.3631987533977828    0.4737396409757005
     0.6148152291440675    0.1004261316512450    0.6168089658159858
     0.1300077870527707    0.0634258991554370    1.0189704301265927
     0.2003303158424260    0.1955203481947630    0.3401486487292241
     0.0427096240539817    0.1797515305098441    0.5345726667150600
     0.4146253086788849    0.2803647520703367    0.7667229614965011
     0.1497988406883103    0.1899727361352886   -0.0119314076105279
     0.2726276635683982    0.4510856771308351    0.2135377551142116
     0.2948484177572176    0.4853770026713672    0.6721522837540044
     0.2091545676053040    0.4677065589829253    0.7281074515914837
     0.2652840820501625    0.5847005714189929    0.9961683552181050
     0.1859562968118521    0.5597602588695677    0.3778272836205031
     0.3161521462562705    0.7548770940678026    0.5456079414680536
     0.1450727537839492    0.7253001565111343    0.7303643829285069
     0.3717024909205480    0.6958717774191885    1.0060264814627113
     0.3151468970062454    0.8992308441085656    0.2386660932071776
     0.2377477155347006    0.0590116642360577    0.5953226193492425
     0.2163183987022642    0.0499242759231542    0.7967857118430731
     0.9563403049609316    0.0404394985098799    0.1161740029667458
     0.8884954714392868    0.1847310150064355    0.2501525562319254
     0.6345596880455744    0.2125136561622461    0.6174872977410699
     0.6939984933071649    0.0829538772834369    0.9079544578291101
     0.7398891882393254    0.4435520390640698   -0.0264310653784895
     0.8667699206252525    0.5130911035640388    0.2355847279033911
     0.8009358251940164    0.5072017310532796    0.6132097071027498
     0.7639713018508261    0.4095562818448485    0.8743230530989216
     0.8007212680386234    0.7240218915599105    0.0454381306453335
     0.7390122632317844    0.7851812429684880    0.3141047142088483
     0.7368895617942459    0.6835437085251065    0.5616465334461732
     0.6586013205431548    0.6981815841656897    0.9631456474021028
     0.7419356637175616    0.8111795065992002    0.9452031079250852
     0.7903698015025260    0.8757280686255801    0.2395565892077277
     0.6086748298556005    0.9475041997474937    0.5533607000710254
     0.8819895390383393    0.9088860225803638    0.7795716797323895
     0.4152879742244155    0.0855361591143394    0.9099823702432754
     0.4162038150368876    0.0775973637110455    0.1271513730408204
     0.4916515910690327    0.2573350507518664    0.4282886377783817
     0.3595312471554774    0.1795105753685851    0.5988403483174223
     0.5097268999119137    0.4062830592253264    1.0088443388238633
     0.5375762927073163    0.3908891098143364    0.2126197339479419
     0.4914893340390329    0.4993237365857452    0.3644282059479231
     0.5531435349695003    0.4925015890112243    0.9278807668547994
     0.4313100904791434    0.8102609720390072    0.8343821093615699
     0.4537779351541853    0.6958968341533118    0.0532725981417824
     0.5440184438994389    0.5463310266041544    0.4874700338632564
     0.6067322367943082    0.5706272683503372    0.6963011731070338
     0.4972301943933874    0.8352104336508529    0.7985345693422052
     0.4401845714442060    0.8801614237315248    0.2580265034814943
     0.4696595317223773    0.9267549915668414    0.4928114843389382
     0.5407245534762954    0.8338150017409270    0.6395462523053353
     0.9255263101070595    0.2612716009740335    1.0761066116365154
     0.0842920505793417    1.1317202285340759    0.3032000357264336
     0.9284192134170223    0.2875593211240215    0.6179902421846639
     1.0252409781667655    0.0382525637015472    0.8150520217892794
     0.9650082609450478    0.4678882902540510    0.1103755730773678
     0.1505858431966681    0.4692528387449982    0.2580580963663767
     0.0021375238352334    0.4760185689252642    0.4624652134336861
     1.0415562213474696    0.2502374033597523    0.6456968681077992
     0.0278000548927247    0.5523158456916806    0.8036978254329703
     0.9593814091793459    0.8086048375285407    0.2309966234093139
     0.1250717635911124    0.7625694391276926    0.5270246540907267
     0.0171563682653794    0.6150300922449967    0.7505361757469484
     0.9839168596087521    0.9523275465980096    0.0671306836735251
     0.1049283912287193    0.8218805691936969    0.2797778699931824
     0.8543588045963185    0.8968985959443831    0.4975675383028414
     0.8885798486866279    0.9270440301051365    0.6396006958608352
     0.4587742010996236    0.0576778902829944    0.3183841382583438
     0.4078453884521986    0.1656487451875809    0.4138425360368546
     0.3571169791885507    0.3804164422040195    0.7689423191332756
     0.3179054491692654    0.1703333090145323    0.0733885380115418
     0.3973186743707395    0.7972738622301261    0.2516250786195240
     0.4473954541821286    0.5452666248826712    0.5408667829534859
     0.4223771945193254    0.5943941968344039    0.6478239228527957
     0.4044875473207368    0.5239425526555627    0.2132430691058275
     0.4684543832849603    0.5917505187816833    0.1908498545664388
     0.5268342699153002    0.7796653700027041    0.5529354583290564
     0.2346613534162432    0.8074927529924896    0.8347901429135293
     0.3257515773914065    0.7958965238676483    0.8343284818250859
     0.6204536290020812    0.1848454685167258    0.3880082246033374
     0.3191304259824306    0.9627249565114669    0.6633175973330784
     0.3305814281630581    0.8340885606283875    0.6964601271190829
     0.3846279908512827    0.8831850963941722    0.9439920358236116
    -0.0246119476650442    0.2336379685368181    0.4238291247768505
     0.8269221286118218    0.2202446465104880    0.8153298048173354
     0.8377295757315180    0.2275094038603581    0.6717466178568380
     0.8823473531435160    0.3642075611464369    0.1227841812619879
     0.8932103396533158    0.6202941180425113    0.2975393275313225
     0.9710404724096384    0.5197236348792177    0.3204450802734592
     0.8625278197190265    0.4484162046636253    0.8109972496290336
     0.9451666871684681    0.5349770782478730    0.0558558311395606
     0.8424679769057200    0.8049509702849439    0.2975543978600387
     0.8431285967402306    0.7754730176164412    0.4165783183582695
     0.1384724261794895    0.5485802203596383    1.0031742252804794
     0.1760329413399989    0.6661433476250631    0.0681016373538618
     0.8660694051124832   -0.0609150622456943    0.3404225491757260
     0.7600440707547902    0.1514270750974846    0.6845944236125108
     0.9384291273097769    0.9859779755341933    0.7460290623028523
     0.9290825987316358    0.9978866062446010    0.1994233839767624
     0.1564430815547298    0.0810242823381529    1.0143329857438925
     0.1906574619289609    0.1573665110290318    0.3379120014859581
     0.0733260722183650    0.1926345871565510    0.5520827396996516
     0.4021339202677594    0.2439348350479278    0.7630273371613039
     0.1761759984376162    0.2086045542000863   -0.0156555880240664
     0.2711868782720330    0.4377005960577401    0.2436259330177512
     0.2843833629847925    0.4465063987974842    0.6557925235729076
     0.1991739297850929    0.4522163244932524    0.7552140109748923
     0.2651824884451087    0.5580972460399263    1.0182306534082213
     0.2002777796339577    0.5916615235555444    0.3737960151562630
     0.2922674109737505    0.7408932329778245    0.5589552687918836
     0.1622023598748814    0.6860676506092184    0.7283970797359713
     0.3398810508613916    0.7146535033422921    1.0099149790912243
     0.3297821115824492    0.8762822617313163    0.2628833852442869
     0.2110812984687655    0.0421843640738273    0.5979478366821595
     0.2064313296169139    0.0242811701029606    0.8165901766484066
     0.9413400032090815    0.0473122988972313    0.0833042932230707
     0.8643714273946379    0.1991855052801725    0.2780510662861747
     0.6508413912816436    0.1864128838746486    0.5898114105221111
     0.7046083401524242    0.0680509234996334    0.8708481714091999
     0.7491932867780904    0.4208853355681970   -0.0023098101163708
     0.8502953910345922    0.5047899638469475    0.2637774183181554
     0.7961708609798940    0.4926296901835300    0.6439080056810901
     0.7390622441750107    0.3816800882932814    0.8636867690811812
     0.7876228241090816    0.7216331538028025    0.0791110033506241
     0.7250701202239218    0.7523063219878077    0.3150400544734806
     0.7624645761973601    0.6570579053904929    0.5656882289782603
     0.6791431775817188    0.6711716919659129    0.9391609547647247
     0.7483129107637949    0.8323557594303457   -0.0175982721262928
     0.7799642130292930    0.9158718689178461    0.2472433218945687
     0.6346970246207237    0.9238750780288832    0.5682018283938309
     0.8637524068723443    0.8795434173695473    0.7789540353384964
     0.1696209758538121    0.1862212615224285    0.1310799685912079
     0.1197293058529954    0.0821665999351366    0.3842010201501911
     0.1872161717088703    0.2123918017099428    0.5196397244196160
     0.3440950412856703    0.1545806345044690    0.7505216334206166
     0.2384628925439861    0.2822613964777890    0.0601829767351669
     0.3275034656730957    0.4603167469595804    0.3861478472505312
     0.3157225409635627    0.2948727101992937    0.6145969066722857
     0.1669861668100777    0.4694280379216656    0.8599271365207958
     0.2525418252525645    0.4927164211245627    0.0901409739543517
     0.3164456111232787    0.6214706567769894    0.3522897859064872
     0.2980306881076088    0.7216145062995287    0.7048920250583079
     0.1919407446385547    0.5960253895244504    0.8148327650218556
     0.2955269553005476    0.8642126991657612    0.0877584196364792
     0.3432160971920821    0.9206429444865939    0.3899731416041256
     0.1606933359391924    0.9479379318176625    0.6561871701428864
     0.1904131996339950    0.9539300617972714    0.8864940295863243
     0.9228118410931739    0.0998689921947062    0.9796906427493285
     0.8148609677576438    0.2408651390778552    0.3735956576427413
     0.6721729150638116    0.0981996448887831    0.5013374819228271
     0.7743641313519214    0.0503547416019243    0.7894088858430079
     0.7162922370277394    0.4294847126559066    0.1284974836832982
     0.8346100064345786    0.4906616972548101    0.3723025273414809
     0.7753612850268558    0.4192739356996528    0.7254561594834932
     0.6949418970289422    0.2789298551602308    0.8808157204816711
     0.7450487767977598    0.7343960788529131    0.1824270190070703
     0.6750388867699655    0.7125565007407190    0.3635244631888178
     0.8571933659361888    0.6164285326746789    0.5837934313569231
     0.7074126609009672    0.5214017142638371    0.8793072581538310
     0.7670478442189412    0.9140427866882903    0.0899421042484537
     0.7773254914917477    0.0411872452574926    0.2580187148805624
     0.6960576164911561    0.9153581289668130    0.6600878101564167
     0.7458829406802058    0.8948170650980006    0.8102158650031674
     0.1429940597187074    0.0246864538971075    1.0213019378072226
     0.1996481658218355    0.2216668275563983    0.3754617849968483
     0.0318588973701276    0.1934794124290195    0.5034655338223648
     0.4321196016170717    0.2942609827742044    0.7983941407199758
     0.1264736953031226    0.2053273759874706    0.0162900296711775
     0.2637819194202495    0.4908962374069064    0.2296229190035960
     0.3261404966294094    0.4866623905393569    0.6650390103745689
     0.2360480377149439    0.4876733268330336    0.7377022388139900
     0.2868223941464587    0.6123612484650920    1.0069903922895851
     0.1732179386290027    0.5361848304716813    0.3424559781781171
     0.3162146632091973    0.7957085886309854    0.5639185204760365
     0.1109041514121398    0.7211345367447781    0.7181929026476480
     0.3739470434414017    0.6890051369924445   -0.0311976881717642
     0.2870659515482833    0.8833451970234454    0.2177917820568763
     0.2691315977493487    0.0419476626185932    0.5992392390654192
     0.2424594292567793    0.0331277208773985    0.7761534454444712
     0.9533494894970654    0.0725675526118685    0.1474556524225590
     0.9084191922593062    0.1504596117045162    0.2490455225650885
     0.6581596286064809    0.2319728899840044    0.6426006110066962
     0.6985771108723147    0.1249045526061597    0.9256141097576311
     0.7169850635149470    0.4291006209638690   -0.0517864933646803
     0.8970665695357427    0.4917174557229118    0.2238758585361196
     0.8220879230884767    0.4810647639809379    0.5882222419473109
     0.7958767590817576    0.3925972913770125    0.8720376413311144
     0.8327901265120862    0.7009599915297051    0.0380715727569362
     0.7736225728846573    0.7779085882938745    0.3243880061350251
     0.7265891366607692    0.6792813131337057    0.5236894353810304
     0.6305532991131868    0.7160867089134928    0.9442733837889572
     0.7511786940165603    0.7700327921836495    0.9414522751560016
     0.7849047046191528    0.8593828232746631    0.2687987653117103
     0.6159434125875777    0.9828492524517320    0.5552724703755196
     0.8828862905663951    0.9158026909819179    0.7445477400960772
     0.1945617564473733    0.1539932349821064    0.0761586421012082
     0.1733129701157014    0.1056517214782582    0.3869223189721616
     0.1461033407383862    0.1681690886013379    0.5052244425075085
     0.3912572614527723    0.1766189279163204    0.7904808173354446
     0.2078799466141935    0.2907724676444574    0.0078799708243351
     0.3291971389521640    0.4409453140992414    0.3203280911237185
     0.2963440228216250    0.3626026625360750    0.6204563110746796
     0.2156872864091497    0.4525608228675552    0.8302304727790167
     0.2876431045261534    0.5320851859743491    0.0800030307400513
     0.2622722010298231    0.6387172159945450    0.3733716166788275
     0.2809445734980175    0.7383867076012989    0.6481429249824052
     0.1944483912781162    0.6428444110423391    0.7786666853571467
     0.3236053138015109    0.7993626132450443    0.0544758466111275
     0.3518697079540535    0.8796757358706335    0.3302376874679259
     0.1772436877683290    0.9850488559009535    0.6202129860175470
     0.2245026355598632    0.9576982738683665    0.8437606068021414
     0.9152859385590739    0.0872362148630730    0.0372029712684615
     0.8392627819215809    0.1795741424751351    0.3379469243636827
     0.7070526220249765    0.1419706755418586    0.5391854602942515
     0.7233076395798052    0.1000619438813825    0.8110028793793058
     0.7414151696423043    0.4324004982223660    0.0769303632838920
     0.8682857366420025    0.4623191360819408    0.3204517136866941
     0.8063551406841691    0.4353844791220536    0.6820625372002491
     0.7419876924113492    0.2899668484640819    0.8560996026386009
     0.7868882712373231    0.6961620320639371    0.1436273325274558
     0.7298841549125885    0.6929163698229230    0.3504389540874100
     0.8119455905402968    0.5958042564839876    0.5390804112122808
     0.7023322239536882    0.5852748043812585    0.9201974833743223
     0.7627051365278390    0.8405021944961992    0.0626529844781638
     0.7587646462517644    0.9976308917382749    0.2864079894039321
     0.7114537145016907    0.9171231938567748    0.5977646091099726
     0.8004572934465993    0.8687041530615215    0.7993926780206009
     0.2388105014302633    0.0767947879713098    0.9999780445314640
     0.2593736204820751    0.0772256500182078    0.3581794340034763
     0.1555246802643905    0.1587933955672181    0.5767425032776167
     0.4598115219776643    0.1284087862347113    0.7317329008649326
     0.1693922265599462    0.2742704470174046    0.9181586316149069
     0.2492026601083801    0.4047040996899250    0.3018845671526117
     0.2369565103547710    0.4001320713154844    0.5685883793009190
     0.2514414243832684    0.3508460694944048    0.7795295700592690
     0.3404710693204279    0.4678639333962616    0.0101484075210745
     0.2229960035050158    0.6592323803187762    0.3061656118518682
     0.2476154169942446    0.6737971084549975    0.6118313553031496
     0.1465771834802164    0.5839791115476466    0.6991558743890910
     0.2604369087343821    0.7693944061290280    0.9875749526859914
     0.2958373354505164    0.8131251329092758    0.3305429821109427
     0.1788816364884091    0.9303707005175240    0.5199490491902221
     0.1625240340179785    0.9179740267726006    0.7747031401705721
     0.8440697538928489    0.0638494662952310    0.0216211837701390
     0.7664383128945178    0.1733822490602077    0.2988494912356334
     0.6854280015289990    0.2297481552756257    0.5142742744765186
     0.6548555196666862    0.0691304536871036    0.7691405003131205
     0.7146088021920474    0.3339571495959415    0.0348153758837379
     0.8134081325947278    0.4020307556759978    0.2528418394633307
     0.7447407989853678    0.3881653165000817    0.6123307075903185
     0.6826414243952452    0.2908569632427297    0.7824644827680883
     0.7583996490517932    0.6176908309127375    0.0751913038433669
     0.7299609171184063    0.6337701386662529    0.2545005963512115
     0.7479000467973197    0.5395509938631946    0.5488164562108037
     0.6983561153068649    0.6328034082406045    0.8509648192122222
     0.6731182669328881    0.8624791897121675    0.0587026938430208
     0.6787251052728944    0.9775702906169443    0.2450931687730202
     0.6979698353530488    0.8447959209749462    0.5050618787002296
     0.8259632594142663    0.7868322959975522    0.7254097412656747
     0.2045425540725283    0.1123971493111017    0.0503303214409003
     0.2018549202349318    0.1018240135637155    0.3666455556791186
     0.1292216817077502    0.1933888117742728    0.5347860161333267
     0.4150442968079892    0.1736004578156311    0.7657539568818162
     0.1891417724178001    0.2693949200647074    0.9753299184903863
     0.2954150542863449    0.4400030641050408    0.3050590888461654
     0.2840205397491421    0.3927785222260240    0.6039182376034244
     0.2184454661496061    0.4189313447254414    0.7976401372315485
     0.2968037788278705    0.5122112756122471    0.0436944521163422
     0.2403044494363692    0.6184721734203150    0.3445191766314111
     0.2730581308564710    0.7326162786802810    0.6092300990298096
     0.1651101934430825    0.6335466296055883    0.7574060367348764
     0.3132162837500239    0.7823750900147948    0.0198715011145796
     0.3213366652044412    0.8674060789264376    0.3210313898846223
     0.1867255820411227    0.9793753794890437    0.5840311050487283
     0.2007536784848326    0.9605324017929410    0.8149359964565340
     0.8934935053626935    0.0805117370096249    0.0602928046214087
     0.8233638430613432    0.1775008352786373    0.3019859139819093
     0.6832240100615853    0.1764523958343483    0.5373920712448511
     0.6914140823934677    0.0847205221028241    0.8182058645798478
     0.7247639940985826    0.4059749933029181    0.0487587002182738
     0.8453815119591429    0.4524547446185608    0.2900091273445514
     0.7810563676796823    0.4340254430514572    0.6573155576615930
     0.7261667784522553    0.3151204614767583    0.8342184202839588
     0.7714869887760268    0.6783813533869105    0.1101377871946586
     0.7287184365286979    0.6884964127773717    0.3109574430833670
     0.7844363859335710    0.5909881633255587    0.5535725931297167
     0.6847302622335339    0.6057800469536574    0.8963230850916093
     0.7329907860697245    0.8453309753186269    0.0422692246758983
     0.7371593343385545    0.9713968525858324    0.2604099366170009
     0.6934185640222289    0.8986387178263044    0.5656120232270022
     0.8125031244758094    0.8523351667801149    0.7631739997423943
     0.1776097436528108    0.0874961837461656    0.0480234944482350
     0.2097033699776350    0.1408302660295490    0.3670299150441215
     0.0973625666309428    0.1876598207755897    0.5263289840062316
     0.4276262816743247    0.2125643088549355    0.7666565703965484
     0.1646599834561176    0.2462099366515837    0.9796164203271241
     0.2933060672855366    0.4531144651086406    0.2734245989937912
     0.2939873429772735    0.4291735884556815    0.6197809786492942
     0.2272419774386360    0.4297399899371339    0.7668964679920968
     0.2973485432212211    0.5407690619728328    1.0248182591272967
     0.2263816273943610    0.5817228291186209    0.3484338275751643
     0.2981375495966133    0.7464420949265406    0.5972507676320377
     0.1492470889170735    0.6685127184429474    0.7492917612286217
     0.3372526450229820    0.7530051982413118    0.0011109921892233
     0.3058497771626582    0.8807326957254618    0.2902546356001624
     0.2128545479540804    1.0022407564061611    0.5814722210434617
     0.2053566628921740    0.9858138496284214    0.7953542215199865
     0.9090242395378156    0.0667024527430276    0.0895436572749807
     0.8437524030159065    0.1668346084629118    0.2734128747229725
     0.6721268949761581    0.2019230724568100    0.5704777084694440
     0.6832879183271829    0.0930183343656782    0.8532227310680692
     0.7212851140801524    0.4229917149299108    0.0187994025619484
     0.8566342723511803    0.4633629737694120    0.2613469212901772
     0.7873831215919687    0.4511801544736729    0.6313005475428790
     0.7488380169566431    0.3445138967368899    0.8337523980098863
     0.7901661366845649    0.6821042593243813    0.0786299184124362
     0.7433984238468045    0.7130166252768266    0.2987464590780928
     0.7580006347916449    0.6169475838402194    0.5473249669373667
     0.6624287001753195    0.6415492275612986    0.9154813907979188
     0.7339203434617776    0.8189167695251612    0.0068496579911625
     0.7468739805299689    0.9319431560129707    0.2587028516600540
     0.6658558001778515    0.9237489018333793    0.5557682625721398
     0.8334053267955807    0.8817364468377819    0.7626054749783373
     0.1879081419486805    0.0491990283745543    0.0550411407842831
     0.2010707924467928    0.1684466378351324    0.4000374365833347
     0.0840615768908868    0.2011076957666659    0.4948585406582521
     0.4465104551819754    0.2249058091269806    0.7980845139871834
     0.1399102896336131    0.2639004616288131    0.0034576200037816
     0.2861506081229557    0.4953899892736366    0.2848695550625525
     0.3268040772921346    0.4293813681886070    0.6124024393517571
     0.2566710685726109    0.4438705454329255    0.7692570237190025
     0.3181077122691746    0.5695668237822921    0.0389170364310327
     0.2132907219322494    0.5568120715062356    0.3145118914188250
     0.2932974138772896    0.7882459647037149    0.6158988454691626
     0.1134488351714844    0.6692850267626969    0.7427960963312521
     0.3361407923059841    0.7436770888046076   -0.0366171938018850
     0.2795381127283793    0.8596492623334820    0.2694595308678026
     0.2449650343214182   -0.0127643194843903    0.5940016850369846
     0.2322398306862370    0.9720982062098679    0.7746573648630892
     0.9079140595966582    0.1006125715428789    0.1204383368054463
     0.8658332974989217    0.1310925995394631    0.2720209991129333
     0.6947527564879519    0.2236652380971874    0.5949352634985203
     0.6861679413196107    0.1354841342783754    0.8717889820189496
     0.6976928620351083    0.4038771829407726   -0.0078240617727362
     0.8890427994409467    0.4441216961822625    0.2495825769865606
     0.8143448686346113    0.4286916350496406    0.6075309731844790
     0.7827808197486241    0.3310204204469213    0.8301094309292696
     0.8249145361276381    0.6668161690566207    0.0789064443117571
     0.7781572973926876    0.7098254032346822    0.3005469834102164
     0.7468206331907337    0.6144120716295477    0.5088421930202034
     0.6392261546799962    0.6619004145696872    0.8934233816572092
     0.7449343160785059    0.7750850239590361    0.0016062125380334
     0.7499887018885019    0.9159009375726624    0.2896055104267907
     0.6697462217247786    0.9568588154616803    0.5467544055268281
     0.8344037695732316    0.8834345807586012    0.7259828313067292
     0.1890668937914776    0.1518153466719964    0.1114660199143835
     0.1528898115857712    0.0763107006772881    0.3723665358170722
     0.1802828015287436    0.1700281659719682    0.5072895804122360
     0.3658040353026569    0.1497867437435437    0.7795408556297989
     0.2282947287964464    0.2637588852922167    0.0223417127538724
     0.3360413150571800    0.4306413008359036    0.3535730297844539
     0.3075275122266484    0.3220928294968947    0.5942545746170823
     0.2010332357026946    0.4476791748088941    0.8603762224727678
     0.2852453065961522    0.5029928646362252    0.0968461228111075
     0.2916665311166471    0.6528517013840797    0.3599072320493713
     0.3046354610116479    0.7167177680124609    0.6635937855597230
     0.2092786690196569    0.6102530865297203    0.7916992479806515
     0.3023280744523378    0.8206815236563011    0.0820465653097974
     0.3623095524030591    0.8884966982693280    0.3658938808297542
     0.1789620295600620    0.9476090844878360    0.6266328909079827
     0.2191924312586369    0.9409868383065197    0.8718910050105469
     0.9029415679779168    0.1093366974999568    0.0096908624052555
     0.8211316775600558    0.2003279484348216    0.3710534976491323
     0.7069159892557549    0.1058987942783893    0.5087972911106464
     0.7427981092763626    0.0785655342651341    0.7817576264293056
     0.7471854375070245    0.4275874794995078    0.1105146950548185
     0.8570676516823826    0.4575460018469877    0.3550032807873184
     0.7950964532207251    0.4428492530638866    0.7179823910694960
     0.7235344457563470    0.2625977000565757    0.8634042487427367
     0.7694888997838326    0.7037278760146491    0.1749306426525915
     0.7009064976233279    0.6850041490669603    0.3648358834450386
     0.8438897525841503    0.5853306407220918    0.5551542134036753
     0.7231357016476970    0.5526351617944403    0.9002660754033145
     0.7777889679757249    0.8726254271030250    0.0921252890942348
     0.7601445665283896    0.0380707159228506    0.2860252063048815
     0.6915824032803028    0.9328022265851557    0.6304694043554262
     0.7710030305899244    0.8598119970157371    0.8083399609644235
     0.2145717360772926    0.1105023861911034    1.0140214058609021
     0.2304933408123519    0.0792584814840689    0.3777144636860959
     0.1401996294320414    0.1950138678690995    0.5722150622652553
     0.4431139212465414    0.1443514887953338    0.7653040577186284
     0.1727713424906319    0.2948517814533695    0.9550267423114055
     0.2841698456584524    0.4038776204511964    0.2983714077407822
     0.2737849309080727    0.3815366642031691    0.5659793892416752
     0.2408715207606988    0.3864416534995418    0.8066200405707196
     0.3287646558774921    0.4888843825988214    0.0441181340868300
     0.2174669421331706    0.6460950722545814    0.3357029025231487
     0.2674219529154608    0.6920712693081185    0.5935856085647007
     0.1724608201305751    0.5979906907478650    0.7262030150252158
     0.2818503271154389    0.7650596433067988    0.0166334204888219
     0.3211186120837706    0.8250250183315880    0.3146798691559963
     0.1905717977572399    0.9362510587212818    0.5585039042393880
     0.1921311607260851    0.9235214895238488    0.7968429915557367
     0.8607624129318574    0.0822645604662918    0.0563901759226790
     0.7993203644773038    0.1527199055266287    0.2954039294616053
     0.6984587219291074    0.1905097416085961    0.5139904184926193
     0.6678657163513269    0.0997720754552101    0.7965357126456943
     0.7346826387111663    0.3645703663632306    0.0405054325495875
     0.8430445318710279    0.4111409920050615    0.2737828202870520
     0.7719942701272835    0.3932021772729610    0.6385904054559952
     0.7172331342478029    0.2933996787702359    0.7974635022859234
     0.7754347256420698    0.6372041675370055    0.1089637010485661
     0.7423569564308951    0.6470537086828024    0.2907848215492828
     0.7808998382693907    0.5479098310575276    0.5452444938517724
     0.7088325898763258    0.6149100956641027    0.8780188878750705
     0.7046225174952775    0.8432850533968441    0.0617717951772034
     0.7047184522497311    0.9864817192049630    0.2742548415469599
     0.7113556868755629    0.8776773273526487    0.5340252464768671
     0.8278675362589176    0.8142820352152380    0.7605991062774242
     0.5943545919963097    0.2924557803245401    0.2469083085890806
     0.3323470763563810    0.4022476190614435    0.4760501586246663
     0.4434778533649459    0.4248772497926726    0.6499438268310608
     0.4750568756790418    0.1784173149889480    0.9050850707096438
     0.4984213340520561    0.2000501606994108    0.0534882381967849
     0.4312135477637497    0.6284081662159099    0.3234276060458086
     0.5198490084877655    0.3889820307575999    0.7854804102833071
     0.3629021936985395    0.2589705644341581    0.9875310440374220
     0.5126932452679647    0.7189581491978848    0.9978321345871859
     0.3878875381316629    0.7928755895115162    0.4490412338503538
     0.5340722142006544    0.6914134832925728    0.5955811523458832
     0.3045803456011526    0.5857801185951191    0.7657135022872433
     0.3803538468019315    0.8972772064432398    1.0718589946421004
     0.4235328693178350   -0.0150571354388409    0.3333343661914956
     0.4618606325669408    0.8575936222875464    0.7238005459386480
     0.3541089156642924    0.9248174181799170    0.8611715438673254
     0.0968400802435085    0.0166210241898926    0.2462897500020693
     0.7752024894873271    0.1708935963127106    0.5356486425632864
     0.0042525950587482    0.3005252798373466    0.8770055757245219
     0.8149038010636221    0.2930385259881576    0.9735675801519089
     0.9190409291225806    0.5541447549214187    0.1713029305300564
     0.9602358222438213    0.2971234411883725    0.1691298721028980
     0.8996644300548802    0.4542217724222363    0.6898027648883515
     0.8432814021356830    0.4558880079969819    0.9460945977984180
     0.1112615673054118    0.6733652877379872    0.2078328392855172
     1.0047701708651333    0.6302846832987874    0.3015337690418753
     0.9067128643177113    0.7745017726110385    0.5897552661354339
     0.8659060065627499    0.6918765507951290    0.9222116104632714
     0.1182321641943287    0.9157068681332498    0.3556774051221204
     0.9010798969475772    0.9180204539680281    0.2240980437483418
     0.9104649307626805    0.0386565228655924    0.4915626305658351
     0.9108936798470281    0.9102652994798391    0.8626629304397847
     0.1591538718850158    0.0290985754081946    0.0565247921837268
     0.2115415847018362    0.2060452392252430    0.4034841579547712
     0.0503600392484459    0.2197800155691583    0.4981271707986989
     0.4587032614987377    0.2638143844129822    0.8032984785587414
     0.1152243159199599    0.2418252756528423    0.0097152086374247
     0.2869131473682395    0.5117021846093908    0.2587801190461149
     0.3335964589694394    0.4695586051005222    0.6278811222954135
     0.2622509157785137    0.4584422281948558    0.7392581560303501
     0.3186686679876032    0.5949594638978641    0.0153435156371613
     0.1995083974431495    0.5255062041584904    0.3182610995140920
     0.3141638656608799    0.8072928515499459    0.6020835674992572
     0.0975324309883638    0.7045906954245382    0.7414795812814141
     0.3669313700772122    0.7187070215398139   -0.0481838425199750
     0.2648236530470633    0.8802539418561222    0.2425917318485043
     0.2691658632063573    0.0009649170379685    0.5802990148627603
     0.2377177731812918    0.9968638692205678    0.7529698917604580
     0.9206722634113248    0.0873117402862106    0.1507885218632083
     0.8890655726775863    0.1196605138284310    0.2458895093978533
     0.6787263437239913    0.2513972742160629    0.6264855550167008
     0.6742861587081991    0.1448049656066291    0.9049620410492987
     0.6890491741395832    0.4240295492099795   -0.0363672668589251
     0.8979923055736081    0.4527311843642959    0.2183745949583738
     0.8157028343068882    0.4397108999187850    0.5755651732409865
     0.8028746192465264    0.3610639256523989    0.8378325064294952
     0.8365888187514480    0.6652824269603675    0.0454859596133393
     0.7919915048513285    0.7431162152749849    0.3016151967021113
     0.7188445072547582    0.6398759908910557    0.5061334705343833
     0.6156304297966357    0.6869782679612205    0.9171756498007017
     0.7380223281922820    0.7538984858470845    0.9647553888667363
     0.7540820880471335    0.8740984002084483    0.2820976963205780
     0.6422308616366372    0.9794807494731885    0.5332166801401119
     0.8495171649076453    0.9168043074915169    0.7280610042839577
     0.5830774420276273    0.2603065139280317    0.2508406681616831
     0.3184402289320451    0.3681349978337606    0.4760819490360907
     0.4227119584289722    0.4051890565561134    0.6638508421004808
     0.4726736793304121    0.1736020975599115    0.9390292087321724
     0.5207583157873541    0.1676799877621125    0.0297088926850069
     0.4274818447913101    0.6224657223389957    0.3567472836298904
     0.5281022135334030    0.4164583953277145    0.7675550445804923
     0.3295956407023909    0.2686516978198987    1.0025499089716643
     0.5459907387810808    0.7216060308417943    0.9963032449294504
     0.3995902285773121    0.8218430579462884    0.4326608381107558
     0.5233313994241352    0.6602302669119774    0.5659475004590379
     0.2786896652395275    0.5705418739609615    0.7465161802385768
     0.3575816621741565    0.8938831095818215    1.0441261750111104
     0.4103073123010218    0.9524107537395603    0.3310093497112420
     0.4435739227155483    0.8912041931494077    0.7461205875118493
     0.3304499664758762    0.9493239605274918    0.8458290122903513
     0.0897754443206145    0.0065790192642909    0.2737675476302928
     0.7950963366409455    0.1856203205791481    0.5654932615435500
    -0.0036568470392534    0.2681229871935901    0.8757327352728500
     0.8194843993698705    0.3151248130288115    0.9510306230868066
     0.8891448655299834    0.5408558486900165    0.1721795353242396
     0.9871122426478942    0.3161437190696313    0.1867340615309998
     0.9094133002922052    0.4705798073382755    0.7247317185947962
     0.8712711489613683    0.4750653584832527   -0.0390804600820706
     0.1190141204755328    0.6702098417893920    0.2442869133371040
     1.0135140647787046    0.6379655600709428    0.2712068916760004
     0.8838823082046587    0.7935928198829202    0.6127948131059222
     0.8736621872481490    0.7255347740687867    0.9446310529136493
     0.1263929156716367    0.9549572888033097    0.3794106478823187
     0.8716918438748943    0.9384792189110930    0.2392078887946436
     0.9091950382688602    0.0013886209870507    0.4646665264900032
     0.9301719822093256    0.8748487825527745    0.8544435328208322
     0.5084718871747713    0.3023694454620381    0.2670242972896277
     0.3931512089870481    0.3491748024433027    0.4835894015318837
     0.4392923090755552    0.3425066610073320    0.5479116928267813
     0.4713533999624530    0.0976472063196765    0.8719412152883049
     0.4443471995204158    0.2434472460248461    0.1093801139031935
     0.5108327666177540    0.5942187606699624    0.3446628677765072
     0.4694403966400183    0.3948455916990081    0.7245155248497656
     0.3630522665629027    0.2859496447210786    0.0917946016288808
     0.5266077171067849    0.7991533673621765    0.1008399496040892
     0.4143547161216105    0.7369568166124755    0.3717644751185886
     0.5661955695120577    0.7485512717794206    0.6645101886990011
     0.3575452451282715    0.6332916080856063    0.8128909307042694
     0.4189389806742505    0.9806643713169985    0.0709305471906155
     0.4354121019822979    0.0620766178625974    0.4177492670149400
     0.4144152652531799    0.9089680343562659    0.6672459933378387
     0.4345299427065442    0.9778784636350440    0.8746533468408042
     0.1290120057885290    0.9917800942716613    0.1369288170661982
     0.7871737602788161    0.1670734003787204    0.4599346889746247
    -0.0102261611814415    0.2543546104269920    0.7968957725283945
     0.8858642149327632    0.2938393480398474    0.9771357119009604
     0.9806783539742467    0.5767689522113777    0.1552683695496286
     0.9389448042133113    0.3546502149783151    0.2598500519234048
     0.9570384509789819    0.4167952038639837    0.6532798485531520
     0.9206707568366285    0.3899739671223016    0.9376238668191220
     0.0533501199942212    0.6396861807526839    0.1539734723158518
     0.9478358673323642    0.7153231884857633    0.3847884528390336
     0.9374666342653203    0.6903807519499289    0.5652195722266826
     0.8742457263229222    0.7288693705292729    0.8411797749107259
     0.0605764709996080    0.9034527365816059    0.2676309156106035
     0.9845531844843100    0.9237240175686255    0.2955755362940403
     0.8420278854372022    0.0860159002922297    0.5372143843683225
     0.8843781926834340    0.9954320277442812    0.9229846576936245
     0.4673801167535361    0.0588226822593291    0.0496162260043289
     0.4791862860852095    0.1990933430003812    0.2547951639542054
     0.5326123978208118    0.3990428899236746    0.5686191609214595
     0.4945174970658712    0.1596051202003206    0.5531499953278080
     0.5366086885959647    0.2203766102154411    0.9596310481940195
     0.4343450406502386    0.4455061407022201    0.1045842734126879
     0.5097098297892624    0.4402517278501238    0.4371028866766438
     0.4718136182019088    0.4950054269689554    0.9327464663375984
     0.4759682437079987    0.7346802323026514    0.7515071844528868
     0.4977788144244132    0.7788908615652026    0.2105621581451889
     0.6107325170691275    0.6454192972710587    0.4407311002702214
     0.5736496117701704    0.5190799252876290    0.5585920431410881
     0.4980609011950377    0.9083942894981111    0.8884279835751265
     0.5331368209234570    0.9659395581242628    0.1966779344616363
     0.5289139326951759    0.9733666806253930    0.4082863367028646
     0.5409720889803293    1.0099869910032537    0.6163096550799019
     0.0467127629871465    0.2617922016859393    0.9952162542750954
    -0.0236636778446256    0.1676373796020714    0.1825206898379284
     0.9694831482661574    0.1484867729258022    0.5478867091139298
     0.1269429096462554    0.0906602709474063    0.8676606387701818
     0.0708597246276951    0.3337649219121567    0.0740382773524022
     0.1797673699798105    0.4257706449771845    0.1579435655828539
     0.0577030436147296    0.5003604042023357    0.3640980979360494
     0.0140301980927116    0.2945954528915241    0.5768523820134884
     0.0201133929998125    0.6358276910293623    0.9428889287800380
     0.0234466568137437    0.7357175055623656    0.1173661137133851
     0.0997959256829795    0.6622235189239509    0.5045592409671528
     0.9039997011498090    0.5462767134000777    0.6864014847907163
     0.0729403475745067    0.8676172551283796   -0.0441042588230595
     0.1517114411433416    0.9280187768339107    0.2186446962231406
     0.9580736547776699    0.8633546324842912    0.4570619921627833
    -0.0187640661378562    0.9430304076282015    0.5658663358507954
     0.7030686582175556    0.9570671634766954    1.0104225830818330
     0.7490378865687750    0.1179292057384339    0.1082082488026910
     0.6642449866637474    0.3199877748110977    0.1655445669972067
     0.5828976506361866    0.2483514409065319    0.7594014230188665
     0.5972379105735506    0.1717016497489143    0.8348898094688590
     0.6998125233708717    0.1449157337923913    0.0353563752416341
     0.6081968243553908    0.3047023494999668    0.3380529821429801
     0.5584707606538140    0.3521644360322883    0.6199382861928467
     0.6305407304806580    0.4524448883894973    1.0458290338240543
     0.5165616362449864    0.6116399601386692    0.0558097232385248
     0.6567837125652136    0.5470391864869066    0.4737700717658521
     0.4132002468115252    0.5814493300065048    1.0763965456832754
     0.9260479659991505    0.7688826058832751    0.0382313594204688
     0.6626291339621749    0.8306939881822321    0.8295688950377672
     0.6049447170885697    0.8610063025769279    0.3159234739477987
     0.6137133556970882    0.6554862844913548    0.7779643048407069
     0.0826693539527553    0.8335707720158386    0.7805232903809073
     0.3261797204277561    0.2846473517585969    0.3652757816852726
     0.1200317725434337    0.3150438016631015    0.2598538426007185
     0.0003779494953528    0.0844541752093538    0.6917984369428298
     0.1540467450039921    0.4067463336389172    0.9567706359601893
     0.3935287598068284    0.2655485124373705    0.2212884866400078
     0.1652190336093579    0.1624050785019976    0.2580320221934252
     0.1026172443847973    0.2851502862673935    0.4399679968461950
     0.1313117754051288    0.7454453646718028    0.9412199290494490
     0.8764386486753133    0.5720728616367861    0.9196154193373289
     0.2211343524611937    0.5133989028766155    0.4679118533240842
     0.1055384374656600    0.4843830650709088    0.5256673572676230
     0.9951947878110499    0.7886423033485569    0.7125249797544162
     0.1513151716538146    0.7841799311325919    0.0768618855725916
     0.2015586850970911    0.6670103290260727    0.4699703388580330
     0.8146615388410819    0.8844084545686884    0.6337747750316476
     0.1190012202117377    0.2229465527922851    0.1322196090742291
     0.0706864958318463    0.0558185563286808    0.3649300122250616
     0.1802512625750179    0.2784275547286564    0.5110298059605477
     0.2992043915095536    0.1902669721934716    0.7195194216496686
     0.2804267541359434    0.3182951343930814    0.0987372215245835
     0.3247887343090876    0.5264826754438158    0.4159358553382600
     0.2879356124689281    0.2505183657561092    0.6405918555108685
     0.1173629279462611    0.4872875224355858    0.8887048131323881
     0.1958815450918802    0.5066536235067866    0.0905138465131777
     0.3657193077269331    0.5920588454172833    0.3166154314575422
     0.3105904065000642    0.6944544956890050    0.7519093377860848
     0.1513428194581189    0.5599562828757700    0.8195760129928262
     0.3128132176026218    0.9272776450870263    0.1215317361533242
     0.3126070100182594   -0.0131738245872436    0.4040159984449067
     0.1073128584819755    0.9626062904138823    0.6779846702408711
     0.1512601607838454    1.0065486623511457    0.9215072537950446
     0.9668519336075240    0.1016913297319406    0.9465908932721498
     0.8416239456061050    0.2975963542580643    0.4069287224079975
     0.6253263690139347    0.0841064054282561    0.5263450620014659
     0.7974164736939643   -0.0075561655952269    0.8012465486232014
     0.6682891602144383    0.4625811786188856    0.1543673422023290
     0.8235822821222591    0.5553927776430693    0.4163899786152546
     0.7266398596937972    0.3897495454190891    0.7133826018999091
     0.6657360272019608    0.3258955152720379    0.9263547775875037
     0.7266531650251508    0.7999471776604656    0.1935181576933185
     0.6520599821276093    0.7776209799631425    0.3867962631744375
     0.8485502172206416    0.6698457539258710    0.6426786479734871
     0.6655561494366034    0.4861844781222655    0.8719413982135803
     0.7645133019515998    0.9660304347440153    0.0611832069561506
     0.7880836630417410    0.0135964088265160    0.1954822701814503
     0.7338567431004444    0.8927778230641527    0.6988692609844420
     0.6963836603565744    0.9284726714398649    0.8322234124533180
     0.3545794533175271    0.1695764181791763    0.1410163381416807
     0.4740263040786993    0.1366447888314315    0.3534544227230627
     0.4514487704427344    0.2109850503124434    0.4649040666078592
     0.3476417115964747    0.4894013365020992    0.8010312367701322
     0.4530757982566628    0.4954994195422022    0.2681028822027438
     0.4110968323289029    0.7297456194292286    0.2861994934746805
     0.4187432617665739    0.4702167948817156    0.5049029222647110
     0.3606211010762283    0.5890258906246275    0.6845212313184427
     0.3485023968809648    0.7225783532600898    0.8416037473974637
     0.5173764081856991    0.5918512448691120    0.1456919049010237
     0.4918454464435261    0.7664575297854406    0.4745945558879602
     0.2065662726067958    0.7239291726628287    0.8545096129017271
     0.4022699797499462    0.8016951432471949   -0.0213910595350351
     0.5738814144178036    0.2445472138961783    0.3754295129636498
     0.3319267698192807   -0.0424871004790043    0.7553465741605078
     0.2745542313799583    0.8201034968358157    0.7342274120311981
     0.9403180461369642    0.3818507683719732    0.0647684316169189
     0.9462567353391960    0.2457569973471308    0.3538196337498447
     0.9707969172800299    0.4187983536263208    0.3480617151509640
     0.8678117634225146    0.2902486797471215    0.7225036173620718
     0.9146750083647204    0.6027869693311220    0.1176303138085808
     0.8434308901353919    0.6031436473442063    0.3396250693178808
     0.9461894876525565    0.5271202136378533    0.3942017319364649
     0.9112530084169477    0.3861511134362450    0.7770927151528093
     0.1694901393972459    0.6054167087872839    0.1033773001671640
     0.8961602588571734    0.8472521167579052    0.3112025394430789
     0.7818548458294655    0.7460063940204368    0.4246234208961718
     0.1266362601208362    0.6034209214085517    0.9399355149278380
     0.8725436663023695    0.9685785058102117    0.1368905654455134
     0.9210205279670283    0.9780731737205365    0.3449683500170423
     0.7478704475147236    0.0924153132269715    0.6197307774034004
     0.9141781461638817    0.0392405036196727    0.8161057849767899
     0.5796510338330995    0.1494341037252956    0.8507418853431038
     0.6763616814590573    0.1225522791142430    0.0151347220308840
     0.6375882816752498    0.2755959981111442    0.3200851906282107
     0.5362882208712411    0.3725081104775603    0.6479891095417781
     0.6187133121842768    0.4745009980707607    1.0803219682575191
     0.5060699074011603    0.5893514601631448    0.0202439423008783
     0.6833461473884557    0.5548151216596510    0.4561809879515281
     0.4362970623105807    0.6045165585039204    1.0960427837070927
     0.9223273855602244    0.7827413710637586    0.0051690207679896
     0.6877240989000594    0.7976929955539006    0.8235629674102238
     0.5964218720576367    0.8314129269059797    0.3334070764777385
     0.6214620512372884    0.6650881981664204    0.7454184878517561
     0.6882056596997671    0.9233628785215701    0.9961559421438367
     0.7159695608746022    0.1234118794345835    0.1209583329805323
     0.6969859033476780    0.3177641458212868    0.1576686465928760
     0.5474531030732332    0.2509226592029389    0.7611087832383576
     0.1214898165585275    0.4109957733237992    0.9654763752697066
     0.3752403047047863    0.2602009596842124    0.1880131854081511
     0.1642152516685866    0.1834098706283339    0.2308455971154540
     0.0753872360907849    0.2618081255975743    0.4411260034563870
     0.1020441152886903    0.7475562025157079    0.9559146460167894
     0.8841929617315711    0.5936904355726952    0.9564193883628237
     0.1893622329444897    0.5144473821858806    0.4520541848134916
     0.0872861252819858    0.5209343500541455    0.5352341170432156
     0.9776161493875699    0.8062905237841245    0.6877407864837580
     0.1320228668866184    0.7586718924775562    0.0503922113801929
     0.1756351916966828    0.6679141626560715    0.4470968191075924
     0.8111001956958621    0.9025199782329872    0.6037274435170922
     0.0631882395081898    0.8297891888009200    0.8083233259537178
     0.3427014302228482    0.2470396946203085    0.3514326518050936
     0.1030167593615585    0.2951994923111805    0.2282595441479936
     0.0015297230460706    0.0612702888687083    0.7172322691101307
     0.4289939622681042    0.0648967812426938    0.9299746837685816
     0.4018616736063275    0.0779916123307385    0.1610560524955733
     0.5010416839740752    0.2902478401184202    0.4460792907251499
     0.3770646434848507    0.1651175314766477    0.5616137087402456
     0.5269316444834499    0.3907120050757074    0.9744859004733467
     0.5285639522135289    0.3772317437541879    0.1748904446804468
     0.5228835716388209    0.5060308258189181    0.3571734413482592
     0.5507104086051898    0.4882724636138527    0.8919757115360084
     0.4453755481065296    0.7750370264229139    0.8431971746930260
     0.4503707543573295    0.7110649620288408    0.0942422816356003
     0.5360933991165514    0.5497751630704969    0.4509425694417534
     0.6088303142003318    0.5754863066020006    0.6622534170363614
     0.5198541939043623    0.8492273742569468    0.7783231095105134
     0.4618096413679834    0.9060072593399690    0.2569367153741264
     0.4967543231977442    0.8949355666085930    0.4879376120390262
     0.5473241469271451    0.8583108317199074    0.6181969508284285
     0.9528679702505094    0.2343320892234379    1.0606280267770105
     0.0515399762753932    1.1208769032111614    0.2967299838710630
     0.9509171962035667    0.2579400076887233    0.6268012044278021
     1.0174144751733323    0.0687566125572296    0.8064960972831507
    -0.0314904090437467    0.4509911709706323    0.0743470835259156
     0.1234918156435502    0.4667645667042132    0.2297852699336427
     0.0159272567627220    0.4481836247083556    0.4296741561725749
     1.0372161791540730    0.2866016610290249    0.6720777366375317
    -0.0014474132470415    0.5762421472243555    0.8039312869330163
    -0.0121257082187325    0.8293139434957907    0.2439101710518112
     0.0971219769249187    0.7909455227671729    0.5403790662767063
    -0.0052654655339088    0.5990044260886076    0.7226189015337918
     0.0005728721382992    0.9371878654138891    0.0359874578360158
     0.1025408626224893    0.8108957671209519    0.2407448634621935
     0.8671367858404287    0.9182157679836985    0.4764876464498973
     0.9053574598314965    0.8898376733474074    0.6155610443025689
     0.1338712870507874    0.2576263842878496    0.1392662744112049
     0.0502967763884099    0.0923909482930596    0.3737646689235481
     0.2138806130057156    0.2829284279969609    0.5196274164346644
     0.2888658998131988    0.1526506557724742    0.7030642770411807
     0.2888080144523462    0.2884303367551642    0.1156016572933104
     0.3317859442146204    0.5235634803941619    0.4511185201235452
     0.3143974636540273    0.2564632631556560    0.6685767529649775
     0.0958866462393804    0.4675988629202034    0.8595252552166925
     0.1940328427088342    0.4759911101581966    0.1027922615404233
     0.3587736147669903    0.5520839139708300    0.3170406426271118
     0.2777355013492573    0.6947688507761074    0.7598747636315110
     0.1371637723327661    0.5960109013821074    0.8418543750715779
     0.2812586117656228    0.9382719687075513    0.1388751507109195
     0.3217462826399978   -0.0103793838225622    0.4435722522654987
     0.1168371855087222    0.9961221813423747    0.7037594918466978
     0.1361166258750019    0.9746610516913347    0.9266079839884146
     0.9471003057482985    0.1057983612314836    0.9145939780207514
     0.8113434079266115    0.3204445722302433    0.4050246346386237
     0.6198585218708342    0.0551105897280870    0.4918730371044963
     0.8216667443722953    0.0171525014547064    0.8236021394089069
     0.6757638457297901    0.4483980328969271    0.1851623638138298
     0.8052141237821776    0.5403288385390979    0.4366584918988582
     0.7380366128433925    0.3699194897377971    0.7383059468170891
     0.6476291175648797    0.2993309249689484    0.9361551939157265
     0.7079346719827234    0.8027313134226497    0.2239487755298747
     0.6236725554429622    0.7686666902896366    0.3981408241349511
     0.8544011699606262    0.6976893325398090    0.6247009411540847
     0.6796808595208074    0.4583575871478330    0.8395740078162178
     0.7637626587247338    0.9948462772707534    0.0977013208606348
     0.8081792894619907    0.0441545636010086    0.2038296248064164
     0.7308962358942297    0.8531130729975676    0.6806166573688266
     0.7012684028605685    0.9557259156942689    0.8113023191069976
     0.1377815206284444    0.1892451224656796    0.1121620890472002
     0.1026267463586551    0.0558974061741101    0.3550759818533111
     0.1721173966258012    0.2391473681970689    0.4995328119138940
     0.3214379583836906    0.1884686997567475    0.7523589194422954
     0.2622910747029782    0.3105717880934630    0.0651324988259844
     0.3407651209114771    0.4963546414581129    0.3900361003416002
     0.2856994460001389    0.2785376718849993    0.6197868119721424
     0.1492580884858076    0.4687909617158988    0.8900447167235723
     0.2273330718634101    0.5215645663726333    0.0993985225531960
     0.3357487373698708    0.6164759222793169    0.3198296876660807
     0.3160453391852689    0.6907120038229122    0.7142949182257552
     0.1702205363865070    0.5665554470930809    0.7948787660202044
     0.3212768331706038    0.8852885464857028    0.1065565480932087
     0.3360632077597658    0.9570663636478943    0.3826866647418408
     0.1274744229623225    0.9527809222271814    0.6489293217984260
     0.1844924799101809    0.9936238860671144    0.9102954811833800
     0.9524172810196123    0.1195188593118507    0.9818071636184860
     0.8451750327071086    0.2604088908926323    0.3794295370096046
     0.6586208105884530    0.0903731690381243    0.5304237904846935
     0.7672290001685107    0.0181958995623282    0.8003648310584334
     0.6948030354911227    0.4666221596245863    0.1376715263296936
     0.8467796950877742    0.5268195789380363    0.3915628145425837
     0.7407324918902161    0.4264477846590846    0.7218076217481180
     0.6974996234266563    0.3143064887227121    0.9133425564407386
     0.7549677363652777    0.7736087476649049    0.1871059344537426
     0.6810068376363724    0.7495387595288404    0.3862900662856952
     0.8386108316780340    0.6331996435254263    0.6152046061732515
     0.6867353391491900    0.5055164398539908    0.8997794317888861
     0.7804647639013195    0.9284748262283936    0.0637759271921046
     0.7676896871779988    0.0166533760968418    0.2232030816741120
     0.7290760414426596    0.9158726693500507    0.6741714100190948
     0.7154159696224421    0.8898449776351386    0.8184339776919595
     0.5461749441938822    0.1601505580763306    0.8446295663189757
     0.6471829788962655    0.1338683812049630    0.0328732677961115
     0.6621896670800870    0.2799544787930573    0.3459243859133552
     0.5257920250156791    0.3450553213422808    0.6624732156747054
     0.6008143587306097    0.5109424885987085    1.0797945999780671
     0.5256511550509947    0.5849301328256740   -0.0090285858183261
     0.7024330253558572    0.5189897864415519    0.4361063639285617
     0.4220450075448803    0.6417930411352910    1.1184297677994550
     0.8911788393952034    0.8075133415064359    0.0065568564789641
     0.6795597737134352    0.7702987021637147    0.8391613881617922
     0.5973117668758764    0.7907429107403018    0.3082350233685396
     0.6082180333307248    0.7028604418819903    0.7453937600332744
     0.6856474072109932    0.9126184590003205    0.9550082090343923
     0.7090825412430168    0.0994631392022610    0.1414000144307459
     0.7063831454575942    0.2773455782284193    0.1416710043396610
     0.5282780286023211    0.2425034253491611    0.7315152914124884
     0.1167949608929368    0.3897661515505258    0.9919346309252507
     0.3418209519430684    0.2699901355552106    0.1931080525273927
     0.1299763575439074    0.1893366925105262    0.2139106186819408
     0.0618375908002065    0.2442453214246263    0.4075149291260340
     0.0780341349027597    0.7761544709751175    0.9482217657213811
     0.9129662710832303    0.6090069512629692    0.9606182626364166
     0.1672371152692588    0.5489772347766226    0.4769292329743909
     0.0805400334593794    0.5300327254153194    0.5713030822712482
     0.9432146967230476    0.8157440145522175    0.6925132443758558
     0.0995571902040419    0.7685468212295750    0.0587105190624567
     0.1834783282814081    0.6900469092648573    0.4242374913359418
     0.8205347006497019    0.8698860033911919    0.5701401439044609
     0.0745969362303419    0.8400093075847055    0.8472662936476542
     0.3187264606614071    0.2194398310051920    0.3387481767391757
     0.0762252746223326    0.3229170497518721    0.2221510460372160
     0.0222968186432524    0.0276011894007550    0.7055130618232995
     0.3823573933601854    0.1989452335673811    0.1246413597094652
     0.4689998415170799    0.1381100134463910    0.3011755164262820
     0.4117899260626632    0.2332667468916844    0.4922994853210459
     0.3252079332733214    0.4451341352136828    0.7717743051339542
     0.4545837937719246    0.4541130764124620    0.2229570127639768
     0.4472086856973323    0.7213387459490344    0.2549213618364063
     0.4433742963772451    0.4766144478809605    0.4681639018850854
     0.3949352654164001    0.6024083817990888    0.7243709553255240
     0.3235377409928217    0.7448011281590218    0.8896761791840102
     0.5429206106776076    0.6052725085252039    0.1891783372456419
     0.4747442619371404    0.0024782018453337    0.6093526633894584
     0.2296695926515304    0.7333429178784857    0.8165639583894950
     0.4143089697606295    0.8582081696179376   -0.0001224632670958
     0.5439838950266361    0.2283717681319751    0.3998379814428215
     0.3031346836377383   -0.0109932644008758    0.7293404433916355
     0.2747528669885906    0.8780981112135811    0.7573840429475657
     0.9335558751378008    0.3419689978459880    0.0857990007097374
    -0.0894068664341517    0.2234756698987820    0.3702536220718154
     0.8287593686513972    0.1417025964152990    0.7484192004359224
     0.8205479402743978    0.3099804506449030    0.7343730390678342
     0.8844907752994068    0.5630701273610623    0.1118444982033245
     0.8176143596683082    0.6469752604001597    0.3296314300996406
     0.9079372253994961    0.5494169336107411    0.3738313151880280
     0.8901821757237822    0.3543021984955081    0.7939102774427980
     0.1675089506832680    0.6510404889704531    0.1467993250660242
     0.9117132269497554    0.8065137602335120    0.2617735936679769
     0.7666360783882576    0.7929876804061857    0.4027744326978768
     0.1355241590404927    0.5495169512155985   -0.0588970865556434
     0.8759380191300191    0.9377766382717238    0.1692821735369031
     0.8972467793385844    0.0144110312920194    0.3883748794867442
     0.7898144406634828    0.0910127527871052    0.6153958528519201
     0.9617383682406270    0.0395438467157239    0.8231129096743349
     0.2885893032764674    0.0733487132175095    0.0117620206084146
     0.2955666817055195    0.0413426093033225    0.3318363690826605
     0.1165494604517608    0.1521031403625243    0.6012976287930312
     0.4390040513274879    0.0767149684015887    0.7002834570764487
     0.2155442218508613    0.2774444034952817    0.9015370569975087
     0.2614369207434047    0.3952855977849231    0.3488397868122279
     0.1506188473892189    0.3021646185882873    0.6239300976670856
     0.2161214136306776    0.3622399547813405    0.7486579766357829
     0.3181882800227862    0.4196116761339963   -0.0238754735672402
     0.1999912899798698    0.6946581657397771    0.2758940266819896
     0.2253063088188424    0.6240462305211838    0.5888547075316800
     0.1456739917551516    0.5349384048810886    0.7157225457785262
     0.2346737579627059    0.8099506800634053    1.0218580277497251
     0.3219334303545104    0.8009814895607841    0.3694611719794951
     0.1803295849284504    0.8850480024936154    0.4724937719030137
     0.1228012052103114    0.9042312855328021    0.7892079643272887
     0.7999664029362766    0.0706241025185328    0.0363193243796107
     0.7436637868290606    0.1365658364620811    0.2620619198288633
     0.6461144753180849    0.2318635243572657    0.4767657056758962
     0.6201578173174717    0.1063830843296146    0.7496368551567258
     0.7012360204748846    0.3095332705740584    0.0704570396962901
     0.7834518161131652    0.4538138034839218    0.2813651860741658
     0.7189970937198006    0.3846854992680825    0.6474280229487867
     0.6381676181573442    0.3085337839220234    0.7940988247840816
     0.7239173673140031    0.5885451059450372    0.0816126950534291
     0.6933172179774530    0.6108416906582441    0.2670721958192381
     0.7361023617277057    0.5241338752291318    0.5894104182662542
     0.6545179218830163    0.6181705337162294    0.8391825471451819
     0.6616507238432708    0.8300431662362572    0.0883294337039869
     0.6681183804635267    0.0251775663801238    0.2277591211052677
     0.6622304039374174    0.9222107914591966    0.4005346380021363
     0.7856372905422724    0.7718424535758445    0.7372426902508890
     0.7097773838898551    0.9793335027956852    0.9414343391307414
     0.7566701634848749    0.1486627550437414    0.1810431164707282
     0.6580023660209962    0.2436122445339988    0.1636572788483993
     0.5834645560807664    0.2109887175000978    0.6723281537239364
     0.5463003603313437    0.2522718177116374    0.8437996248736762
     0.6501290935897700    0.2246907483635429    0.0767577060581177
     0.6396518392243463    0.3536361434342765    0.3943278541347779
     0.5869000992338942    0.2807097735403875    0.6507795984417383
     0.5603999325784200    0.4725279748991286    1.0081654951955847
     0.5884663464692191    0.5998921229500668    1.0435341731047603
     0.6426914845797724    0.4692732408747945    0.4109919454661351
     0.3592235637962330    0.6333594513944096    1.0965007648050633
     0.8930933176622416    0.8524849213480619    0.0924791697586634
     0.6176908640534315    0.7979971056660274    0.8771171746091095
     0.6563955077833156    0.8022192912984031    0.2656851908914548
     0.5744473840177119    0.7191866753700585    0.8062599749996708
     0.1241003983834418    0.8755728215842270    0.8307622467995669
     0.2645448215365005    0.2635793508465286    0.3997909629767223
     0.1096245647343505    0.4027497911507107    0.2585678976636769
     0.0328783989658864    0.0303004347003785    0.6421604375944640
     0.1784877406760153    0.4144164798890662    1.0431093701501104
     0.3419734656889489    0.2653099774936550    0.2762615329987942
     0.1030792030832450    0.1488682665855544    0.2456903540326771
     0.1319476766757291    0.2234553972774936    0.3691813776832145
     0.0950755355253094    0.7492224305083148    0.8641652230423096
     0.1478856193809781    0.7425109310238861    0.8882162897268979
     0.2078308250558210    0.5808766526274302    0.5209414488300963
     0.1527787649159399    0.4860047801569071    0.5934761344057581
     0.9615111393414835    0.8476726283581064    0.7787056980766566
     0.0962859340530714    0.8653334458357351    0.0976989035845272
     0.2407465319506287    0.7168699414534935    0.4581888808119580
     0.7857352203213496    0.8027526135990615    0.5869602675103307
     0.4966102952186444    0.2856107496023652    0.2779389628082212
     0.3900164768662073    0.3303173169956601    0.4969782804639152
     0.4328342060657897    0.3462201714784153    0.5220626227234660
     0.4709445511189139    0.0910203684079492    0.8959129178102124
     0.4566341082087876    0.2523954580108921    0.0922306617586400
     0.4990179902050077    0.6059214086967254    0.3682260550375449
     0.4752612630856334    0.3940619467389272    0.6990759533059205
     0.7016890112085196    0.9120752749201856    0.7658771491161831
     0.5052010978393877    0.8110649818310489    0.1178958891901057
     0.4042015175108339    0.7572771883159264    0.3603320065269367
     0.5767792181448540    0.7735378396145933    0.6743040398494927
     0.3364405474801988    0.6467504624474936    0.8155777601875067
     0.4193446562879665    0.9934829467403636    0.0977911899119890
     0.4244969918613532    0.0825336157708334    0.4073823569435284
     0.4188721330868201    0.9254948053670011    0.6919079701094348
     0.4480031927802827    0.9913362137114743    0.8958652695614061
     0.1535269522280354   -0.0183339060868830    0.1342172826704022
     0.7674043402614494    0.1824343144188465    0.4553511407078636
    -0.0261915835410906    0.2392291145483338    0.7987087935665664
     0.8776248844166562    0.2707021671320581    0.9607698687160021
     0.9695357626969380    0.6050105473290643    0.1624515786142115
     0.9153164040217575    0.3575591520308883    0.2593350195252188
     0.9593316568828121    0.4264780930703043    0.6299575795261813
     0.9054212811028934    0.3823156746829097    0.9127158501230729
     0.0692705855723215    0.6450508237017633    0.1377398466003733
     0.9454016853349486    0.6857678243452725    0.3855426018574613
     0.9385722952154628    0.6637361012454426    0.5690920341831973
     0.8816489289638111    0.7013151406725256    0.8404882293204904
     0.0526850497147548    0.8863937754036912    0.2802235725346870
     0.0031113405058313    0.9394628791840830    0.2950998728623078
     0.8304360440862484    0.1121364117737968    0.5331391590050303
     0.8848102634696052    1.0253317872768177    0.9357842210304800
     0.6003289923654798    0.2407204435435255    0.2564579387249816
     0.3298916711128860    0.3537911835971894    0.4961289098265347
     0.4254448859605380    0.4036601364450877    0.6888843920933972
     0.4562911121366324    0.1552610781755717    0.9399777694208391
     0.5117656689171386    0.1675716706884726    0.0029109274519585
     0.4458885655876990    0.6335213570723220    0.3755066027317389
     0.5522784599800825    0.4253904711199089    0.7727353837070357
     0.3264275689317577    0.2984233246709003    1.0185529918369420
     0.5561738766803351    0.7356100285745614    1.0202803357381514
     0.4159876153172376    0.8372435961784845    0.4499878298725091
     0.5042392855453974    0.6751490333603090    0.5556668357090330
     0.2888910468330225    0.5435852830905694    0.7329039725774257
     0.3421299580342199    0.8724989225835872    1.0410953967570351
     0.3941514657239975    0.9392348743290972    0.3116220737161516
     0.4459931884824717    0.8939931251814055    0.7739053928737318
     0.3376782501713769    0.9779603236294950    0.8567024764032445
     0.0685416388484766   -0.0022558305097455    0.2744197894094815
     0.7809407925321024    0.2031798272906276    0.5889947305357093
     1.0458523799331032    0.2250121343124785    0.6511486359823374
     0.8411049330485106    0.3246780634620931    0.9539430628560051
     0.8951578108704039    0.5116984848042722    0.1674318486799789
     0.9813491336745475    0.3460019414624180    0.2000034998574333
     0.8914782817531113    0.4705159013153670    0.7415594534034603
     0.8604982546013694    0.5039673509011989    0.9672033949491735
     0.1373574393038362    0.6527451372931409    0.2463945914714261
     1.0261472517885983    0.6159133419095691    0.2551634265638665
     0.8722717337660936    0.8217869790937957    0.6124600308288860
     0.8938507722875427    0.7337936247489399    0.9381047369348300
     0.1506065848321129    0.9532963518003946    0.3798363654006732
     0.8799596670808476    0.9470447766892053    0.2664011103283389
     0.8862184110341659    0.0013014031534576    0.4565326121347582
     0.9196247552579770    0.8567841572252447    0.8692213145583142
     0.4150693458628727    0.0525241656978752    1.0074825977744508
     0.4123081754848390    0.0833334606092229    0.2412422797827016
     0.5200752737725755    0.2452849369138827    0.4832900418952130
     0.4048754130764521    0.1061577912538129    0.4992372848166663
     0.5050672543093896    0.3758895447970190    0.9082781508979376
     0.5309512090599884    0.4507759004695515    0.1438159553000028
     0.5735514667264526    0.4974571659049331    0.3158746879096848
     0.5718159200031551    0.5329223432863414    0.8689327027176256
     0.4886488309750709    0.8050474708127258    0.8759006547713356
     0.4637016259707318    0.8006640961981933    0.1309681297331575
     0.5093981772303636    0.6387961378566319    0.4722694796650325
     0.5477571658555638    0.5732236452371147    0.6802447261044406
     0.5623718627919420    0.8578052748396141    0.7475121587315290
     0.4147871928128208    0.9421699086126868    0.2518889311257611
     0.5764132978370134    0.8860369581076505    0.4884407075449708
     0.5729399444410868    0.8815495309869090    0.6865859401871376
     0.0221892758324035    0.2380676180926231    1.0407713817664668
    -0.0061418505931458    0.0814534575646479    0.2374934102433912
     0.9161072238223280    0.2730026581432861    0.6799907017571118
     1.0271331964012222    0.1628778291961811    0.8367452483604738
     0.0054572920451457    0.3345203903836699    0.3318111479962143
     0.0936475175300512    0.5485295254247433    0.2166664258589273
     0.0819393210744448    0.3964684257665479    0.4451914601726967
     0.0114137204214473    0.3761858377455773    0.6927425506822589
    -0.0481044453454813    0.5541416545694353    0.8523706007092627
     0.9933857907425654    0.7689998321590332    0.2681308189024934
     0.0557568354603003    0.7878603984907562    0.6058777306969297
     0.0214616782520303    0.6436280200007606    0.7041251063263989
     0.0293991064389016    0.9251977558884951   -0.0924346527384474
     0.1657322485846118    0.8172398101484124    0.1983446277310142
     0.8130095891976531    0.9063495590247059    0.4497583282613102
     0.9313567652371803    0.8319854961314556    0.5774057230324651
     0.6092372984384173    0.3051156880712304    0.2663918403540563
     0.3505758573148900    0.3938470599831222    0.4601692250136449
     0.4463994114672585    0.4535458293983742    0.6654140209377296
     0.4849755158052404    0.2042328800839685    0.9096259992804636
     0.5025501811620243    0.1999944464085012    0.0790181091321918
     0.4086716639978896    0.6394807498336129    0.3215278147510515
     0.5283222759009850    0.3593469795199601    0.7689477856528474
     0.3656950478845359    0.2294544485747046    0.9777926278852165
     0.5093444611471325    0.7093089380666935    0.9687990414800445
     0.3785876321875747    0.8048859136506239    0.4756933014768506
     0.5541436895806447    0.6823207345482567    0.6069221924792274
     0.3035708984796897    0.6148037102374347    0.7820621719814465
     0.4271421792538916    0.9228285030780969    0.0627019425239847
     0.4317783279915732   -0.0101225962604670    0.3088239741063770
     0.4868011131514832    0.8592794029292878    0.7271820335121417
     0.3623278563061522    0.9348659278347967    0.8870385493518604
     0.0779600398036353    0.0262270632373520    0.2298611216323890
     0.8625277480659773    0.2023960614509562    0.5849331944871163
     0.0237919467666687    0.3093308536246409    0.8879883343775730
     0.7932400866362617    0.2837782486433307    0.9669739555619054
     0.0156377124834321    0.5140457685279360    0.1316380069515450
     0.9602079152180162    0.2797163462441988    0.1417585067768661
    -0.0218836494087485    0.2567815011291010    0.8604039730464911
     0.8228460061844199    0.4630840109216808    0.9602878129055316
     0.0895412419339484    0.6872342763372065    0.2056399954304664
     1.0259211190254742    0.6164124098925008    0.3112596529451809
     0.9233185518399726    0.7038668969480719    0.5852670319497603
     0.8754370912146630    0.6664340301165479    0.9261575593043504
     0.1309026550991783    0.9109893780249898    0.3336827557211854
     0.8977884246655936    0.9070855890513336    0.1968596370087939
     0.8988641981595854    0.0368729043454335    0.5128385633911153
     0.8730904030174943    0.9925901378651399    0.9441197820714402
     0.4740964238345108    0.1187320915877782    0.3693678636705372
     0.4633620361144386    0.2027799697137752    0.4421974218138821
     0.3238339269704623    0.5063432330338500    0.8024564425133621
     0.3306636931751168    0.1690082174863609    0.1345286198363853
     0.4210659134023337    0.7407927891698911    0.3114204754317809
     0.3980646635410484    0.4642377896120322    0.4887900023397515
     0.3545976064726034    0.5989011216521429    0.6624810566804610
     0.4415264001230970    0.5244212931885721    0.2757455637151986
     0.5011662561492348    0.6023663811984871    0.1294560204602463
     0.4717982190386503    0.7845032985762916    0.4757479436813500
     0.1811923713089073    0.7233561892764154    0.8535879921877670
     0.3336910000076842    0.7000606543851998    0.8260414898178245
     0.5992658458687200    0.2518195231877934    0.3843207570225231
     0.3095487646619736   -0.0435360662560956    0.7633648579806233
     0.2795647348418714    0.7984545451396479    0.7116706068831498
     0.3954707207209276    0.7832490515046701    0.9553133738199856
     0.9705155357008279    0.2352577237424403    0.3455727079236483
     0.0674475770701869    0.3483781598270967    0.4425002104191690
     0.8781018417473392    0.3087341838083866    0.7114419116758668
     0.9636161971552645    0.3807828904273088    0.0679898758537839
     0.8667466278264752    0.5924228440052822    0.3470707313684464
     0.9704430548221378    0.5191657328673932    0.3938518494427092
     0.9139212366198765    0.4099461155849073    0.7713469755803916
     0.9372373712089258    0.6045359009367036    0.1107154386943005
     0.8747548741915843    0.8669017470813990    0.3218306344574151
     0.7619096450800206    0.7475072591657375    0.4387338635674642
     0.1013364016697203    0.6078251275044749    0.9421820321123567
     0.1803448586707430    0.5945240944586450    0.0788576386626474
     0.9348273834062273    0.9605340943871572    0.3560043416877027
     0.7538555445355430    0.0661263752674108    0.6264808791735003
     0.8987785223386183    0.0261114304720528    0.8267917974059467
     0.8693316506846727    0.9965998022557645    0.1380347608085888
     0.4123248265360678    0.1165122851436646    0.9189966452299240
     0.4196668150826005    0.1042186517235214    0.1240300435109542
     0.4985102943163703    0.2331554009800342    0.4370897757573804
     0.3717925903565294    0.0800571363837859    0.5534280440964753
     0.5174140513915971    0.4339246619802549    1.0216844474352180
     0.5169544662630265    0.4085620714366424    0.2221792151286213
     0.4901767748691389    0.4693259598470286    0.3537807665652976
     0.5603670522136236    0.4650661267644023    0.9324347219460805
     0.4075613973021710    0.8132598347924213    0.8287432730853349
     0.4792058580853286    0.6935927697172561    0.0499696034641367
     0.5696537662127168    0.5415471029657710    0.4926051607130894
     0.5288630479071307    0.5528079778076636    0.6149963599425673
     0.4998381599551253    0.8061229683613209    0.7897858876054694
     0.4159789836505910    0.8892247702196713    0.2526749620117776
     0.4472151845110495    0.9188661609427885    0.4887767796759034
     0.5415467219626902    0.8046550175555801    0.6205124984039789
     0.9020263660393628    0.2596247520260235    1.0645697125021862
     0.1016676186217710    1.1081807843214646    0.2973358429563593
     0.9170394848147404    0.3090560669146256    0.6395838125427444
     1.0438708793689666    0.0306424640728220    0.8286751760195662
    -0.0229660815806927    0.2852896282718823    0.3344911379581811
     0.1505801244173655    0.4953329877676846    0.2767743356247932
     0.0210492762413171    0.4882962275280216    0.4795023493169483
     1.0215417896092618    0.2498129855319186    0.6301750863797995
     0.0470079865229159    0.5669943609967760    0.8136841069317221
     0.9606629241619911    0.7829954211025530    0.2391522444428527
     0.1201944853967630    0.7339617395596810    0.5238457564675086
     0.0077339334097995    0.6441209330684590    0.7645172365881747
     0.9657407965192802    0.9360190408128962    0.0703226173630767
     0.1263161889169835    0.8216470085356261    0.2938993808250993
     0.8328756119716570    0.8883665549785486    0.4896033058108738
     0.8764523886939747    0.9440764609472528    0.6246708166673149
     0.4976356369427097    0.0902468216243271    0.2718240085488122
     0.3825760878017344    0.2591555295879489    0.4537020205195529
     0.3587147269034884    0.4675101475345699    0.7340788230746209
     0.3912684808628852    0.1558261751457684    0.0640463657459488
     0.4287893022220918    0.7123619948075717    0.2046268329119685
     0.4186748730033355    0.5369630993569913    0.4662571727801325
     0.4352712530980306    0.5453748866489987    0.7070974265284004
     0.4083854831637314    0.4341760932195043    0.2210990311586511
     0.5166548937057467    0.6655622883980136    0.2217392912617435
     0.4492382688665512    0.7487712145907260    0.5031780868899639
     0.1717627108217551    0.7447947154782438    0.8091318636555611
     0.3469654865511277    0.8010374088917031    0.9109113456374850
     0.5490468801641359    0.1671566652142259    0.3745422461702696
     0.3481088780837158    0.0182238296588445    0.7548958462925454
     0.3249229430051951    0.8886879060857676    0.7734263435492483
     0.4608890758994289    0.8187382556387318   -0.0346375879632049
    -0.0685346702150709    0.1693315106247968    0.3689684528399055
     0.8537096597355160    0.1154250034353443    0.7927072869399213
     0.8042389187114035    0.3220620528696626    0.6880523176713993
     0.9667867794552790    0.3877292638368338    0.1260516278933933
     0.8499830691812787    0.6936570040758027    0.3459806115639070
     0.9291998739173256    0.5911126109138289    0.3520825224298314
     0.8839659239607693    0.3939725474821154    0.8536338120975080
     0.8729602777875060    0.5482157042839788    0.0516550955730155
     0.9108305948653603    0.7514647675144136    0.2685463857262261
     0.7872239150309706    0.8409515002283111    0.4441375043000871
     0.1855649024505394    0.5691972774820280    0.9333873838475804
     0.2136408291556018    0.6754533963490976    0.1390868829316094
     0.8520957222480509    0.0366086079512430    0.3648216374341106
     0.7941142485116532    0.1575137223540817    0.6188670865088973
     0.9744891276371405   -0.0250697245684910    0.8304873937070183
     0.9320931541420102    0.9226771180249295    0.1726656069155953
     0.4995954249709715    0.2220007830884449    0.0453550001055903
     0.3179066545790798    0.4218725016467094    0.4656614495012782
     0.4673531997178471    0.4123076727982323    0.6460230555437741
     0.4953381568953047    0.1597932427461929    0.8908659600806234
     0.3367251879782844    0.1643915587569966    0.8856598884738364
     0.4471944680112415    0.6507998320789842    0.3281954707819776
     0.5346229582597822    0.3894004311211083    0.8082813954670949
     0.3665306456274480    0.2719409348733245   -0.0320925014574778
     0.5038207511713766    0.6957443414352227    0.0044009324419410
     0.3681048127915454    0.7846610606274832    0.4351393050711803
     0.5416183754116839    0.7113893666779112    0.5868711188505373
     0.5847017902512049    0.5904582016091161    0.7043008961635453
     0.3791007643947233    0.8740087554277438    1.0851986845829706
     0.4087792219423993    0.0083500490829287    0.3432511177043823
     0.4576727658707227    0.8340322202512712    0.7319343895313870
     0.3402570170253362    0.9027934551187093    0.8656493397483768
     0.1199834324962121    0.9682723905882404    0.1179900451828513
     0.7625424274924815    0.1931170098615332    0.5301347432601183
     0.9514342430564516    0.1682563885771380    0.6680795414885097
     0.8269421578632279    0.2654615660114740    0.9684850631440650
     0.9351825004257722    0.5335366504980676    0.1524413841954626
     0.8784617733419916    0.3485766547913471    0.5197065150171502
     0.8777446857227142    0.4683856536080605    0.6880777081150845
     0.8330390497243055    0.4649196079209116    0.9239105105825096
     0.1298165362285098    0.6871442701720060    0.2046525801835407
     0.9274623278440208    0.7292801640279232    0.3963806032917653
     0.9013932542867028    0.7547305754894674    0.5627113217583056
     0.8989294982017794    0.7742110982238545    0.8369221689134467
     0.1259782220007607    0.8930610058667748    0.3667224979365320
     0.9168535815863942    0.9402430558759935    0.2276656722066094
     0.9353882793550282    0.0385850275809910    0.4980970162494309
     0.9149960693093327    0.9327179638980054    0.8500444565980847
     0.3051677200824616    0.1303841109547084    0.1993396989747150
     0.2487545416291884    0.9320122898702646    0.3374633623652384
     0.2928703553720238    0.0748507687902594    0.4633176010695501
     0.3784912388805369    0.0260749211819841    0.8054998509193675
     0.2802415896870422    0.1652464378736264    0.8795798044780494
     0.4377069534445236    0.3382151103999190    0.2515493270328650
     0.2690994728411582    0.2349649152300350    0.4749874836744865
     0.3460808046796133    0.4374837394424835    0.9066872990779755
     0.3021024368749030    0.6360589264284963    0.2023214192006202
     0.3488578045657205    0.5969414762897014    0.4231351890397728
     0.4206929335383578    0.6772462613642040    0.5472337560346568
     0.3314959988176860    0.6535412370301219    0.8710575717148216
     0.3052357065890051    0.6654021032840718    0.1082047926269331
     0.4988288828850699    0.8494909405056678    0.3242692755694601
     0.2108124629146917    0.8397192100407294    0.5401436994666462
     0.3343256856784822    0.9315896290631689    0.9695184934148999
    -0.1013527984737433    0.1662309346483831    0.1359940961097763
     0.9265159971038306    0.1626913178924354    0.4249507556588783
     0.8234227345137960   -0.0089423547233298    0.5472530286788945
     0.7865513803305417    0.9947672292814953    0.6291344368998623
     0.8431812884839518    0.4100963255023425    0.0344632448737173
     0.9685625809529106    0.4148349167314820    0.4591502250952909
     0.8097567476422959    0.1520528103342350    0.7853477733384917
     0.7820096834328337    0.1482043936347198    0.9381670096740754
     0.8961857983775663    0.6889794798860160    0.2629006899836878
     0.6743546800063031    0.5486720332178064    0.3567835967618332
     0.8266781296941955    0.4326577332361131    0.5087169712504608
     0.8284639465276704    0.6273435659928231    0.9233260313933138
     0.8982835970212896    0.8055582588901452    0.1294153427135165
     0.6637134882377882    0.0661459187110452    0.3483216970641906
    -0.0592545845907583    0.6187297937010739    0.5264826642243707
     0.8677679931451898    0.8293357814834911    0.9214479713192687
     0.2866926064548931    0.2127719882825546    0.2377463676881780
     0.1995247007194793    0.8981329652607274    0.3611157883111819
     0.2912265823771595    0.1128024630602727    0.5398245919211494
     0.3537494399497392    0.0566244560912219    0.8717868420735327
     0.4867647171134568    0.3251951704372256    0.0971885639872791
     0.4594576790493443    0.4124418836442026    0.2775288636267071
     0.3351213175413657    0.1941388143712916    0.4540349572603660
     0.3330036870891473    0.4879998900537024    0.8646454134956124
     0.2482895922948447    0.6251939608036785    0.1900407726705341
     0.3602367404703121    0.6329052931173671    0.4973074497203805
     0.4527233564088715    0.7190683061274846    0.5873949188236492
     0.2921935399181789    0.6445367551579062    0.9218720389497578
     0.2955755448874373    0.6934093935607012    0.1722597872797617
     0.5425153163577131    0.8343501069850746    0.2742159366652071
     0.2347157537535252    0.7892443043950411    0.5773200740651444
     0.2715212991077040    0.9212972028364330    0.9848280293036578
     0.8509144493198876    0.2367021073564606    0.1514418634896850
     0.9376221702004947    0.0942169181732159    0.4396746652010059
     0.7690751200464713   -0.0321860529327224    0.5718019382967245
     0.8311950332355330    0.9777063564718805    0.6539970577611693
     0.8756569594929223    0.4636756907310547    0.0525691768445988
     0.9077124872450142    0.3948966474682384    0.4711915261087887
     0.8535981774550860    0.5872784156267445    0.7769928712653494
     0.8413416775362197    0.1336953884732344    0.9057445684877777
     0.9278532703013612    0.6632103756411371    0.1934029725015564
     0.7179511795750072    0.5099983079628849    0.3297341845659684
     0.8923372721369979    0.4298127422528029    0.5046218237628977
     0.7636175943604475    0.6607840279637960    0.9391766890775094
     0.8895036036710329    0.7733666122002433    0.1848588084008380
     0.6643097359830873    0.1140962003167288    0.4247082634064948
     0.9842977723473872    0.5476911251423214    0.5184545179240063
     0.8253130453644725    0.8963088404328485    0.9485498022793843
     0.5234324207013091    0.2147420300698421    0.8753458856626081
     0.6150266511389710    0.1788918275493710    0.0616860868123101
     0.6838029563972010    0.3236697569146665    0.3378918856990207
     0.5436455701759367    0.2947514436760411    0.6802105863350147
     0.5641014262540209    0.5332031380453212    1.0546159117540617
     0.5737313314531489    0.5809296518162869   -0.0220161906306831
     0.6023340613069658    0.7161043587329740    0.3833125158253105
     0.4106767659312895    0.6686389157665906    1.0810670454901090
     0.8694485295149385    0.8571380932650756    0.0350200963435226
     0.6858469810837018    0.8099529440094914    0.8853317983491379
     0.6292464813150404    0.7513205394126860    0.2683744768565690
     0.5618285397514168    0.6841451961810979    0.7282842735396637
     0.6493961219651599    0.9514257498465536   -0.0505753850663525
     0.7463458363261696    0.0719108102768523    0.1632705442147113
     0.7156388031299139    0.2757484916933438    0.1926704100185163
     0.5321590532865194    0.2194878378218469    0.6785577126783525
     0.1284230094212875    0.3963896191168206    1.0471724865709664
     0.3078050822205838    0.2874153986747862    0.2310869228828781
     0.1347479881421287    0.1396834895227630    0.1842427443168454
     0.0735752536765113    0.2227879765846816    0.3580946547331693
     0.0571146265302626    0.7885146654818548    0.9049429680097352
     0.9370612026256832    0.5591970269425116    0.9660520254516575
     0.1598598026023716    0.5291828246244392    0.5205448838649244
     0.1057648856745367    0.5253259735958022    0.6189290417927801
     0.9185294039300708    0.8380555554860737    0.7368592259751477
     0.0624231329791174    0.8120874300232956    0.0716586777908511
     0.1723532455930367    0.7408609825065735    0.4599754921018729
     0.8240386447323733    0.8184343212288137    0.5406390480606367
     0.1189747056406585    0.8028912002101759    0.8490918061703185
     0.3050693809851698    0.2086128446058308    0.3827993380800111
     0.0663427488426810    0.3802815938650680    0.2194753307580517
    -0.0111251038965268   -0.0049686927796964    0.6723435352289560
     0.3935610446031072    0.9591799983536293    0.9597782217281472
     0.3311039698429135    0.0869233118170667    0.2551232159483390
     0.5408620350753016    0.2285711937664675    0.5615906928842216
     0.3444869286912094    1.0356316401556709    0.4954010043006675
     0.5031221017580195    0.3049024252423417    0.8339304155284278
     0.6107028632182115    0.4380271391083213    0.1397132733523195
     0.6066030667576382    0.4386298419240716    0.2520400446277473
     0.5868614393878763    0.6192682183618365    0.9296339905440585
     0.5739559443493137    0.7876826673211654    0.8659153322440246
     0.3891767924338091    0.8283090072123124    0.1796519103681281
     0.4580464627100477    0.6331529846687252    0.5325020815098414
     0.5038783845852095    0.6125424137511267    0.6070735429983072
     0.6381558363551912    0.7933197521337274    0.7467758719170564
     0.3458283974743229   -0.0609708179799934    0.1932077549991439
     0.5695695174119453    0.7838107794807668    0.4447168293613843
     0.5714273537462925    0.9743663037008827    0.7444421047340533
     0.0125278750367628    0.1453653533668728    0.9810439418081820
    -0.0546228887802728    1.1080789022299580    0.3077486946576100
    -0.0009875497318196    0.2141119177498880    0.6748521249914861
     0.9506897286828233    0.1647141544489137    0.8795775988200901
     0.0001667092125951    0.2345493891829492    0.2950380414482195
     0.1335959143717755    0.6156211983025399    0.2809678141450242
     0.9971547928462393    0.3660666471154528    0.4372827157448045
     0.0540915027895722    0.3865196842546704    0.7713975831306181
    -0.0314194660279068    0.4530053266190064    0.8200178408091841
     1.0237629513037170    0.8000988719656359    0.3582840044658422
     0.0066468235735906    0.8791397967624630    0.6170183927254669
     1.0041169892907087    0.7029323458443715    0.6474108866576556
     0.9076469505204928    0.9005307423047360    0.9538178068494816
     0.1821360592677298    0.7151494213294124    0.1574146895478697
     0.8507104935356056    0.9436918488971450    0.4817084506320299
     0.9967032766079591    0.7994224741980646    0.5272586382075803
     0.2602655202480980    0.1149566168321008    0.1860274238022402
     0.2185435544808219    0.9719584460188709    0.3189694069872385
     0.2378992119249207    0.0653747970428239    0.4583301572670567
     0.3354260352107198    0.0668630674573379    0.7853230096182970
     0.2621825560986895    0.1627662314629144    0.9420298584620822
     0.4112383214722519    0.3412062385927745    0.2995390564332580
     0.2983203887925852    0.2767979975703290    0.5333847824610174
     0.2872096394660827    0.4584623673644422    0.9255466569927486
     0.3037032766207796    0.5826252176351255    0.1422481316021175
     0.3075200961296150    0.6363264765060691    0.4166518872658161
     0.4034204537910186    0.6993488858734295    0.6387921548056981
     0.3074720879490492    0.6083580064366564    0.8281111141772594
     0.2698535638691628    0.7639446294529419    0.0908701998301845
     0.4608714099878788    0.8219823731567018    0.3341221950939910
     0.1877406653931073    0.8755866738282884    0.5959036170943252
     0.3182109882500709    0.9156556526701278    0.9129216587118303
     0.8696042397467526    0.1447255119515071    0.0840693645006379
     0.8842184185125956    0.1575993088071278    0.3847994804450920
     0.7861321759420642    0.0058281197061004    0.4920487011413557
     0.7725057643205823    0.0332051163892110    0.7237603864223485
     0.8449941805966908    0.4157557041648687    0.1184037629856221
     0.9431071697313446    0.3827014735912766    0.3856419149079121
     0.7836106523947314    0.5498822652830492    0.8018367792178518
     0.7707700092420324    0.2031075018518066    0.9212814850894578
     0.8424596085368360    0.7065639990056000    0.2358933699775476
     0.7231054302629034    0.5942087717694087    0.4064358974741314
     0.8407935702496896    0.5116199093849390    0.5415008414287618
     0.8177050279508119    0.5617377973162910    0.9387942365074310
     0.8525622909879886    0.8140346948675414    0.1217364133996189
     0.7171205271751481    0.0838776846612383    0.3375004665195512
    -0.0160440766953425    0.6433547499221907    0.5067793126347697
     0.8191738188311385    0.8038345331212593    0.8862069853957343
     0.7072808129797763    0.8938103624344188   -0.0545011500280352
     0.4108810220139294    0.0512841980842669    0.1658366901089147
     0.5084817765741356    0.3066820033996974    0.4322977507233247
     0.3789172102269235    0.1892598051399001    0.5530597235709771
     0.5516723674059856    0.3883072426432230    0.9755945189987051
     0.5109677222489521    0.3583076940248573    0.1726207303368644
     0.5383836910481828    0.5709502823071446    0.5115855106803869
     0.5392060222505299    0.4656860613744602    0.8787915439817972
     0.4304561559139556    0.7517690029106722    0.8345612996196997
     0.4598159379634132    0.6915691206356178    0.1084717098688433
     0.5168313727371985    0.5348653561377144    0.4388442854868322
     0.6289988099657717    0.5543225385690870    0.6480572608527179
     0.5063841768408458    0.8705406299042399    0.7694409717900934
     0.4820134589120855    0.8908540412131177    0.2567648068680051
     0.4931711061216942    0.8739808658269161    0.4643728503388515
     0.5348583452953604    0.8596817816221954    0.5937325672643857
     0.9491986181794783    0.2311521298789613    1.0340368584077813
     0.0364370450736064    1.1454738302045138    0.3096436645764335
    -0.0316945900290013    0.2768019276850437    0.6395266375115050
     0.9940321962213902    0.1122806447091774    0.8633853835378265
     0.0847985822261657    0.2787207755743734    0.3233380943174458
     0.1015232392091111    0.4604281933250425    0.2380980747912766
     0.0131192695220212    0.4607459642504312    0.4103054648309975
     1.0577237471469942    0.2931845905833196    0.6869181093046055
    -0.0153022952411334    0.5627366290021095    0.7798513567571893
     1.0035683893226648    0.8263241914244267    0.3164186854176436
     0.0987014736690523    0.8192856076228489    0.5528563056635742
    -0.0239719117827368    0.5880744231344893    0.7333574421402463
     0.0225595399394461    0.9446269158037546    0.0420030885998679
     0.0813405049312678    0.8251273836868017    0.2386578574122622
     0.8402134597569380    0.8749125088066367    0.3804514161251640
     0.8891227535221925    0.8764738249800285    0.5973936043614231
     0.5373546677919794    0.1458877944167775    0.8594784696181723
     0.6280645450511686    0.1239626042028900    0.0144718114179671
     0.6830591577866564    0.2599200711763068    0.3317666710573292
     0.5070626877243911    0.3293783938061831    0.6493457830906401
     0.5910273777850190    0.5279635788772327    1.1041002557445012
     0.5196967754474240    0.5603446939811543   -0.0271416708241488
     0.7127548966287691    0.5091107118495019    0.4580920556629297
     0.4351055442397040    0.6638199660285117    1.1348784979693527
     0.8735270678670455    0.7954704525973484    1.0121906484939001
     0.6999696075208128    0.7492430961743256    0.8381780265240654
     0.6009982811120701    0.7719846857133733    0.3226917027532767
     0.6154795988133080    0.7210534789827781    0.7693187649995243
     0.6699381503686731    0.8923064638778022    0.9479404482645736
     0.7122192295521100    0.0702320396605365    0.1228849121258973
     0.7305424002245600    0.2756539325987417    0.1316364003138476
     0.5051186223605802    0.2330047327612442    0.7360594489104898
     0.0916900126062611    0.3963710756441388    0.9974397121263305
     0.3302539670267766    0.2464806501291999    0.1757118632661719
     0.1137563251586823    0.2065127345562350    0.2313208489494783
     0.0463043621174615    0.2632837966532128    0.3980792849497606
     0.0580911504450861    0.7735280579833815    0.9608222492335746
     0.9180151858323553    0.6192047334853280    0.9870363779041039
     0.1740754376684109    0.5721265613579747    0.4715553025138498
     0.0639271612981401    0.5160051178395381    0.5783356925850538
     0.9330634639555478    0.7866483216489029    0.6845421111390332
     0.0836986580954973    0.7500958870501213    0.0408634417768573
     0.2042738703948766    0.6774834652695068    0.4107063537950512
     0.8450526356819722    0.8614134536916451    0.5725142902188167
     0.0627687506555532    0.8662157014514016    0.8616150452593522
     0.3051544308210444    0.2279869373158211    0.3177748593411978
     0.0609199431555290    0.3094323722513071    0.2002034973879536
     0.0223607947852444    0.0093702207769220    0.7225151041784077
     0.4023874739881034    0.0048572336159618    0.9327004166623234
     0.3526908532506242    0.1120645961143362    0.2134576142909264
     0.5043283504148041    0.2715215195516858    0.5435190012347717
     0.3511771211447198    0.1077370671806021    0.5300068824376677
     0.4931042597054540    0.3154074709583011    0.8972992214809806
     0.5827897293075501    0.4160746989111030    0.1786314126307046
     0.5823324913429739    0.4157058817163174    0.2926488484670572
     0.5749444590961331    0.5575859352179781    0.9246170428832989
     0.5281954888608246    0.7853322912165421    0.8299927167542039
     0.4345432671805415    0.7751482542873939    0.1691796064772297
     0.5072973914272199    0.6077422990003605    0.5134435936858657
     0.5035590756551179    0.5670636310197451    0.6524087524153559
     0.5737434083158218    0.7954988169569488    0.7383353843876616
     0.4000093329336925    0.8976742687119177    0.1935152743310779
     0.5285994663150759    0.8308436565659074    0.4594633390428303
     0.5564072283058291    0.9614049641428263    0.6881058989573263
    -0.0203678994227043    0.2017018866271202    1.0153178102436753
    -0.0041848475289258    1.1057862679121317    0.3138355832402573
     0.9574611238810748    0.2731543916585043    0.7288035629202587
     1.0121911502450527    0.1519692456159664    0.8781677548649623
     0.0118265365422923    0.2689311795300957    0.3512424979848471
     0.1383598813869580    0.5627751902319307    0.2275357674601606
     1.0465294398733385    0.3595168729332801    0.4086840481948962
     0.0560469879119671    0.3341536106740136    0.7289702224021247
    -0.0020803911976014    0.5103678427707727    0.8444812719832304
     1.0409402704716775    0.8167823973682133    0.3106120586408008
     0.0210593264930772    0.8248376849743185    0.5718406814835991
     0.9830540986875733    0.6926078857313888    0.7044186372415796
     0.9419663309937661    0.9291711964576327   -0.0019044617959554
     0.1319867507267192    0.7717746242499154    0.1723696645424173
     0.8136039473884032    0.8607472887959015    0.4031888603294087
     0.9670004608587476    0.8664796867343050    0.5422853672379453
     0.2357106278300644    0.1952557134922189    0.2164100456283062
     0.1644680504446680    0.9429493735938175    0.3340638489523829
     0.2314956267846858    0.1028772180697619    0.5349102983818100
     0.2973710096533788    0.0945874736643316    0.8475122410118446
     0.3131191660463837    0.2089524656339648    0.9754090640268134
     0.4285747057568080    0.4207599730152108    0.3410178857793937
     0.3598769505660976    0.2344132230635183    0.5107115949547963
     0.2731942799139102    0.5010727560573999    0.8751656728985558
     0.3694674692144729    0.5668954718076892    0.1590504632127085
     0.3110090596487042    0.6876145774945147    0.4862684485231119
     0.3653446622187240    0.7593846835219331    0.6171618827159269
     0.2877864966808686    0.5727437038273354    0.8800485964242650
     0.3676912546584498    0.6110839783922820    0.2174012974782821
     0.4555122416961767    0.8682664999554780    0.4071605949195036
     0.2116703153530334    0.8205603413635855    0.6310364203660364
     0.2687067136117645    0.8697594524896182    0.9226513774810412
     0.8287007958223404    0.2176238756185277    0.0932561375694921
     0.8790274225207283    0.0813080578516494    0.3939928932119747
     0.7309725062247541    0.0018885220300196    0.5296677576030407
     0.8110350580751344    1.0785523592546760    0.7054486787159052
     0.8163568106477074    0.4934407845268446    0.1254606848213297
     0.8868865098643497    0.3951807966908275    0.4179331041270796
     0.8029480944285471    0.5561846180254481    0.7378532934445290
     0.8220338595529795    0.1871978363647204    0.8770823247031929
     0.8667219376509898    0.6912637290909377    0.1644334265256074
     0.7550791551265000    0.6091249366536029    0.3553708436774959
     0.9057495544717378    0.4879182259624957    0.5314725354433156
     0.7544871490247574    0.6079864049836620    0.9600326782582880
     0.8258046086882850    0.8077210767350821    0.1797224768052476
     0.7292885678902682    0.1081017637670260    0.4140689156233501
     1.0209649195493988    0.5735864344702456    0.5075338825057155
     0.7833509730267498    0.8799162617846602    0.9046816410920785
     0.3174307962372699    0.1719476126814808    0.1852743625418215
     0.2514678346011257    0.9240365178535147    0.3756178456994660
     0.3107414982199002    0.1120740864306571    0.4885968711550506
     0.3982357744205877    0.0458419501577982    0.8446330148574606
     0.2925793883686975    0.2123783433332753    0.8805205004983790
     0.4257096567633594    0.3729508435241441    0.2322687092309792
     0.2896555868892919    0.2245875514646292    0.4399652934143385
     0.3558944715649251    0.4366097537448884    0.8649070554091660
     0.3145266823383946    0.6250238221664576    0.2381073686701476
     0.3817770231387408    0.6161114478636660    0.4409252026465869
     0.3935986718686691    0.7171689470891144    0.5605900195721357
     0.3022967842548555    0.6897292916053065    0.8966858875797207
     0.3306231281861812    0.6946645299989519    0.1253882460034809
     0.5025907998624262    0.8952290625100023    0.3409247968629006
     0.2530789137437637    0.8163339884084114    0.5447862713632393
     0.3140490450735893    0.9678957968062780    0.9976330749992511
    -0.0989654280495208    0.2184415025019607    0.1550595231798280
     0.9289888498311493    0.1633606956093629    0.4647879234376670
     0.8105653430489033    0.0030011333735902    0.5807017452633475
     0.8076922677882183    0.0293322411444138    0.6431847039200741
     0.0076821537227625    0.3373870059993567    0.3752140040676941
     0.9404491068283778    0.4413445301156845    0.4811563550474451
     0.8319998273410046    0.5698377530321881    0.8367877174109947
     0.7975540609735847    0.1068420943587075    0.9114345614019905
     0.9152970277536269    0.6430336589299410    0.2418764848903061
     0.6847681526142547    0.5535611836392997    0.3194205466153722
     0.8480048206149873    0.4201286396907081    0.4731266340365641
     0.8014968466239882    0.6391149117637149    0.8943167894280246
     0.9177911058440437    0.8115601689347064    0.1698220294895514
     0.6574715966289498    0.0518800977044351    0.3795271657941631
     0.9316571997963715    0.5764527981564432    0.5016320433608776
     0.8707782289601107    0.8720849546405138    0.9211880864174051
     0.4971265087123731    0.0741792858385765   -0.0005323713817416
     0.4304038700081237    0.1764747438039570    0.2149092272634088
     0.4840578809300699    0.3574507538176928    0.5258570049932503
     0.4369573964314361    0.1772979392288372    0.6079002900662909
     0.5158506519936541    0.2773353484231965    0.9346233932458973
     0.4664827214834684    0.3924919451191596    0.1350278521292650
     0.5450080652670849    0.4690678227715931    0.4031295041188365
     0.4902319646747318    0.4739209494807516    0.8700397156224867
     0.4367213326862173    0.7041039547330565    0.8089169116804379
     0.5124965305702079    0.7738417693696427    0.1454057027562788
     0.5424747824716545    0.6683652309864186    0.4802097635611440
     0.6222089858711963    0.5760386306607072    0.6064950975007022
     0.5970047362292098    0.8031907278669523    0.7777965623434853
     0.4586471311965238    0.9510444721535951    0.1738943450060268
     0.5672346516942303    0.9572593957138263    0.4786435763783962
     0.5115841089436772    0.9739204422009454    0.6436464313698746
     0.9316138337582388    0.2875253732537297    1.0767443499822811
    -0.0137972816709090    0.1303798197586179    0.2142190558026860
     0.9299402245226082    0.1912403249093601    0.5685285230432445
     0.0703619627133828    0.1509367277150244    0.8607030016107344
     0.0643477322227913    0.3822294910896751    0.0452360732447564
     0.1467484786217385    0.4849378891176850    0.1331435869982206
     0.0273217482643768    0.4471692192733396    0.3664095700870050
     0.0567264893286223    0.3459093094432308    0.6017811128865690
    -0.0318050273496777    0.6049329094994504    0.9099419156510568
    -0.0033979161699899    0.7889658671848270    0.1772119959501215
     0.0753380506487294    0.7302541646397066    0.5023280114931056
     0.9105053982336165    0.6011738133322651    0.6648581401133108
     0.0115284321224427    0.9320547521132635   -0.0299230723600967
     0.1139396368358034    0.8932939295754124    0.2265290774170934
     0.7866747627181636    0.8933746874676591    0.3490584999261792
     0.8691762953188229    0.9214379809791760    0.6511574935135723
     0.3933678311313328    0.9970782722811440    1.0003604792073444
     0.3638998902840010    0.0717813274510624    0.2722884488895407
     0.5360107318219577    0.2080266523479219    0.5217352566980644
     0.3713249218008307    1.0526573620448587    0.4773270051413201
     0.4920886111986650    0.3505578017599487    0.8557903314346748
     0.5713496031535223    0.4565541449442322    0.1236681990604370
     0.6008951768387832    0.4847596054235311    0.2745892288789925
     0.5957534164283256    0.5919702110169472    0.8910189302097390
     0.5455653522258687    0.8209012232506940    0.8887293096330393
     0.4227041294378794    0.8415593028387234    0.1764909535649129
     0.4733666876578801    0.6635258325017503    0.5159869792385030
     0.4762553498242520    0.5883134064509243    0.6141136208599280
     0.6096845030555490    0.7836404629573279    0.7088986425111196
     0.3635790783866866   -0.0558721044146163    0.2368022228850390
     0.5972830103014435    0.8129334158987185    0.4518336931109875
     0.5859264250345060    0.9296201134170593    0.7456887705060886
     0.0297505413723637    0.1860312979650328    0.9838740450582292
    -0.0532735098999952    0.0861341262679239    0.2624251726564681
     1.0051965910072556    0.2370380555174044    0.7218581752499097
     0.9762478151375302    0.1934800241087752    0.8695341147693412
     0.0030956923779555    0.2710987701796411    0.2796961611735841
     0.0989760008667045    0.6036920957186463    0.2499013566487041
     0.0151015541475125    0.3258613578226750    0.4360213157583240
     0.0411662368354773    0.4161768351944073    0.7452787041519386
    -0.0477025469225947    0.4936737465470400    0.8502506560292123
     0.9949791308876265    0.7807747339763755    0.3338932765172374
     1.0155100298143986    0.8427963950846189    0.6396812741781670
     1.0206468051104518    0.7150043074949688    0.6892100976442518
     0.9319769210964786    0.8990023545241238    0.9253870552721770
     0.1836402641026110    0.7640438791731330    0.1547958138417730
     0.7709556813429157    0.8877414162720807    0.3832800498592235
     0.9705503117729741    0.7909647631608195    0.5481188842188072
     0.6709001417946301    1.0014848598604165    1.0019151705585796
     0.7850952487941790    0.0856438980508039    0.1259345232706525
     0.6587161143695757    0.3170251802312732    0.2175566220327374
     0.6192197923182265    0.2287107040027869    0.7267760198936065
     0.5923027717634481    0.2239031545829805    0.8690069272398617
     0.7053544764494333    0.1967941229556884    0.0793153313923926
     0.6234376162776850    0.3449611601662685    0.3187952787819654
     0.6012187300968772    0.3095570027298847    0.6092445296930017
     0.6114711862459100    0.4305858951653806   -0.0022715802227227
     0.5287780715196334    0.6599596055967637    1.0481813399904889
     0.6186207688647363    0.5125149352415258    0.4626580355644198
     0.4024952738485519    0.6051841657892354    1.0351223297779419
     0.9143492435836803    0.7895432179445985    0.0906529350384945
     0.6157107356997183    0.8452779226787688    0.8402868329750585
     0.6369083873286933    0.8668444941775220    0.2820108111424841
     0.5683050002233010    0.6438425553657007    0.7629021536310168
     0.1206363089574483    0.7926657170512973    0.7879046652211242
     0.3160644309005624    0.2873579906520443    0.4139769590795320
     0.1442419773301315    0.3635194832485988    0.2784926979376965
    -0.0318458772837058    0.0588285628128441    0.6548175535576288
     0.1970790844924053    0.4200933309497393    0.9859860505806509
     0.3933652942594636    0.2202840106429013    0.2471774564308532
     0.1617543871126996    0.1074493854875885    0.2266908114174623
     0.1465790119660950    0.2691503304561572    0.4195543457011074
     0.1238190788739499    0.7101711558973167    0.8846707747989636
     0.8970197949467577    0.5167688593849207    0.9113343958172978
     0.2126160031607024    0.4962100879958127    0.5134045671886515
     0.1416717047088929    0.4455802696441580    0.5339054965827469
     1.0053132583152951    0.8053790051080622    0.7685362282411944
     0.1605790054431548    0.8370360806070739    0.0978712423793784
     0.1893852895974776    0.7173302777780862    0.5025245435273703
     0.7931259137464928    0.8435451432800138    0.6449322591824413
     0.6995070021799686    0.9714414632379489    1.0382858052567960
     0.7500704880904641    0.0938710951443824    0.0855700074370062
     0.6557388319125068    0.3477864291664043    0.1736483150742733
     0.5880034669891083    0.2758051751767988    0.7678241961771550
     0.6217710754250363    0.1704076352245017    0.8420238712846975
     0.7114789867245085    0.1307818728624875    0.0528071175046082
     0.5864581751820495    0.3025619665939511    0.3263901396128647
     0.5470741507137695    0.3376761552750474    0.5956879439269972
     0.6477621525842904    0.4626580713685179    0.0329753527818852
     0.4960779045903481    0.6281020310146980    0.0670907847497554
     0.6638387444969885    0.5280385384339310    0.4870762979125310
     0.4192750999874352    0.5570580072419705    0.0557785722633584
     0.9074848213640969    0.7516602217292849    0.0343670369055567
     0.6722242932519527    0.8552625220318045    0.8481513621162502
     0.5875231844730093    0.8677294470770898    0.2965888361658734
     0.6250168264003060    0.6278209316010570    0.7741110364592469
     0.0761995756195237    0.8124913288034175    0.7585615142365191
     0.3428062500428603    0.3016995719434089    0.3751274473905875
     0.1067277150421112    0.3277876229206924    0.2830966103100643
    -0.0163522234874330    0.1104828512034902    0.6996472729332570
     0.1627632999683963    0.3791280370702226    0.9460263141172350
     0.4174330405854728    0.2569000265857301    0.2219879571585864
     0.1864414417562544    0.1611316238967306    0.2708887455973521
     0.0982811153160801    0.3090393545201463    0.4329340655827297
     0.1456062877411681    0.7662494599768048    0.9548339112200478
     0.8532764084011144    0.5659048910310976    0.9187776143091575
     0.2341738464627492    0.4876821692649286    0.4580938316070916
     0.0946308051902450    0.4638156131896771    0.5299383046106009
     0.9844523908506779    0.7637208663372286    0.7131666788238821
     0.1527629453689177    0.7771715269793046    0.1008632166772085
     0.2011978347372914    0.6471704736403766    0.4825395613730171
     0.8379687959850111    0.8773937601766920    0.6341189052483296
     0.4508060711741603    0.0951085813377533    1.0143136491259570
     0.4556066173509258    0.0984132795200242    0.1777352420815272
     0.5404111935883019    0.3304560390798734    0.4809949977665258
     0.4341308711114264    0.1556807524460883    0.5304323812659972
     0.5533273294486335    0.3341207000249611    0.9801266714030815
     0.5218616957301271    0.3592704249447496    0.1145904610566931
     0.5617817341533319    0.4291552856788459    0.3435014807561040
     0.4920900217891231    0.5485771304685375    0.8737817326232381
     0.4914858970981627    0.7036804585980106    0.8350158522736965
     0.4853152292210445    0.7085247746465706    0.1442163005382643
     0.5806725675109640    0.5934100342986357    0.4589164503534436
     0.5744769535085242    0.6218950311389161    0.6184268907241162
     0.5390846434702378    0.9084945254481189    0.7891062677711229
     0.5035701333892942    0.9225354335154140    0.2202597385885629
     0.5139862066700280    0.9209473339565036    0.4437078826396760
     0.5468017070788540    0.9072362489200332    0.5947148581789536
     0.0091867972354096    0.2870787567344232    1.0736795034382813
     0.0542721553675716    0.1436007997134880    0.2383445908728969
     0.8984752065646446    0.2297922771677953    0.6160078769578373
     0.0763874325883633    0.0666551089043291    0.8293507358715829
     0.0300697157392261    0.4339411902693204    0.0894010061854653
     0.1627454973594855    0.4986780956277846    0.1938604773799405
     0.0380481153480306    0.3916117795344217    0.3818614711230535
     0.0556844745373434    0.2999401923003066    0.6179266384197072
     0.0151307728545750    0.6068126805180688    0.8696741954343256
     0.0497251954881659    0.7721877415320125    0.2196158719166219
     1.0376183942334460    0.7741321066788489    0.5370603134803181
     0.9648651680789191    0.5761000535466121    0.6787462190340263
     0.0242991099603363    0.8561793845761544   -0.0203789521979791
     0.0857076319189906    0.8421526429147249    0.1952573901607767
     0.8841684825194124    0.9329911950585620    0.4266666168674637
     0.8865842582858384    0.9271400971926728    0.5733834233293138
     0.2603025128919446    1.0007173760429415    0.1292607542370121
     0.3037175886300335    0.0425806775691846    0.2204835556300137
     0.0931062737782845    0.0367657307558782    0.6362923208161115
     0.4159502402555337    0.0034076976246146    0.6073174367440123
     0.1918318247646095    0.1500487889739619    0.8136296958398466
     0.1549860997133139    0.3940897196234750    0.3418509480682702
     0.1572639437895770    0.2838405805321703    0.5789045047865393
     0.1225228449954127    0.3618053263237113    0.7126516089601629
     0.2931978195089792    0.3033420635569369    0.9219955441557077
     0.1695045599967472    0.7695986692822676    0.3945569133879933
     0.3609000869386654    0.5201817076809448    0.6073553520855828
     0.1305081269622467    0.4266197932795248    0.7006603334505632
     0.1535370497631115    0.8907943752105133    1.0663700148507542
     0.3206624575912226    0.8910837031761369    0.4946656916509297
     0.0806194336160347    0.8998510130528860    0.4302615915856364
     0.0191818604733912    0.9072826484029798    0.7456990780327627
     0.7670697888583597   -0.0398027332756843    0.9515786908379433
     0.6474499362375778    0.1947643647408813    0.2875064586694694
     0.5202816411263155    0.3603299083911750    0.6887469004638684
     0.6572779868581212    0.0736127546400812    0.5967507341168421
     0.6034920016250095    0.3291222712921270    0.1049386625360337
     0.6859480861195475    0.4070038409759352    0.3249207448769426
     0.6046836411379567    0.3899648765219804    0.6638624407508503
     0.6641395105094633    0.3201908723138819    0.7301149382269062
     0.6370388819187197    0.5546279824687242   -0.0238864584460011
     0.6145165185617057    0.6209768189961670    0.1749776126272517
     0.7152776738176672    0.5087923056076813    0.6647977552787383
     0.6448741477909917    0.4590789693166013    0.7534691865564677
     0.6568186056359260    0.8972699294648085    0.2164567780824902
     0.6447080562754515   -0.0042214913552076    0.0797892078948172
     0.5802902685445525    0.7865370442717281    0.2884217039793061
     0.7448811430424404    0.6600168888946133    0.7125165753952235
     0.3706642993146194    0.0532196335379549    0.9432748609054357
     0.4175031785998646    0.1511489009284444    0.2509869008037399
     0.5616754790179918    0.2721155010394826    0.4678902494697330
     0.4488410119365829    0.0773517132719451    0.5140483540042081
     0.5603343910146146    0.3909834932066530    0.9268951099039457
     0.5162668335856981    0.4787144779879807    0.2047311271860149
     0.5787296887374210    0.4891871884089311    0.3793595662078456
     0.5332441105579637    0.5496648301636666    0.8301295071927030
     0.4743934469019206    0.7677009218524211    0.9075344567583757
     0.4458216200606580    0.7939776929464732    0.0739230924191055
     0.4855776890916970    0.6145544839805551    0.4139500003201415
     0.5603848300479622    0.6375406237293354    0.6919954155205065
     0.5906694246265147    0.9042579916383774    0.7859308357769703
     0.4361399063073386    0.9980454577481902    0.2483689187031273
     0.5659221663338908    0.8909333336422224    0.5431995959888278
     0.6156849522343238    0.7088704786276470    0.7223447444874063
     0.0442414257750953    0.2266943707549767    1.0900699140306191
     1.0321814219299930    0.0281117340482290    0.2438808178644302
     0.9170494984042075    0.2337275047765050    0.7168675855797483
     1.0149141956987418    0.1432271437873850    0.7761018696198995
     0.0594196161449554    0.3390988388457214    0.3579840693374056
     0.0739242943625057    0.5124549027522028    0.2592512286177948
     0.0714566278838813    0.4101546619884220    0.5059330405337639
     0.9745085589138377    0.3392098034425922    0.6960114202055669
    -0.0748599987779119    0.5733607027827250    0.8102932466250400
     0.0369147958996051    0.7256381018518491    0.2381349787484971
     0.1000446491027475    0.8001799211202067    0.6265390812989297
     0.0270724601342790    0.5899964488389711    0.6643529768765482
     0.9796924370968942    0.8293981147769547   -0.0022546566762635
     0.1846052292106113    0.8338801073425655    0.2574779705139791
     0.8227001152815732    0.9727427238077695    0.4616909261851223
     0.8876978146469610    0.8354105094074865    0.5417229166794292
     0.5434408725487017    0.0720964160456710    0.8586075321448402
     0.4689753727528901    0.2675079551942271    0.2231256060868952
     0.3732656983296320    0.3588299930352031    0.4070039915310468
     0.4634635913895905    0.2694985943512324    0.5733739860021205
     0.4364341495102451    0.3257977164183941    0.0030741702367866
     0.4452580329090474    0.3257173039989071    0.1729245018852147
     0.5613114359782625    0.5690660324955265    0.3061032493673657
     0.4481259586222493    0.4594746577195590    0.7088688992381961
     0.4000026697964656    0.6162388210240595    0.8778841506715811
     0.5839519196190475    0.7792677607750856    0.0723779224872615
     0.4687289597663267    0.7623739652696488    0.3624668366733348
     0.6264297209977659    0.7356999389152674    0.6777589087735980
     0.4481074397621949    0.0380170192344784    0.8363572104875351
     0.4789610870824972    0.9574072544289930    0.1041301527176699
     0.4746126626793203    0.0341692105321357    0.4632071557787120
     0.4539848502006283    0.8749150722868857    0.6072046086420230
    -0.0508711950462480    0.3131808832186496    0.9504385838553379
     0.0934157513975489    0.0565854117902552    0.1720045016609638
     0.0261259235203928    0.3836889939249838    0.3254016529426825
     0.0481693214888595    0.2614434558584844    0.7826569514481461
     0.9558819596787870    0.4424585817776009    0.9808703991612792
     0.0022725408676031    0.5079485994584898    0.0901874658601156
    -0.0044645906892635    0.3705048516931118    0.2901902956501338
     0.9580358706011626    0.4962549982500693    0.7010685712568429
     0.9284057207691584    0.7739464160033792    0.8777832325193279
     0.0203758780607775    0.6585095167040486    0.1032000436655636
     1.0035703593620393    0.6818914262087343    0.4117764165963284
     0.9538456952938253    0.7015230906952344    0.5128873668507181
     0.9415611176926567    0.9833440360344370    0.8883427418525551
     0.9960459326019919    0.9251123041256442    0.2247425592899932
     0.0249660372160057    0.9011132305745299    0.3506534775027680
     0.8712805846689842    1.0261119733632593    0.5478572832398108
     0.4470393442412680    0.0450116693661950    0.9219760082822933
     0.3765708353253013    0.0775917294396845    0.1570017444789006
     0.6183889950187544    0.3908570765037097    0.5233977221698863
     0.3605749754769728    0.1518414308081127    0.5442025514488110
     0.5236280977725628    0.4082567404513122    0.9575476701308705
     0.5469748499642709    0.3583619042673825    0.1585609473213749
     0.5372934899463211    0.5113430524663898    0.3797419162084635
     0.5719800559709257    0.4839083838551324    0.8777500096620242
     0.4429688814120785    0.7823939681047439    0.8736911671833717
     0.4267253916919360    0.7170390146347446    0.1012035555960300
     0.5585918948237645    0.5372927911466892    0.4380023039058441
     0.6166447811226360    0.6037881792237151    0.6684735470521220
     0.5221455365818717    0.8259856149825761    0.7568532586951016
     0.4621553166031457    0.9300443476969482    0.2785292123273395
     0.4995962924560676    0.8772762799565685    0.5044807223776141
     0.5700513044451406    0.8498435084091629    0.6107807761386843
     0.9517279004286437    0.2071611340273421    0.0631058321644895
    -0.0194737845983936    1.0485921743758981    0.3182514064764375
     0.9643045619487263    0.2414364325326016    0.6055367314076988
     0.9974901475323469    0.0691935408455359    0.7907262597026604
    -0.0525280138245198    0.4589964093620931    0.0595333260716160
     0.1330862093045655    0.4430642590740740    0.2088269669843195
     0.9997758192040409    0.4283042033359118    0.4246346599826399
     0.0258451696363750    0.2807471174944551    0.6940253552334210
     0.0044037350674134    0.6003644937066928    0.7998979301346203
    -0.0184717232968532    0.8466210092536842    0.2696341827751541
     0.0484730184236304    0.8555811920618654    0.5820325871552962
     0.0050040219102383    0.5744825845056292    0.7046714835550706
     0.9943677064572839    0.9522992672856717    0.0186223719378522
     0.1021193745558305    0.7816828263194682    0.2319298458432697
     0.8871898717659423    0.9293374568230572    0.4864335074925557
     0.9171533828456704    0.8760602778796728    0.6324358667379186
     0.4148059785115601    0.0761106543277218    0.8810728449292224
     0.4392430061741759    1.0611650460605677    0.1234022911763499
     0.5349104262080487    0.2935895340422943    0.5515978557727093
     0.3545248234283130    0.1549921414175986    0.6051443811904110
     0.5310317748110269    0.2945524462106699    0.8839451719567812
     0.5355612534099515    0.3656686136648574    0.2197254561594635
     0.4905612675446523    0.5079722104796131    0.3942540553098044
     0.5279647511945742    0.4996854615506971    0.9356138830198857
     0.4405181097020217    0.8063260043691943    0.8106783793795195
     0.4062593826206330    0.7640750525912963    0.1351829079257055
     0.4774570773279475    0.5799109221822892    0.4836309708129178
     0.6015166501058877    0.5447211666025519    0.6935553961222399
     0.4741007273853772    0.8486482088419752    0.7929552570521837
     0.3978902300774084    0.9359487914461451    0.1775388254991182
     0.5021205749182669    0.8928861083605745    0.3958786168001528
     0.5190897843500574    0.8427003995767971    0.6479714073692930
     0.9362429435536210    0.2370705959753217    0.9661103027560429
    -0.0197466767186317    0.1313490705254619    0.2861115126276030
    -0.0256351726061844    0.2812462250968778    0.6949892103349068
     0.1157623118690727    0.1664123063841141    0.8010814406717045
     0.9405712734834027    0.4761146343851824    0.1141303090957421
     0.1512569222608430    0.4466290144653792    0.2672676528530108
    -0.0083009454891900    0.4613791656015240    0.4746299065318436
     0.0656817386613811    0.3668939691666206    0.7143116903755832
     0.0284215705793174    0.5275402705799069    0.8130658734485189
     0.9593426954024635    0.8031724622309480    0.2025098125539153
     0.1351186760964071    0.7630086149576591    0.5053250395267471
     0.9162262210698769    0.6378846217514222    0.7005054178510008
     0.9766485978157592    0.9801751616242030    0.0702725296975691
     0.0962230334912479    0.8004572889755857    0.2869361650067367
     0.8473743763250451    0.9134283788077988    0.5224536065070111
     0.9820362073368698    0.8561296272624397    0.5771881438873609
     0.4996538263713992    0.0895120176954916    0.8322853115631755
     0.5030553419931761    0.3249112846966106    0.2271963160048374
     0.3841506729715041    0.3119538668567586    0.4361756936650552
     0.4320340955614820    0.2903617384467402    0.5287289310384090
     0.5414781756344297    0.5908919893064511    0.9287027189712194
     0.4171769507775070    0.2733580051658311    0.1553943922519774
     0.5332758504639685    0.6399122471683095    0.3584627263647774
     0.4501502765624872    0.4309461907930692    0.7700776394170664
     0.3798298454174472    0.6628560564273003    0.8593773307880178
     0.5547769758930610    0.8028311408220655    0.1461331159795989
     0.4476525950563562    0.6967958897014220    0.3673963922920760
     0.5691821655473890    0.6928260005791472    0.6568952587348311
     0.4294581018912781    0.9744579673612388    0.8220481703403960
     0.4546248447860529    0.9406523888389131    0.0461924945622731
     0.4507848873975855    0.1086424691436191    0.4542389194071188
     0.4259347426963676    0.9397796432222659    0.6362376773098574
     0.9141058904535384    0.3371104028490313    0.9897304744846795
     0.1120278421849621    0.9097001596711654   -0.0590267490692088
     0.7971864887795725    0.2215147725871261    0.4790415106325409
     0.0167162323045390    0.2090753263409328    0.7930682267220257
     0.9617578714122669    0.3830949022229093    0.9183585086030676
    -0.0133818278521354    0.5793444615297556    0.1045870305607434
     0.9412045458228269    0.4079462706227846    0.2754283248790078
     0.9789034363769539    0.4212888419063577    0.7010553354178812
     0.9173795736928682    0.7291780011344554    0.8147227389524839
     0.0060845398498805    0.6460112141507243    0.1692993236440073
     0.9889497693441492    0.6102793180666883    0.2928913329996058
     0.8999012861658749    0.6720404485511613    0.5269341132243133
    -0.0808340808384576    0.9569924962636703    0.9347166597892145
     0.0449308655360386    0.8773179458749142    0.2226453930508405
     0.9691025524785162    0.8912305592143759    0.3257588981296146
     0.8483052314447622    0.1076921962481467    0.5897183275948077
     0.4261168151729214    0.1025603003852593    0.8479780446105424
     0.5460038819882699    0.3024675113657205    0.3003509614527080
     0.3966667264477738    0.4100882293993222    0.4925631811872654
     0.4619894938743127    0.3903537652353378    0.5720009001066612
     0.3989163172664083    0.1902238876336537    0.0436121872364613
     0.4287902336990737    0.1966500058061812    0.1165547850001994
     0.4822864117395639    0.5541726526390700    0.3328160129499955
     0.4951033329376777    0.3447419945225764    0.7273025405434899
     0.3873039564285999    0.6164000597039048    0.7697247001250965
     0.5371993105751850    0.7447078819408302    0.8443792377564492
     0.3872794955923639    0.6921954692871138    0.3745676381500639
     0.5211919288523057    0.7760300752551663    0.6551391743259264
     0.3963488673184367    0.9629839318604757    0.8854886575131047
     0.3860686725208187    0.9527483503752129    0.0358696880383549
     0.4054402732264124    0.0275787006187280    0.3883826916073762
     0.3877035322563516    0.8655729251315908    0.6498579791358671
     0.8914448019743375    0.3148707402076446    1.0276527687315564
     0.1276827329901176    0.9581588624817653    0.1668531297750842
     0.8158531313435661    0.1186088535492561    0.4549816735967052
    -0.0442690495738525    0.2959874072615379    0.8007109636375566
     0.9415539314031151    0.5621957367673458   -0.1091286959090610
     1.0093253697123943    0.5785506863656789    0.2013228324651428
     0.9519839279463036    0.2994767443808709    0.2677338854775388
     0.9636324356395973    0.3634418864994524    0.6501615681465595
     0.8464434440400489    0.7709542883402494    0.8652481634465278
     0.0486309842270278    0.6131824738661188    0.1868392865444634
     0.9576132163401332    0.7433943198585912    0.3502835782878584
     0.9862745281879789    0.6877711660778114    0.5572744017341567
     0.8917977637606472    0.9854634907226189    0.8717590974439742
     0.0837784505204612    0.9483018966870232    0.2728516716407942
     0.9724936028049928    0.8920113937631624    0.2379460927327187
     0.8236837214095952    0.0543488504859286    0.4906870856048576
     0.5057595411214520    0.0270800396744087    0.9019571828449149
     0.5103737350938352    0.2446457448967964    0.1236615722856298
     0.4545121329977901    0.3334770485508605    0.4593091170234678
     0.4061689545695777    0.2372968308596692    0.6218682555086635
     0.4831683345765295    0.2475231600520186    0.9743561115975257
     0.4773802260217150    0.3121887434997723    0.0547387932406942
     0.5218179612595746    0.5333830114197127    0.3504862521930983
     0.4858234881870730    0.4721321946513654    0.8035605502554750
     0.4732920598603903    0.7596394250772672    0.7726184690708707
     0.5219662421104582    0.7089419682150788    0.0776938963407829
     0.5428237188647065    0.7071600787954728    0.4249345919882995
     0.5988527163209502    0.6603590095947360    0.5649791596305236
     0.5023927137328130    0.9657432269580558    0.8679357253429801
     0.4965285677610158    0.8595747723243667    0.1083383437859464
     0.5554741190162277    1.0264122149861084    0.4922689808872413
     0.5109845390624030    0.8871207971836018    0.5601241066310977
     0.9332946879673283    0.1917914854017184    0.9436565799996802
     0.0148175127832506    0.0544594715489816    0.2053466504515712
     0.8594126951748078    0.1575134000665228    0.5518126744678620
     0.1061675968433889    0.1822929432496698    0.8417617286192494
     0.0492849533640539    0.3811224240916422    0.9930045316440902
     0.0961488633502425    0.4503746188623476    0.0828392360053362
     0.0465613541336599    0.3839573002957620    0.2867648169730058
     0.0501964181507797    0.4033235764375783    0.6860785058172518
     0.9121063396229688    0.6708623445729184    0.8615450884774088
     0.9566328383656304    0.7441153614521242    0.1531327397888167
     0.9883187249427240    0.7157411308639550    0.4895982539676209
     0.8865240101826724    0.6442346889844740    0.4728176533150923
     0.0058891421618597    0.8965991966100667   -0.1242055594717485
     0.0883893682674210    0.9491050117537051    0.2290319176942369
     0.9826029503732516    0.9110147483773589    0.4391746615302676
     0.9183391003940030    1.0171356669838478    0.5924161757613419
     0.5405525823434545    0.1139463068952184    0.9279744275275998
     0.5201923157836711    0.2186387510227436    0.2027446703851059
     0.4194123156092399    0.3718884050411985    0.3917695780424270
     0.4142693711955394    0.3347828702934166    0.6143066483103201
     0.4581322345398308    0.3358162078756023    0.9514591400587055
     0.4397636859178629    0.3591732287276480    0.1400232198799385
     0.5732973279848187    0.6467502850361473    0.3103014245629508
     0.4387298913340144    0.5154492903128397    0.7410305998343429
     0.4475446956211971    0.5894954271731920    0.8396051599724509
     0.5950038972093933    0.7294953917469373    0.1202077217094774
     0.5155634211242700    0.7433070314771442    0.3947558078880630
     0.6570333944046332    0.6862130639689097    0.6397283684124353
     0.4908437914770767    0.0252071401793229    0.8101533232424640
     0.4034997333720014    0.8848171170180652    1.0659294988313444
     0.4938067200562017    0.1096772781117726    0.5007935501713758
     0.4309358241615755    0.9285071413184829    0.5844609921974345
    -0.0454260546209392    0.2633845109440569    0.9082542824857436
     0.0690651495006498    0.0046273040073568    0.1245263887989333
     0.8396817939945037    0.2304134555469567    0.5399164565670515
     0.0906039986760283    0.2302873523497027    0.8216599844211409
     0.0097873149405320    0.4238004670593795    0.9984842795869086
     0.0554498883191101    0.5465598828468419    0.1251334303707448
     0.9765453409964363    0.4423879079831512    0.2828623739205572
     0.0074207472847439    0.5070569708479213    0.6874224951471589
     0.9678229766880400    0.7399910548729467    0.8898912735759636
     0.9635490072190894    0.6404010250151891    0.1164085135099730
     1.0243472613740752    0.7535445592945416    0.4196058843229608
     0.9223782830340911    0.7353334536943131    0.4827467540876472
    -0.0335813357568222   -0.0271959845876171   -0.0466909962550688
     0.9998441337304016    0.9458553428249720    0.1833407682567486
     0.9659037409256436    0.9291539712481688    0.3754093911442783
     0.8376245788667900    0.0438712012454327    0.5996126571981346
     0.4644608233875039    0.1067723504925954    0.9823486333274285
     0.4528078311144790    0.0982897850227917    0.2152631978671499
     0.5390880796095872    0.3245787237103628    0.5208586217107725
     0.4535381090804118    0.1273962430211239    0.5548813191709574
     0.5587541120096751    0.3106385882753280    0.9373960007453850
     0.5225867370435733    0.3976138949339005    0.1038951658244347
     0.5288593804484363    0.4153958037666038    0.3355769744570664
     0.4927867532772980    0.5463717098916943    0.9123542391092880
     0.5027404698610278    0.7155088068677177    0.8011423123884240
     0.4696127604980147    0.7476098342613017    0.1647817068786229
     0.5597931964564392    0.6165010752915833    0.4915503501242951
     0.5548677542699133    0.5846590360801849    0.5941785147771987
     0.5651618900411727    0.9025042394278893    0.8207401932876885
     0.4819081198165396    0.9615289891021961    0.2339072258375066
     0.5442355801687688    0.8946844433164380    0.4388367931351878
     0.5632340171168821    0.9412507500221544    0.6278581036685553
     0.9866991619623479    0.3008273455054674    1.1116227221505035
     0.0228115623128887    0.1595377204590594    0.2673368871182765
     0.9077319723835454    0.1962354895200936    0.6372011059965421
     0.0516923335084748    0.0924320549493945    0.8595089019762581
     0.0338526795160712    0.4362021574407755    0.0463207330970584
     0.1314338415056662    0.5246135367716352    0.1833633904821175
     0.0787934629069078    0.3971096044304781    0.3893165628940717
     0.0661473122159936    0.3378663687506705    0.6558455505212473
     0.0062998221970160    0.5720522153826998    0.8797981441218075
     0.0396626722057567    0.8106687520964226    0.2062949852953571
     0.0447052665958657    0.7456635837269483    0.5662165948957552
     0.9525881278671792    0.6169079207214448    0.6602005630868167
     0.1115695600219301    0.9227320630778655    0.0155895645488924
     0.1155796223562745    0.8233622515603016    0.1708137687603117
     0.8818379289707713    0.8907448590643878    0.3909475968429140
     0.9091683004788702    0.9052244268561717    0.5436109488211169
     0.4604060729875443    0.0448506797131216    0.0649672656714037
     0.4594764761776102    0.2056301786586083    0.2716837574751295
     0.5548321485407623    0.3842634479532415    0.5608840295103850
     0.4816138957542850    0.1669111455387746    0.5281976023713818
     0.5189323721198257    0.2111307017265125    0.9405552312552545
     0.4221493905404595    0.4341154460239064    0.1217227510450943
     0.4904707759493964    0.4324728080576442    0.4470230294377736
     0.4545965745699892    0.5001031675606635    0.9533659727793556
     0.4931131476183599    0.7120809854802350    0.7450637338900696
     0.4805795421430433    0.7619249612935296    0.2095473605561580
     0.6048327816107476    0.6465476332905876    0.4159181923039212
     0.5552399500368084    0.5379135237823631    0.5533759639244819
     0.4821201832955289    0.8893192255735246    0.8740128602466382
     0.5445101151416355    0.9379982425475827    0.1938337815062223
     0.5184654387421644    0.9996812977364874    0.4234818465737198
     0.5638797664714789    0.9956053154246920    0.6169484861318242
     0.0606124796193864    0.2859994830905901    1.0052122218546242
    -0.0433219511119369    0.1633633335861611    0.1970127252380746
     0.9754133542913614    0.1777011936788951    0.5507273432606362
     0.1378831097954834    0.0877349802586596    0.8448184420794815
     0.0918766557037598    0.3343341961284583    0.0612388514714093
     0.1834384615067459    0.4399622300455775    0.1867780515709576
     0.0324001130789796    0.5027434072510261    0.3586600901618738
     0.0151933555733775    0.2793241147020418    0.5952679436648254
     0.0375336535857134    0.6138436223559881    0.9288567974660711
     0.0058055589268096    0.7577568377112324    0.1076857309347233
     0.1133355352970159    0.6751408348885269    0.4914349921159114
     0.9045256507667330    0.5264029655330537    0.7012404358799178
     0.0647019198316379    0.8526277312743185   -0.0683856053783719
     0.1372295827726333    0.9357241924280235    0.2415990867425568
    -0.0385244134043606    0.8433946755946578    0.4724689910572217
    -0.0162256548019285    0.9192239225528015    0.5774635962622438
     0.5537913613037220    0.3171676648149770    0.2266112771997127
     0.3224366148315058    0.4373370463443851    0.5233163217534447
     0.4379852423417100    0.4587084636969539    0.6149951890034616
     0.4508274853438972    0.1852289592531666    0.8653578306621483
     0.4718727765679431    0.1690553471442222    0.0206863815293196
     0.4377881985228906    0.6056902159239038    0.2703662137829518
     0.6240246303172353    0.3919678382953147    0.4703207503926325
     0.3821553037105305    0.2948979224047051    0.0291147257938724
     0.4671681347955020    0.7504513185977297    0.0164086897581277
     0.4211164937425277    0.7504951268869248    0.4670358402334727
     0.4978744132798957    0.6844602321604923    0.6196795227368161
     0.3327598914909679    0.5350210020227952    0.7591018472755700
     0.3968562941269239    0.9375891052480296    0.1171914388100309
     0.4608619217755474    1.0145067972841622    0.3566070846053366
     0.4779072689645403    0.8277167607709577    0.6761168805763738
     0.3800018950322966    0.8874836861861692    0.8140431591182546
     0.1454025802973710    0.0219846791752802    0.2588955894744264
     0.9097044751370983    0.4614330954641829    0.6694647586839950
    -0.0041510564177165    0.3567819906584589    0.8776100988742607
     0.8121043507195451    0.2984771851738325    1.0273814293053991
     0.9419144376836199    0.5363316200779005    0.2121972448131922
     0.7651684533018341    0.3097241257649463    0.1728401686722468
     0.8811101392379417    0.4082312819426605    0.6552308739324252
     0.8616353941846900    0.4107887704725648    0.9081781451388814
     0.1434852701228594    0.6262217036595247    0.1792781865720547
     1.0130584976897727    0.6747206090271157    0.3401995285906877
     0.9712598320949216    0.7552045642003690    0.4241477328869561
     0.8327889313431487    0.6716391265464823    0.8909959190556029
     0.9652693686630863    0.9303363736105457   -0.0278471332206542
     0.9341925988878409    0.8671635274117336    0.2132825472499508
     0.9053365178945916    0.0687859039703980    0.4565904936314557
     0.8898032537027107    0.9297099569018199    0.9066708182698122
     0.5665663319558157    0.2691981554438069    0.2717900311588732
     0.2947116026882993    0.3810068158615511    0.4833248187062577
     0.4000585463451058    0.4189327022992688    0.6693532168154722
     0.4936929665927849    0.1646033392873007    0.9501661501263783
     0.5172219791903923    0.1416298463838962    0.0330135589308286
     0.4076021193899671    0.6384278625327524    0.3695400026006888
     0.5242706406280251    0.4099665565592464    0.7407804350405243
     0.3096127033928981    0.2703536459542510    0.9847852609468492
     0.5581053186514972    0.6945387908477222    0.9775484127121152
     0.4083119202040494    0.8052201666254619    0.4075824447829613
     0.5427419168234913    0.6524167552966315    0.5475162312573589
     0.2595727526555361    0.5676257418753621    0.7641685107394590
     0.3397388556476685    0.9182548382893860    1.0460665788998138
     0.4263860310023407    0.9328008264412203    0.3331816276559295
     0.4443940461021066    0.9194410237209104    0.7438348488669073
     0.3306918962574582    0.9387586145696847    0.8190416408359713
     0.1382768349934013    0.0449625196319232    0.1409294508408864
     0.8074818760479504    0.1685052386126836    0.5781431001645997
     0.0320827123641278    0.2707832496817686    1.0159954649213423
     0.8051968968961116    0.3406760643678655    0.9511028674173305
     0.8777952003723531    0.5514741399782682    0.1958449116802603
     1.0014771144244698    0.3071744989762884    0.2072921588127335
     0.9272039386540362    0.4556480112474963    0.7349256333425442
     0.8775857607786436    0.4702174193247067   -0.0150096469914524
     0.0992565057759157    0.6603419983972791    0.2523285041713441
     0.9925951659639516    0.6485601129047853    0.2589996365412922
     0.8648084582528551    0.7765585288278206    0.6109059856223829
     0.8538874789060296    0.7484182532519821    0.9460071457276669
     0.1180956562167785    0.9740336886767652    0.3670504160898468
     0.8637354932700843    0.9636759697021365    0.2322959784452457
     0.9216063108227187    0.0020751853414884    0.4416595881833565
     0.9364540748269977    0.8603103100717511    0.8273745112374511
     0.4450196102325339    0.0357771304345459    0.3077216753336628
     0.3949460139199536    0.1428468663744477    0.4065650136193512
     0.3337181662095293    0.3759280905473155    0.7654899502547576
     0.3012222381744013    0.1844962547262655    0.0622487656595486
     0.4016116379010271    0.8258458471641418    0.2578929702660383
     0.4637780455020976    0.5607017266532492    0.5538567385900778
     0.4397953083600323    0.6127317968778379    0.6434341227883715
     0.4022931147984503    0.5395841092950656    0.1954678280133832
     0.4508386207241005    0.5765034547702012    0.1976086126163751
     0.5302067093144818    0.8024975289186705    0.5422720451825336
     0.2540341219464986    0.7945979114886710    0.8187217153198201
     0.3106650319964238    0.8145528472861245    0.8226220163150831
     0.6409172430889628    0.1778680617576422    0.4038865289002363
     0.2986890126829656    0.9815302169786098    0.6662626263554065
     0.3349562527477263    0.8383048775556818    0.6738678150384242
     0.3867646900780851    0.9040130272712555   -0.0327726162788565
    -0.0183010109014747    0.2428058709800389    0.4507738822574243
     0.8089025014808470    0.2152788030345779    0.8316126595596183
     0.8282811002682412    0.2034659622885036    0.6711260385794877
     0.8834463841847197    0.3348140479800599    0.1159919479525340
     0.9021191907874322    0.6170575211536677    0.2730900612421798
     0.9676512909476903    0.5038858785905324    0.2942002589837232
     0.8395532896738460    0.4635445462789308    0.8048073253723761
     0.9522175541588558    0.5057687002076384    0.0447852093481013
     0.8201388078346743    0.8052715486290558    0.2917981032097171
     0.8637962140379527    0.7760130859781286    0.4042828426499083
     0.1274082994014862    0.5235697249352010   -0.0101363773706886
     0.1641187619978930    0.6839613273182453    0.0531519573081141
     0.8572342292061724   -0.0808845762216563    0.3490070846510903
     0.7638949098868449    0.1596879332042962    0.7123022806356645
     0.9472814583440881    0.9832675452326981    0.7190678827414336
     0.9409756777279104    0.9745271065105255    0.2060115485096229
     0.2390542993002193    0.2389253698824922    0.8552330325662352
     0.2228205776838601    0.4218112647881445    0.3966283436467517
     0.1675307330179715    0.3403985855854918    0.5559269175409046
     0.1758296909214901    0.3656818966600439    0.7740521937937438
     0.2855406154996745    0.3991793935962565    0.9787055088565737
     0.1741127906064267    0.7621766069765284    0.2958652899633469
     0.3131265855041095    0.6115081957786300    0.5962793795283946
     0.0709083807297857    0.5086027781791623    0.6941176997719966
     0.1780470418733047    0.8607235013263215    0.9806938096909378
     0.3116711441647771    0.7957768327264144    0.4287550394399867
     0.1160097185673784    0.9136319534608323    0.5142036246611910
     0.0601545753500358    0.9809472548614561    0.7924573656269148
     0.2551984299988537    0.0805009457809928    0.0883069142532436
     0.2509622313767570    0.0690444370012691    0.2926456082882609
     0.1348739063925190    0.0426330874655251    0.5635800492950267
     0.4277924820278310    0.1007219580677753    0.6200810657800874
     0.6564653513466766    0.3199122405524001    0.0197219642153137
     0.7588977903515298    0.4515131054121153    0.3393298756378705
     0.6430365739981220    0.4362982219988119    0.6151571497013365
     0.6359039842908495    0.4083691494076286    0.8152602417241510
     0.6660616320584595    0.6421368935960996    0.0564391571754666
     0.7024146915080446    0.6473622984023469    0.1901036318959127
     0.6613232164002245    0.5798178610883361    0.6183601507962688
     0.6505063729118645    0.5603941179220875    0.7659084954783726
     0.6286220995524666    0.8371406935899514    0.1307159259931253
     0.6970562472074193    0.0207567253055420    0.1629250693192611
     0.6937499384692924    0.8348766074526045    0.4279123845274373
     0.7500192842604763    0.7176477177919601    0.6550985763096543
     0.8226604796392651    0.0253400349948154    0.9559287594409361
     0.6959319988545326    0.1152014346424199    0.3051954901322827
     0.6041575459556048    0.3164138661321297    0.5153535870514930
     0.6496332005142942    0.1032509323577838    0.6865485250586056
     0.1876093620689856    0.2256711265439495    0.1154146664341042
     0.1130519366387327    1.1323121824716180    0.3690849803163271
     0.2282476888539968    0.2029414200036948    0.4916616020706117
     0.3205628356047939    0.1036498491474180    0.7431500462096186
     0.2688387415124600    0.2390394725266022    0.0650389633387897
     0.3672598633049596    0.4567934635287910    0.4244670041636308
     0.3235477928425239    0.3300512962330549    0.6667425666276104
     0.1500755641807728    0.4228904111846010    0.8223894763391179
     0.2510228118765116    0.4683693786271959    0.1349335651438462
     0.2914556088989779    0.5708641036708154    0.3310179710518258
     0.2563073209425585    0.7011327664164060    0.6902108850272609
     0.1741610024767321    0.6524671572910509    0.8372459952715549
     0.2711753965757114    0.8699432549282859    0.1342135209053766
     0.3714655436760883    0.9445135586979523    0.4324821919271392
     0.1697374568717178    1.0088326516740003    0.6810788639232268
     0.1904572724156017    0.9348062888113218    0.9270919092613237
     0.8965722203370869    0.1387915689489866    0.9620215051383065
     0.8064895119873284    0.2512086519474753    0.4249900636749631
     0.6886156621105813    0.0405184087082671    0.4799595671989220
     0.7877007442546442    0.0803900928883485    0.8375823699403432
     0.7392673621483740    0.4446125919411215    0.1772026457261934
     0.8294766450257403    0.4707946250005894    0.4125766957758449
     0.7867696284012261    0.3966333933249839    0.7681265180595537
     0.6924917449575594    0.2403540641065764    0.9104897337399018
     0.7527858815538230    0.7361774200136625    0.2344339716912300
     0.6499242573069272    0.6935255392079516    0.3931697952346481
     0.8432072912782201    0.6598669039323033    0.5593878845103132
     0.7418049505080937    0.4813235664527355    0.8693975820359722
     0.7895070527412911    0.9513571480352065    0.1345862463534915
     0.8208909709293906    0.0120359596034601    0.2693675104533515
     0.7024834324660320    0.8640500617108332    0.6244787831381933
     0.7536896110274685    0.8918007157290568    0.7623091111300386
     0.5666075514656456    0.2483754415240585    0.2286696559915660
     0.3214170807637111    0.3455992650418589    0.4523837485696057
     0.4160224211999717    0.3793485768064606    0.6427635852898564
     0.4617608207183319    0.1982838518231325    0.9519275696099476
     0.5171710255778273    0.3847433382755075    1.0209327192843027
     0.4249188376662922    0.5949692888317396    0.3576094216390354
     0.5114073187082431    0.4405722528861195    0.7754439647162293
     0.3231869074242545    0.2516476193486141    1.0164067004429049
     0.5451628119241320    0.7432781053898438    0.9839092571622406
     0.3864679759335621    0.8455418099926898    0.4267738203316445
     0.5187987581644643    0.6362251115866516    0.5691651779817321
     0.2684143351934976    0.5855872402710827    0.7272254768350863
     0.4307668442878647    0.9977321565156603    0.0616798366587537
     0.3969490728097102    0.9541664846250189    0.3534681922381627
     0.4201947421604073    0.8913199441461355    0.7439232944930324
     0.3085775319899209    0.9481473287174871    0.8536767166449699
     0.1069194720862103    0.0037056917243674    0.2916015196344900
     0.8078004061475335    0.2055734292967366    0.5620631637166208
     0.0047265681010663    0.2540845096523914    0.8938867681368593
     0.8160054501047023    0.2984705737547468   -0.0764851152364695
     0.8735591337697336    0.5447959355388812    0.1514185479862790
     1.0040481830458179    0.3081580717681460    0.1677710323131220
     0.9140743917130767    0.5003427011071488    0.7321269661334827
     0.8934373204399536    0.4659986113032897   -0.0531072374610130
     0.0280475385494245    0.5418985400604422    0.7768211258862886
     1.0300645177786050    0.6579150133065250    0.2834348726613605
     0.8923970412698586    0.7933727974950991    0.6372530145347521
     0.8760552419784934    0.7241809271410968    0.9723741803791613
     0.1193818028314169    0.9650423518171161    0.4035755795898021
     0.8492454216385426    0.9250251976352639    0.2315016687536471
     0.6674695092875310    0.9331403247931438    0.6212854243137776
     0.9546815227026280    0.8765165858086903    0.8648255945017818
     0.4633568443919973    0.0121691587829299    0.0089702781893441
     0.4712880998335904    0.1477842516443233    0.2483898268269788
     0.5346582667174110    0.4044205842622671    0.5193775200802710
     0.4873892180909820    0.2101496270542590    0.5911894208696336
     0.5580040904204686    0.2398416178109223    0.9220483946229291
     0.4693903646146000    0.4533664255358823    0.1405943706399211
     0.4931085397908385    0.4209376834699440    0.3817776065269869
     0.4411692350121844    0.5278551259054149    0.9060361000467264
     0.4541116423454277    0.6899365352638588    0.7378362589384131
     0.5282420846920062    0.7264849632336143    0.1936824667736574
     0.5820735514670239    0.6939415372520505    0.4706218301564445
     0.6086177284728063    0.5325805216079976    0.5345747842350538
     0.5365642786376345    0.8729693623212122    0.8623185421825990
     0.5085335236129279    0.9675295293327676    0.1501996779248857
     0.5643661529985401    0.9883710897445588    0.4430678031931597
     0.5336544910146481    0.9634658137690487    0.5729108061752395
    -0.0029666514785679    0.1673200934780744    0.0338497637442503
     0.0017638000822020    0.1862313944089363    0.2292607372629007
     0.9737242602912414    0.1655553662160932    0.6053263501607492
     0.1162049883105488    0.1468638555221183    0.8825826863360260
     0.0616776828617955    0.3948071153721672    0.1055048805592115
     0.1309927546198996    0.4247667611337208    0.1632343117874304
     0.0560458447563455    0.4866792198343820    0.4108815445847779
    -0.0116122115857127    0.3404250659527984    0.6044145403269110
     0.0082987632477526    0.6606892782437990    0.9049425835079147
     0.0408892952481277    0.7850814392412377    0.1516974622366339
     0.0954898304333510    0.6990085358811856    0.5559537976903058
     0.9341011750584568    0.5731841654790044    0.7223522702041676
     0.0534285260330545    0.9174143747181741   -0.0593515631185161
     0.1658458535579826    0.8753259431072027    0.2157018606019324
     0.9097794872251836    0.8650606508491222    0.4638945091840847
     0.9453130562245896    0.9243409925962377    0.5303797520454754
     0.5119449245151534    0.2027094768987485    0.8373519705132167
     0.6330151304454305    0.1830946955970125    0.0223139747314811
     0.6855722519154953    0.3235550623050679    0.3786518668582739
     0.5615590655121123    0.3323271230689742    0.6973090474550800
     0.5576503785245174    0.4986490329501843    1.0664515250130826
     0.5637619467286432    0.5540917194268939    0.0025806551946680
     0.7003630021188634    0.4631137813741470    0.4011495657918265
     0.3898568266625946    0.6860960292774452    1.1162764272364190
     0.9076158388281369    0.8543548079427716    0.0363205145740178
     0.6669087258820459    0.7680167568112127    0.8830990412946127
     0.6478779279266041    0.7712301738565550    0.3053590147925814
     0.5627101931181724    0.7295639757123089    0.7475414966805393
     0.6680051093465519    0.9343050969029387   -0.0847533626335714
     0.7276747069703360    0.1058982288437662    0.1937614735837386
     0.7171003597153914    0.2296132486965944    0.1601871980133110
     0.5514974539111560    0.1877288369820974    0.7025988798243428
     0.1258044433912150    0.4343821359961005    1.0335178796823208
     0.3409657996161261    0.3064995483521805    0.2428018729488307
     0.0945675076125032    0.1508374779423624    0.1907580593757636
     0.0947581788728229    0.2007283962724326    0.3860057346874848
     0.0576073055315906    0.7421544101706065    0.8961485178292647
     0.9605839476890640    0.5828769782816863    0.9504371548976450
     0.1523438782834725    0.5736381019309673    0.5304851783326239
     0.1221197073586839    0.5420024794757615    0.5988986674935333
     0.9422335273261410    0.8648785397514447    0.7278385098182676
     0.0844329762040728    0.8164638026126679    0.0402171451243526
     0.1908897147210218    0.7448302985070165    0.4283036855096934
     0.7862172569789558    0.8376398470313371    0.5452169641984679
     0.1130224613941233    0.8487254568400814    0.8807794329264953
     0.2790101278732942    0.2020929563460152    0.3457421746489074
     0.1020050529435686    0.3549574432615690    0.2027379067063810
     0.0266014367869594   -0.0220602271737074    0.6621221745425314
     0.2302179185939365    0.1682148133452042    0.1337425159311268
     0.1554928720118006    1.0230597685392406    0.3873984738687154
     0.2169512925683006    0.1578082902725579    0.4706251014794021
     0.3362714819238387    0.1804159218216572    0.8204685661036488
     0.2791857430206052    0.2551337103829464    1.0198889431042593
     0.3791803275926396    0.4075718452060028    0.3767331534462864
     0.3536399014893670    0.3254904796376147    0.5888976727874269
     0.2060075724742603    0.4664075062468065    0.9167401526310606
     0.3015737795592973    0.4916206607647401    0.1459518408436098
     0.2853778644563837    0.7115874875178959    0.3746755071933812
     0.3455118493613390    0.7226247483541439    0.6911253605260868
     0.2336565246697399    0.6439652752360492    0.8320759273437908
     0.2895284207761539    0.8272276804273514    0.1350072742200883
     0.4050817074983431    0.8950916812456456    0.3940070343285731
     0.2213185945029192    0.9530965915716951    0.6580756067470331
     0.2350796654587742    0.9483316172616025    0.9197319016511768
     0.9014812262418069    0.1681116476749975    0.0093229795254805
     0.8146333417176518    0.1987283896791625    0.4198857266289589
     0.7250774469217283    0.1781672578384105    0.6317001477631117
     0.7782731218690269    0.1086194369467002    0.7666839720948938
     0.7601408226786249    0.4727800536130233    0.1549953917490451
     0.8770719358018485    0.4619640649479728    0.4014808056491012
     0.7637966127788887    0.4918059251087577    0.7123517314421333
     0.7349555536624232    0.2484694714597560    0.9103795732704377
     0.7823148289984613    0.7078484363439462    0.2323085340596008
     0.6874953353364434    0.6815563352378370    0.4115590504392112
     0.8325521474003857    0.6840782023777299    0.6626987954552803
     0.7467697619412901    0.5035935220710984    0.9168049780696038
     0.8284239512973446    0.8711985132578067    0.0854071015426019
     0.7752508855523671    0.0923806407627846    0.3260882488377932
     1.0491599192004590    0.6137775822666957    0.4426928433455494
     0.7511099982710614    0.8508114621160087    0.8500930824921162
     0.3281891104535641    0.2192135206592026    0.1128915292673130
     0.4284864734309748    0.1027505505094385    0.3204022793081396
     0.4108822528862953    0.1624673406507233    0.4613430404363322
     0.3860736435736291    0.4202650710557623    0.7961319939740541
     0.4521086259236756    0.5099493889827952    0.2075825168865982
     0.4355302157245522    0.7933581763187377    0.2857806839604177
     0.4778823999719616    0.4973551267085008    0.5155872663323532
     0.4012361832631051    0.6378863775564667    0.6879867878957633
     0.2932917476596745    0.7621388442169236    0.8375253161283384
     0.5121771735853543    0.5613846895358301    0.1948362539698867
     0.5282861617966401    0.7199982317382841    0.5315545373033167
     0.2151369106770516    0.7986346789557714    0.8745934192452355
     0.3744303134423376    0.8316221116163592    0.9378670002702229
     0.6033528076249892    0.2343863917311232    0.4232126558830830
     0.3470435988865206   -0.0687902307021033    0.6872000709947181
     0.2864868273211250    0.8523680913161025    0.6874743447507402
     0.8892879748615435    0.4114104267840247    0.1051187789246006
    -0.0649795071788773    0.2704295908549566    0.4202636336710660
     0.8439066105725097    0.2034153297158110    0.7659416915168515
     0.8361695141410062    0.2307931295954195    0.7225357213578012
     0.9422466115525132    0.5311076671150048    0.1028340239932273
     0.8485675496268567    0.6116192744232264    0.2751594001046195
     0.9359821461703355    0.4927784933259550    0.3293363266951592
     0.8496909417038527    0.4021319400918620    0.7718315685439163
     0.1358955722060164    0.6653137826651280    0.0962883260051563
     0.8551663533904326    0.8387016319670351    0.2677896035721433
     0.8150159827462299    0.7591349260301471    0.3766189767371051
     0.1369772273449538    0.6062369722672057    1.0102167971004414
     0.8871516115343071    1.0205054252629617    0.1873522426382068
     0.8974046966319408   -0.0508195163197422    0.3835464391791431
     0.7846140019523774    0.1004768939178460    0.6729150035191964
     0.9508683195474288    0.0412314428330013    0.7698451855554799
     0.2401103896240844    1.0176833470218880    0.0812092853176093
     0.3064733684808508    0.0138734882706950    0.2675193371629464
     0.1318465621079931    0.0711001636268529    0.6302109493239207
     0.4519269641487892    0.0456645678290289    0.6313155328634397
     0.2539298729516057    0.1726662716929686    0.8360443403164328
     0.1850203645564113    0.3872978631713938    0.4093266964207721
     0.1946438700203086    0.3186527976707422    0.6015205394412096
     0.1690379471460959    0.3335137227401161    0.7108647800421061
     0.3303979701132123    0.3506120645985709    0.9600437664906825
     0.1305406558642627    0.7692437135305079    0.3264670620306405
     0.3233974222348029    0.5775627946138376    0.6412642291662672
     0.1107638084513176    0.4633322746499274    0.6632203134687146
     0.1754550623889738    0.8253687239098034    1.0236459293817219
     0.3266961332684341    0.8613083071589408    0.4356040251138781
     0.1299219447436195    0.8991392683478506    0.4530617870813506
     0.0694839237767128    0.9230777752475373    0.7364034373892515
     0.7957358532077451    0.0043443420131609    0.9914531006953620
     0.6424858011580629    0.1200236038681861    0.2919063928549019
     0.6342317361807958    0.3587783368690760    0.5549071053787494
     0.6699346006171704    0.0469434845696347    0.6501388396628838
     0.6279919312639348    0.2760706397530238    0.0342745217029467
     0.7243594871802537    0.4318923739935453    0.3068739905180545
     0.6432350813625595    0.3708834563163010    0.6191584363253916
     0.6435930764653152    0.4026765866433348    0.7538752155298173
     0.6285302721922404    0.6104039887523631    1.0157671391084269
     0.6696740463692198    0.6328133778719796    0.1420283874570013
     0.8703000429335815    0.6600516718558941    0.6567793827572068
     0.6800128419716847    0.5027510654954641    0.7507015590967416
     0.6709919561268762    0.8789123512042782    0.1609644379339523
     0.6854229034836860    0.9715667832232467    0.1135358302472585
     0.6938681375822484    0.8423776258532676    0.3754287536529725
     0.7890457753980197    0.6791388339808568    0.6937538043017597
     0.2193654052761520    0.1614651781836740    0.2248605090929233
     0.1686893879017581    0.9476240747403233    0.2971037599052007
     0.2214663823972317    0.0587722444490534    0.5113042957006090
     0.2912376219807805    0.0752218744145956    0.8052686369621289
     0.3153711530945951    0.1679293325221683    0.9820831087391615
     0.4358570728739182    0.3770372490787495    0.3558872101545497
     0.3438403928316557    0.2387642515160222    0.5490964265901254
     0.2633063446805105    0.5258112415202578    0.9156477620898925
     0.3609651114684645    0.5826116987806689    0.1266200764813519
     0.2782017476478559    0.6767939173160331    0.4678999786812243
     0.3797847410867354    0.7686607282094305    0.6535089741350548
     0.3152050630194598    0.5588704194202604    0.8508641473016438
     0.2732130001627164    0.8015582508057235    0.1534981323326786
     0.4514285365236463    0.8214553152100598    0.3930585786830560
     0.1735949462540501    0.8407852062175063    0.6319213925547750
     0.3077868098809728    0.8577007451400932    0.9072683056532543
     0.8142599696869706    0.1759568844584154    0.0788320535374877
     0.8831391518358133    0.0911701682086037    0.3559547387607412
     0.7354374628710330   -0.0198030735307820    0.4850888736498702
     0.8076203902874507    1.0667139596965121    0.7447405443774561
     0.8434779832904198    0.4848200391996047    0.1546801710793124
     0.8964700996012371    0.3534291894163326    0.3824086322418984
     0.7717551606944383    0.5748277495841613    0.7566102447554607
     0.8083917980168991    0.2333083676955291    0.9101047679408575
     0.8497935088391939    0.7325225298704764    0.1953837307834727
     0.7685347978730759    0.5894779346816216    0.3865152593188236
     0.8831919148004517    0.5143417769179417    0.5711702539462649
     0.7777540221546311    0.5849602390631153    0.9800594933952176
     0.8077902627511584    0.7891154790158836    0.1412719409261131
     0.7398129164444524    0.1313353537590826    0.3880745132404655
     0.0337392862773713    0.6134200090818815    0.5317683738468917
     0.7686847476223269    0.8414260298149903    0.9072437475649975
     0.5331750764211149    0.0529673682300237    0.2982563385718487
     0.3937040099409176    0.2454082435846626    0.3911180266664209
     0.3379403817942951    0.4168308786434600    0.7166331720324802
     0.3728183325278467    0.0967467034670405    0.0422618631619224
     0.3765194879460709    0.7332479975344321    0.1830333715081469
     0.3824003177567259    0.5653421193888364    0.4979715637020399
     0.4247974437036385    0.5050423535695422    0.6514481960861834
     0.3607767943016776    0.4740084979205851    0.2395741965282190
     0.4613242000672571    0.6848983517718876    0.1932659285636001
     0.4577088691233615    0.8074856155006447    0.5387683263811494
     0.2061514255301722    0.7732275720934856    0.7813902870302142
     0.3914896952805929    0.8083275407935520    0.8853443325607451
     0.5944320596173724    0.1713925936325712    0.3267064611271265
     0.3359141552932542    0.0422673647102977    0.7025448617686354
     0.3605426627599497    0.8337568672479457    0.7750773801699310
     0.4569096174187796    0.8757532224482746   -0.0474423664718002
    -0.0148333245275035    0.1478576316591292    0.3747705000185171
     0.8591048087915580    0.1604029323846306    0.8457467974079909
     0.8258843614546436    0.2956645360296559    0.6280845553439698
     0.9404591569494944    0.3390214067053321    0.1326327153033790
     0.8950456188539452    0.6935568778208431    0.3695215638038309
     0.9770588658054128    0.6121637339516733    0.3666908325754307
     0.9040761793110806    0.4470818853437750    0.8811665512645733
     0.8940974148531199    0.5883662898210360    1.0226463750921801
     0.8938606002707898    0.7438187156802695    0.3244590492665703
     0.8187392536745474    0.8393301146214609    0.4903280783236406
     0.1899361978012827    0.5120519778847230   -0.0447183644938848
     0.2502729578627871    0.6410644372736978    0.0980437463767599
     0.8294233572838119    0.0111346791258656    0.3153787245730020
     0.7459882292319820    0.2057717873747148    0.6300632877787946
     0.9499265939324966   -0.0724748494826756    0.7941472142268280
     0.9652846031490450    0.9457091146567814    0.1406176996312563
     0.4143869357259941    0.1026353974869631    0.9720966416200888
     0.3948730379961048    0.1321888888568922    0.1962356756303076
     0.4842686465341366    0.3008852024633755    0.4955786330776620
     0.4055131557289673    0.1256257307072595    0.5774909317423697
     0.4993632921270569    0.3545849621076247    0.9608901837707587
     0.4961710089489976    0.4199707200671697    0.1662254947486593
     0.5199888161197130    0.4617946072087414    0.3109717255628483
     0.4866176502656814    0.5168214413119702    0.8262592692729293
     0.4280054896350531    0.7603590363302885    0.7856223683477239
     0.4798788499468248    0.7430201885411738    0.0934227719093609
     0.5293422203182592    0.5895201244286556    0.4226732939704561
     0.5785365279909216    0.5441643361594972    0.6245839770480458
     0.5578982027395240    0.8435879268882063    0.8137767967348374
     0.4527441241463470    0.8908523463473467    0.2076187338464055
     0.5318513450243784    0.9251067912678524    0.5115701462204126
     0.5236084111846322    0.9031753523156980    0.6516629212742607
    -0.0156015525424353    0.2316700251355120    0.0994626070514840
     1.0541607837633360    0.0792611485541751    0.2440423179909820
     0.9622584856592312    0.2117167792833583    0.6424216322694337
     0.0444030093142803    0.1033810052767534    0.7923312870484693
    -0.0148711421849393    0.4074971213006554    0.0344771353596136
     0.1095332590065461    0.4948526893875379    0.0926272062635890
     0.0572439607461648    0.4580489304851570    0.4413132285689289
     1.0032592062635015    0.3141126401410036    0.6462942775332926
     0.9613757384351606    0.6041319572269968    0.8362519936248218
     0.0346413807808619    0.8254569889003341    0.2619253531604351
     0.0981174584546289    0.7565115006857772    0.5747903849363790
     0.9673516522154597    0.6475465820668798    0.7245235268695360
     0.0071875524376353    0.8820317255992167    0.0334907904708868
     0.1299092017173416    0.8518052323029593    0.2483948985738851
     0.8653429952568809    0.8695583337220067    0.4389670301460316
     0.9439905091205465    0.9026171359311459    0.6035831032469448
     0.3482764570726795    0.2049864532187223    0.0731054250335888
     0.4421073010013778    0.0838097288431633    0.2799297083562725
     0.3765100988471196    0.1942679846671328    0.4543124880228774
     0.3521899031676455    0.4230216239430494    0.8213992137113099
     0.4294398298175543    0.4747267279007205    0.1849171025089058
     0.4398286034998012    0.7791975800288560    0.2411801606796346
     0.4690299957147726    0.5289047473165559    0.4921412790412094
     0.4357288978619956    0.6161826195699998    0.7035007562391411
     0.2955446322857842    0.8002347842119363    0.8703127018381643
     0.5019157464261998    0.6010851626734944    0.2305700291255333
     0.5482607884653058    0.7395532262684850    0.5111953857909477
     0.2511275032770611    0.7745271958657483    0.8689291867239866
     0.3636374358228038    0.8581075374937552   -0.0260445382887236
     0.5853557550763954    0.1932386005707744    0.4264831885693042
     0.3078459860186766    0.9258545828194865    0.6926553007446250
     0.3082767191169480    0.8894365765878591    0.7171535445539814
     0.8817128420825540    0.3719518388643592    0.0731023957932690
    -0.0675750916867068    0.2239323689960774    0.4245630853649368
     0.8070303259655952    0.2032774538047601    0.7609213311634211
     0.8021191289043844    0.2508147161203765    0.7114794843527990
     0.9095344840958596    0.5141761625892417    0.0725705763045787
     0.8494746145584420    0.6580495494484448    0.2854874196520938
     0.9215049123430088    0.5259805809415580    0.3106286501566164
     0.8423638135434449    0.4033793812734532    0.8118028851317025
     0.1600086811535665    0.7019531985965181    0.1166495042274069
     0.8607858110671628    0.7838823826370954    0.2477349307792041
     0.8118355975160630    0.8076272494946251    0.3922314589985167
     0.1053642199399148    0.5845501868689930    0.9867610385527337
     0.8837790197518737    0.9946144846155972    0.2149513750579110
     0.8623869784627867   -0.0250732190165091    0.3908171009660342
     0.8041596948478313    0.1398518129543343    0.6680190451688798
     0.9775806720877559    1.0039793652067761    0.7693209137139857
     0.2745376697937508    0.1340402431324345    0.2440549175894526
     0.2132903388425741    0.8938013156117534    0.2872288707934631
     0.2733581907612084    0.0376927672517354    0.4961616170908564
     0.3158736145114181    1.0178728600936402    0.8117381462195377
     0.3210791757722485    0.1337968572729079    0.9217693836164804
     0.4701824463814319    0.3494001743213164    0.3095439558057476
     0.3055612415141366    0.1941835788468471    0.5182498564704335
     0.3088985805722685    0.5163113903408020    0.9395121797665327
     0.3396338514973870    0.6423477490401052    0.1618851712152002
     0.3006169217154963    0.6087340901244992    0.4516690502760142
     0.4290839016728576    0.7599343566982245    0.6447278739194969
     0.3449768260276956    0.5960727392559864    0.8864844543312309
     0.2711449682020033    0.7583801350934855    0.1946358216829001
     0.5022033772158973    0.8099859583980715    0.3639296098817879
     0.1686171349007910    0.8099688568972966    0.5711637512645078
     0.2918993847708324    0.8542010565018530    0.9673073936633526
     0.8332917180853363    0.1565557636541666    0.1286418062008410
     0.9324946970641074    0.1083648854050613    0.3710605622030151
     0.7851858342608302    0.9514000397347532    0.5003359784570756
     0.8302066585799075    1.0001068294114135    0.7232315935320871
     0.8847388710455852    0.4702425260735358    0.1198505003231186
     0.9508382743701815    0.3478746571728690    0.4210564189366178
     0.7922559195167155    0.6090002756501229    0.8131765907466701
     0.8198555807769144    0.1984779336594826    0.9581907398979065
     0.8910340093193002    0.7374213725144221    0.2312064422700189
     0.7736318092586882    0.5342848686357921    0.3538456629381155
     0.8549169986288898    0.4543006849174319    0.8603389112455665
     0.8144227708467962    0.6323701246782995    0.9784143682008039
     0.8579555906637514    0.7521228973885719    0.1133834916603096
     0.6856463507895788    0.1371527353183004    0.3691948248781430
    -0.0106841794953665    0.6233773065137787    0.5639881321848803
     0.8114098713262701    0.8179983464351954    0.9385955355154343
     0.3155678984528358    0.1777361197968091    0.2492656205757711
     0.2303578102946450    0.8728010420636481    0.3412807269580751
     0.3183352657823366    0.0742528182765916    0.5227195861798372
     0.3618452764748732    1.0130740140638439    0.8534349612182567
     0.3346983478888565    0.2031153311722405    0.9117855675088098
     0.4820464700376167    0.3745357362471916    0.2618080927929877
     0.3004358212830711    0.1747715519388124    0.4528159679013186
     0.3592411820462863    0.4910528505569924    0.8931502214160576
     0.3514687043527456    0.6564074828914969    0.2213163283140326
     0.3502040101589712    0.5882369091001983    0.4767196733284303
     0.4399196415431011    0.6900875987495646    0.6090217999159814
     0.3265547351154335    0.6514415344863245    0.9330795156374964
     0.2662550551426741    0.7014146788591925    0.1446335224950999
     0.5529480545998934    0.8428631874322932    0.4330146632794827
     0.2175842752578730    0.7771390620668059    0.5359278274505129
     0.3019098178910293    0.9125546666073406    1.0134647273459898
    -0.1441068676665348    0.2074116146639100    0.1785621686029203
     0.9602386918587598    0.1198016777170586    0.4282631730572592
     0.7968697127718832    0.9379440468065303    0.5525113567413765
     0.8016400392150941    0.9732323892981564    0.6762079159486910
     0.9170402106985941    0.2837252465222108    0.1683291302056673
     0.9474401585992095    0.3801037843409272    0.4792856305205341
     0.8475777820044402    0.6177358036524189    0.8210831971247883
     0.8378381388808536    0.1365906629719466    0.9479787635579395
     0.9367521480922779    0.6988794615207702    0.2307599404809807
     0.7225396589069834    0.5284558335279569    0.3729641762658834
     0.8739188762744137    0.3995597188385018    0.5192199551897517
     0.7938363100986424    0.6806243110190260    0.9566519516429632
     0.9041417713560626    0.7498893863032156    0.1421564003625012
     0.6453341136378477    0.1234960772156413    0.3952963359393038
     0.9601269875629630    0.5657192057407353    0.5509981059801734
     0.8489197406436996    0.8663498638399451    0.9707965133462644
     0.2456757928489695    0.1564775263833517    0.7745268609592839
     0.1753448061458107    0.3262994128061170    0.3607847697985395
     0.1029677346969169    0.3044787910059020    0.5856111826892245
     0.0960672705988128    0.3828740156984213    0.7679839845473222
     0.2363492256274286    0.3285144336492214    0.9337928492722744
     0.1341170198657597    0.8354086349960318    0.3736559110388403
     0.3491082142758674    0.5044544464066603    0.5387394070211750
     0.0991326407884698    0.4369727853017852    0.7539182854196324
     0.1710903868354406    0.9451239729463704    1.0686828104923725
     0.3043140118054714    0.8542293352268422    0.5280795576169535
     0.0393157701374012    0.8837813167438281    0.4519293572738026
    -0.0058117032836504    0.9334648741319919    0.8009799092954356
     0.3030497861414234    0.0413154859006025    0.1661446184369171
     0.2579922450321494    0.0647957987608018    0.1981123555833357
     0.0450710402939737    0.0340243952729862    0.7101841105414365
     0.3681236016844183    0.0362234352833381    0.5841191007849895
     0.5764354091296454    0.3058944003943145    0.0314632287018185
     0.7087209945032372    0.3764293166664586    0.3743407160840859
     0.5846270623918909    0.4600587462100796    0.6846579524473756
     0.6046863764943812    0.3434377357718388    0.7003547839904894
     0.6299797255241997    0.5342401997988760    0.0239260026599246
     0.6276520612783022    0.6877772680452372    0.1560931015555969
     0.6386357485495815    0.6837355360058190    0.4398409681614545
     0.6150911880282350    0.5310737928267171    1.0786359218597561
     0.6120442094795426    0.8733792552531870    0.2342231417961899
     0.6178938517232176    0.0550126935840581    0.1012044907673720
     0.7284254574013787    0.8979544088280008    0.3767141645925538
     0.6910959703968688    0.6883130663235121    0.7032199019151155
     0.7621785547028711   -0.0445742005886004    0.8875651457527840
     0.6260420861987315    0.1361355455196338    0.2232934168367131
     0.6584557887287251    0.3571607020075261    0.4665645788735018
     0.6135491441844163    0.1202622528333990    0.6029180925375465
     0.5781362055600148    0.3457257100768203    0.2416120039868015
     0.3528123881953266    0.4472761182750576    0.5053965733009731
     0.4052274935489578    0.4533189398360135    0.6319195016948896
     0.4340522077101583    0.2071131347728354    0.9015636045584478
     0.4509704288385985    0.2130432325066922    0.0355512579179323
     0.4272995385704481    0.5718983005214647    0.2897539752819192
     0.4834802371991494    0.4071405411574185    0.8231521809104695
     0.4103626113996541    0.2670865341874480    0.9997977263111449
     0.4932595647773243    0.7688589572558117    1.0000222739040956
     0.4293849240337405    0.7600584621287704    0.4313669687693074
     0.4960598212392963    0.7280637872768185    0.6096991166080418
     0.3295730892839032    0.5601163997270029    0.7983745019355034
     0.3632835978697093    0.9268574891185393    0.1207744836311542
     0.4680689395464863    0.9649832434524037    0.3518691169073187
     0.4681833362389971    0.8768154937871564    0.6801604005083713
     0.3939029418993907    0.8776890607840929    0.8539040431140498
     0.1235692706370861    0.0225090841103772    0.1012923679000202
     0.7840043921120995    0.1145251216654218    0.5309376079442740
    -0.0368926530392963    0.3316030329856569    0.8684043764279326
     0.7917170689101976    0.3352748144238131    1.0184550966704524
     0.9162496732448321    0.5764411455248905    0.2223125942610632
     0.9198745237059195    0.3316526932714930    0.1867485342350682
     0.8803353396560089    0.4147226404165938    0.6992191893050463
     0.8298039416272733    0.4024570730624408    0.9218708069824504
     0.1156093368781668    0.6509032030673916    0.1556148687074289
     0.9854228779002810    0.6590035804614379    0.3540595238297247
     0.9439549976121095    0.7663774354956568    0.6250825301115385
     0.8658388251250906    0.6705150699800756    0.8703922220421377
     0.0686082086009192    0.9193834745030003    0.3692449417482791
     0.8978885413533523    0.8671694383303873    0.2340449047075621
     0.8950916710599556    1.0974212262740248    0.4982856233646111
     0.8698247740969749    0.8979401248343432    0.8745762681612684
     0.5219784031996305    0.0725041640296333    0.3395392315903703
     0.4303612595322661    0.2280923013686441    0.4005381483498188
     0.3724948800831075    0.4108494993313813    0.6966932285294611
     0.3512202200505612    0.1023529673972203    0.0793953358385766
     0.3633250243673779    0.7423535041857754    0.2247521270008003
     0.3864863830484289    0.5395658955640398    0.5278789857865501
     0.3944463664936357    0.5328044400193228    0.6412879100124576
     0.3846092786780226    0.5063282315990876    0.2705152057993150
     0.4742242155991055    0.6502117999825603    0.1611471302626759
     0.4477781596219713    0.7814212131805037    0.5662850188189158
     0.1672513572420188    0.7971876115608317    0.7897370072102219
     0.3839509954705433    0.7786310949699975    0.8464317293768798
     0.3700561828860969   -0.0121263017946532    0.1845660972677537
     0.3711296427652952    0.0261285298980668    0.6968022665984417
     0.3359537619968322    0.8039039322026064    0.7480308788019974
     0.4605605222083938    0.8402003716095469    0.9175094531662729
    -0.0053147692814158    0.1861318835023480    0.3659089080186643
     0.8925547572437029    0.1565908778419901    0.8270126150322314
     0.8591356387025604    0.2807523814067862    0.6483553679372359
     0.9484145562751598    0.3684022011796453    0.1699561550406324
     0.8983924316569571    0.6527073036953289    0.3788532761174683
     0.9903804584101393    0.5726059867315538    0.3823984123973211
     0.9228448969836122    0.4486047655818723    0.8469531390270317
     0.9193148198432347    0.6004023061084246    0.0552443957509748
     0.8902732047483158    0.7878656081605007    0.3434741498327317
     0.8165423128545860    0.7920492248396068    0.4875357525893047
     0.2140089389451227    0.5448757499735321    0.9829555365969539
     0.2237846767770960    0.6119998413093842    0.0804461395029509
     0.8653566572362313   -0.0143832529363190    0.3005626280703257
     0.7118095120478309    0.1270508974057835    0.6052485541599683
     0.9154717011970444   -0.0423375668447422    0.7899012572981539
     0.9320680424119676    0.9626142397124775    0.1186417438276055
     0.4357307672835857   -0.0041853908039464    0.9586841662500970
     0.3676761790043452    0.0597546758350658    0.2101221046545752
     0.4775240992645846    0.2532755726478713    0.4057230976122340
     0.3779842943432990    0.1922539872478449    0.6140308167365341
     0.4855226981691902    0.4091625053111703    1.0025927647504054
     0.5750085376330849    0.3932896579963200    0.1346656905624994
     0.4723442855462128    0.5194127553720865    0.3604447384702031
     0.5686388653824511    0.5143243457742068    0.9426388436032886
     0.4421086191134252    0.8341126157654181    0.8533315126130078
     0.4436995244964180    0.7175293763023420    0.0394258392189505
     0.5369495705122426    0.5219109171981020    0.4908460229447394
     0.6250167133120026    0.5789298908431993    0.7173714860845987
     0.5035756615142541    0.8431273524617090    0.8250556227248791
     0.4441065598613178    0.8559018879118367    0.2345457976308753
     0.4740433066394665    0.9433406276217581    0.5173081685440144
     0.5562569537131572    0.8351445402706185    0.6586957787460197
     0.9233991898639555    0.2628149644694666    0.1027885210020795
     0.0877541074065147    0.1385662371648668    0.3294825972382345
     0.9100222443744516    0.2737076152078219    0.6038209744180161
     1.0113640761017682    0.0174505048159230    0.8105354526444603
     0.9746410217707355    0.4435910776731791    0.1209233158712511
     0.1482514444607852    0.5457597268413326    0.2650065825918808
    -0.0152172967102073    0.4918410422634768    0.4533955550616176
     1.0621338767168602    0.2488193938679033    0.6317004522645669
    -0.0065208073432105    0.5003819867548310    0.8002102289743032
    -0.0636636579940841    0.8240167864218115    0.2389769245598681
     0.1415797638046525    0.7676523540932243    0.5476326754015570
     0.9680035794738151    0.6760856407994354    0.6657113949551394
     1.0002233647961336    0.9452054129557949    0.0883776631479535
     0.0924454737563974    0.8459819202865992    0.2915026543198809
     0.8733157253619996    0.8765005217398120    0.4999133271488035
     0.9031362643593421    0.9452325114246689    0.6550821383702432
     0.2620620586602240    0.1741645975518919    0.2729146232406930
     0.1828073678921079    0.8819370130677864    0.3055465035350786
     0.2761670217404547    0.0502752233206753    0.5389386721387833
     0.3079158951712276    1.0359877893368092    0.8540784054923819
     0.3523518879061324    0.1629152348810383    0.9436530388798738
     0.4801245045549618    0.3878461453307656    0.3267557726059085
     0.3437915279883489    0.1777394137866540    0.5050955751323464
     0.3125293830876326    0.5379153525145346    0.9091992493736107
     0.3774271148509409    0.6276748921959081    0.1627559193451726
     0.2947791312054482    0.6302094477689453    0.4965492466430629
     0.4131936881204362    0.7694372653585067    0.6064059425540498
     0.3279354678619016    0.5872827136922703    0.9173403291022002
     0.3064728059992392    0.7564172155446077    0.1820389312384318
     0.5086514646430710    0.8255629137892466    0.4081783089651370
     0.1849881313061507    0.7783173829591894    0.5896992128391484
     0.2352460444242918    0.7917495449991159    0.9260295246764013
     0.8082184447496912    0.1995569272783873    0.1376512945650302
     0.9288539564217602    0.0600502576245914    0.3748475099129669
     0.7519917750332212    0.9359908868162984    0.5083464127999312
     0.8489316453875220    1.0272706600298709    0.7060351549768943
     0.8661109282403572    0.5086786230066559    0.1130123491334693
     0.9179355822528891    0.3391813999200397    0.4375492590563254
     0.8004943232522497    0.6269588162329958    0.7842407541460452
     0.8524326025185293    0.1915633837779733    0.9341356782085140
     0.9089253501374449    0.7191388803723242    0.1922818651135130
     0.7507057122208621    0.5488874294297966    0.3160372239923782
     0.8730588277638289    0.4538452600828276    0.5721725317068618
     0.7816500800447099    0.6569488736394330    0.9953973979884363
     0.8446826378227573    0.7429331011132760    0.1460045990236835
     0.6888782592042848    0.1602728631171511    0.4147302119738878
     1.0139850271293571    0.5790883399148191    0.5610574377387284
     0.7880186336803726    0.8666499742981557    0.9636393830831013
     0.2142090994152369    0.2021083671101637    0.7526078892515221
     0.2185526935458697    0.3087117017761520    0.3304829781923037
     0.1197162064623135    0.3336382918054913    0.5428349077595299
     0.1337774019294190    0.3811472481530866    0.8109238791520373
     0.2424433668417133    0.3929355724047160    0.9761936603526989
     0.1898768289593910    0.8527878178559598    0.3816339536104491
     0.2954205433614359    0.5072745384120843    0.5258553381944431
     0.0597313071284449    0.4757650965932723    0.7457117844214669
     0.1871009152172944    0.9392692607328385    1.0174272106842388
     0.3059671882155139    0.7953928459269574    0.4722104822054895
     0.0528866491502366    0.9037449087341961    0.5151251146588233
     0.0298352018077819    0.9787436639968065    0.8331010712000344
     0.2904959905097001    0.0931901088007775    0.1497382598534405
     0.2210293074386108    0.0869107924761504    0.2482001498035569
     0.0960396823901471    1.0127960421411206    0.5441517500222209
     0.3704712795041668    0.0912142834402840    0.5970937232068989
     0.5690577012364387    0.3828545002204573    1.0453136410738415
     0.7628346457663400    0.3608811440981680    0.3816498209936369
     0.6161561329803578    0.4772757852569832    0.6445883591360494
     0.5935941529391239    0.3905782630652732    0.7536846727733810
     0.6609050224098607    0.5437039919355252    0.0753489132308638
     0.6247818883328823    0.7257452517083650    0.2092799176867782
     0.6721698510942151    0.5971986548521381    0.6856588359644596
     0.5873161599150443    0.5415858307080337    0.7754383845770639
     0.5890850079915332    0.8343578066242178    0.1783136271152169
     0.6562936054053655    0.0766739255720907    0.1486357806426706
     0.7461578041276815    0.9190408745338088    0.4325511391388138
     0.7031729035175845    0.7206305498766477    0.6649057187389495
     0.8048815286954146   -0.0066825876318006    0.8899678921366814
     0.6774693497214003    0.1247158455570504    0.2055523001760111
     0.5942814364744115    0.3388054106723927    0.4622341377667374
     0.6167987651044726    0.1448765145686126    0.6626389489790934
     0.1934363669004083    0.1104898538553481    0.9961670771355214
     0.2330791197027778    0.0912603752134178    0.4046636945602773
     0.1556513759686615    0.2154221508456171    0.5765448080755797
     0.4576458790664004    0.1531277805119455    0.7879138935761834
     0.1534479894871482    0.3122215226758756    0.9689986776372269
     0.2897972561424659    0.3885910387524027    0.2730907663428211
     0.2864833297756144    0.3973183838895354    0.5545342735633260
     0.2624840938760258    0.3976407146464253    0.8206358103786814
     0.3450776231983792    0.5102221092436516    0.0566993818682973
     0.1954121592093034    0.6337840808989665    0.3301956196757529
     0.2659058292184209    0.6856082584376598    0.5659347349553193
     0.1892493895512498    0.6042324893680830    0.7129791951722206
     0.2861200868209191    0.7350897000996899    0.0162753694440732
     0.3206550384359830    0.8094593004328307    0.2880513964644923
     0.2103492470087668    0.9214095795659955    0.5665043518803067
     0.2135568333968563    0.9094463764662457    0.7792029920111824
     0.8511426289157986    0.0762923662729283    0.0770481528033092
     0.7965107193037850    0.1417288103877385    0.2680538797537840
     0.7239442516452991    0.1898228373553537    0.5111666993040025
     0.6485699660995017    0.1156324435170458    0.8141695804459806
     0.7430597896084863    0.3602899546852290    0.0148094771371069
     0.8626713206510920    0.3985391746266114    0.2614897806888948
     0.7856030140153003    0.3021358081964760    0.5245561408440274
     0.7236367690451845    0.3075861400988275    0.7819641795262352
     0.7993061594513947    0.6252618371442931    0.1064897813755595
     0.7676597939564888    0.6439360233381350    0.2941849922061682
     0.7862164738185519    0.5377836439862763    0.5196308530284598
     0.7268224647855124    0.6769491499648321    0.7635146074022086
     0.7073814613268526    0.8117251247664745    0.0565621876543774
     0.7008701756175201    0.9710618017372411    0.2919712001975001
     0.7120116871309931    0.8970472342447400    0.5193567389051887
     0.8497504631874777    0.8110105146476677    0.7748011003557060
     0.4027533864036566    0.1322262939820104    0.0941704132860831
     0.5207126012033453    0.1189037838233876    0.3091879197889653
     0.4216476032407153    0.2665031062118026    0.4537713560757844
     0.3895161601920621    0.4471816904782649    0.7563542552392906
     0.4138873245853595    0.4517013141762227    0.2634250220693357
     0.4040622878834332    0.6931879956309985    0.2243140005223460
     0.3917774422299406    0.5062870481411184    0.4660894255115156
     0.3990936200798278    0.5320297041044505    0.7019484190960578
     0.3758135165236470    0.7632066958746516    0.9056284407283116
     0.5182812417354021    0.6612964447856678    0.1768209600941844
     0.4702969618913859    0.7270606113019425    0.5292105048486613
     0.1716313144144135    0.7832707215382162    0.8444140909768146
     0.4326431950176630    0.8042779342499702    0.9331516034166722
     0.5416221153751170    0.1877409169785201    0.3412435894021061
     0.3742694854765521   -0.0138894993503664    0.7321960537764757
     0.3149313271103260    0.8529773519769033    0.7918637103460329
     0.9403646067885143    0.4154441606293029    0.1368141360173617
    -0.0543635796389487    0.1756660594111999    0.3342457721183835
     0.8730923721879493    0.1327000554617054    0.7680873044068532
     0.8406782283388330    0.3268539790621496    0.6893181960852701
     0.8689901293093647    0.5994733545087072    0.0683724604152244
     0.8455130346239312    0.6811936260313156    0.3793847157873959
     0.9354630352569132    0.5963323349872957    0.3969729212135292
     0.9222570867025955    0.3822798808153444    0.8451614823045613
     0.2191074554686796    0.6229873184251323    0.1380998390520906
     0.9285457210264696    0.7782681482178082    0.3059322896182748
     0.7639352540038341    0.8186620200694689    0.4628367514248424
     0.1838724739460870    0.5993881446021961    0.9788413901005060
     0.9147433231942178    0.9102927257072748    0.1323666487757810
     0.8767113819262055    0.0330238290925626    0.3326495409998048
     0.7669694247287221    0.1397422285266582    0.5860904204968609
     0.9367109098325160   -0.0090414435302665    0.8439097642667399
     0.1721783772761369    0.2818789356663829    0.1673509827041948
     0.0633625049093451    1.1550563692113387    0.3960270397749484
     0.2546993130147547    0.2522317855993098    0.5364910377827391
     0.3167197175357838    0.0942055026296842    0.6809219776185205
     0.2727911014847706    0.2465555267212144    0.1221947063044509
     0.3323626285329698    0.4819950600230796    0.4767026892218975
     0.3549922745061157    0.2793353469424943    0.6820003150400430
     0.1040972216898193    0.4510750566770234    0.8021969298809030
     0.2227756453330554    0.4233625620054300    0.1040899583097957
     0.3278372029464061    0.5255403246754057    0.3397036893738480
     0.2350943401518824    0.7129428748892708    0.7441193018738403
     0.1463028384811312    0.6422064058789142    0.8819331173605364
     0.2346036314823408    0.9278576944589096    0.1249756357063444
     0.3298947442919471    0.9523973804698975    0.4743321003022227
     0.1561741884849530    1.0113479806186121    0.7375596591204295
     0.1402512074492673    0.9175922185490557    0.9140601091528516
     0.8989793757978145    0.1084118331767588    0.8993185878598371
     0.7689082175048048    0.3054053961237987    0.4226821349585334
     0.6442162327299260    0.0203704724911700    0.4480159978406296
     0.8406952700598936    0.0700164332361506    0.8318676261364861
     0.7067865007503685    0.4104103968647921    0.2049759726091276
     0.7756737458452571    0.4949925645470439    0.4248701041026732
     0.7793412215861082    0.3383095594411665    0.7484694131520863
     0.6308441110475782    0.2490753293357541    0.9072355126559971
     0.6963808713251317    0.7694067782160134    0.2523685010636761
     0.7172441153830280    0.5258600050211009    0.4202659639761773
     0.8835461271530113    0.7005413942657123    0.5884182802613500
     0.7198311366342340    0.4476892624627522    0.8108041313534797
     0.7426849111763483    0.9935326988977626    0.1499557147227754
     0.8502947980609102    0.0240317181891328    0.2318043630990669
     0.6960606084141246    0.8195282170757813    0.6503379079695565
     0.7180512338327271    0.9519354359475012    0.7618379013418402
     0.3655044104341923    0.8929939232111770    1.0208920653802007
     0.2081752723935076    1.0509682168671228    0.2129162686926652
     0.1612757777546555    0.0484004184642757    0.5281291760116682
     0.4334337401408638    0.1551291666793413    0.6437147703318444
     0.1531822400024100    0.2145850885293886    0.8239268798659208
     0.2049048044586666    0.4758955200315445    0.3690810691712125
     0.2070462848521963    0.4308902322122343    0.6282208558257871
     0.1812032829867828    0.2642695956439458    0.7462423390744206
     0.3572279404590561    0.3991853597299253    0.0486787816548417
     0.2309368375312927    0.7633988161792176    0.3715086954281981
     0.2888613185840769    0.5942851110969016    0.6559062672087568
     0.0526686629705433    0.5688368530394337    0.7082227989103166
     0.2698431629123865    0.2647074944886648    0.3529647192621198
     0.2413836741407926    0.8623964699278766    0.4135526044270968
     0.1660789672633006    0.8262665548315554    0.4646892982075421
     0.1252683587049024    0.9921891538884355    0.8355766030326820
     0.7584006339915026    0.0963728185230817   -0.0372899049668572
     0.7237951998198713    0.1793411897915071    0.3547472868000516
     0.6426179790282951    0.3043966536981102    0.5776281265562015
     0.6469427291690639    0.0037107708125751    0.6740071618992766
     0.6384543100416008    0.3842513560198988    0.1085831385563289
     0.8048186161142979    0.3680353290986281    0.3267009954461971
     0.7092925007547725    0.4249482015434459    0.5714972407961124
     0.6552477242625170    0.4039394603761546    0.8586756986416385
     0.6970309635121923    0.6248804843898873   -0.0068928992325754
     0.5182510621221945    0.6071848553773804   -0.0198690046251198
     0.6900337403507707    0.6001518455030571    0.5487575621309689
     0.7294955774872284    0.5654394886237705    0.8213390690234741
     0.6394535006731843    0.9378097108247868    0.1272090582613202
     0.6989011362766698    0.9302110658060951    0.1394194790134820
     0.6364753384466627    0.9155659253792301    0.4845465970868493
     0.8106727536319498    0.7730606703511766    0.6459470833636896
     0.1142915083082769    0.2206518194246028    0.1572897231240156
     0.0716672286599677    0.0480792452516287    0.3868286117808468
     0.1688415714844637    0.2942299684721994    0.5351608558595161
     0.3095465762454546    0.2004242412379079    0.7023367390748659
     0.2688187781606164    0.3463627920146460    0.1210046087755415
     0.3009972625768084    0.5255039898596473    0.4069037235851047
     0.2898263192446383    0.2225081452142315    0.6234928778104301
     0.1183686402920220    0.5145473860006660    0.8878435313138084
     0.1922194043056210    0.5050425812857139    0.0636400592510343
     0.3839479995764924    0.5997500968151316    0.3355488152905931
     0.3191070672947843    0.7197397716495459    0.7648646403031757
     0.1692766057780612    0.5488847757349484    0.8378021481324323
     0.3147561756043313    0.9512075955471719    0.1115123677955813
     0.2889297222980479   -0.0183550273772248    0.3960055866922076
     0.1078859493288331    0.9399755989386489    0.6919598719387470
     0.1371184681535070    1.0198435243694894    0.9072123178402245
     0.9714053201921243    0.0714972794847347    0.9396744235593186
     0.8597008586830186    0.3144629520682317    0.4055465006182452
     0.6123143682214847    0.1088451897824355    0.5280055660211412
     0.8038560155453540   -0.0219400007554786    0.7758271947252757
     0.6547869861279593    0.4465398068425776    0.1334137162617325
     0.8042945884342738    0.5653677084043128    0.4021872199303044
     0.7316561661553914    0.3706892579243978    0.6888373747896152
     0.6500135584434432    0.3375528361109744    0.9102225671034953
     0.7141014025204083    0.7961061849366460    0.1690479108053630
     0.6512563490722074    0.7805700959557417    0.3613004637828924
     0.4086138083345061    0.6339671516346380    1.1370371347862749
     0.6553493982585800    0.5121803604070631    0.8673247643468925
     0.7418793799567748    0.9640472219443307    0.0532471197661175
     0.7719782767020886    0.0191292923462579    0.1769943319002251
     0.7141866929342436    0.9022173080369739    0.7172619395798020
     0.7021163064238074    0.9404948635775731    0.8600492200536599
     0.1146455134585548    0.8574517579891315   -0.0132016164881704
     0.1870528077697095    0.9645782200466183    0.2437352564154827
     0.0029070467775449    0.8496377941841754    0.4390196768216520
     0.0244986152444101    0.9377694906904652    0.5504339561489709
     0.0156723999753739    0.2541753667073593    0.9522226900173073
    -0.0545312612602281    0.2090211580104978    0.1672237618685687
    -0.0045989738096848    0.1103304617394845    0.5060172706209809
     0.1603001443595409    0.0599047044775365    0.8877584807162465
     0.0998304051146041    0.2887205178601283    0.0888400535235403
     0.2149528373702357    0.3778733891784207    0.1609047207638507
     0.0644423743481860    0.5546704077523743    0.3675145508144813
    -0.0180020008785433    0.2523408116211329    0.5415088590118599
     0.0567471645368796    0.6541916656984103   -0.0213909525680941
     0.0356706487023249    0.7060742587083032    0.0668916796410778
     0.1166245709634156    0.6078199527562183    0.4957799891722363
     0.8741981507101405    0.5634526506487121    0.6475188609141878
     0.4804208511288866    0.9234245897334524    0.9412560375912397
     0.5745367112782269    0.9870897029445284    0.2033670784997556
     0.5189668788122817    0.9873531256972625    0.3612593465144713
     0.5521607916201114    1.0661688933537798    0.6173068840204248
     0.4872129181962472    0.1063196044525646    0.0549692886834121
     0.5074249021405163    0.2364312180183877    0.2931206284495633
     0.5473548443412345    0.4228293075810419    0.6201263896729137
     0.5426960727509496    0.1500015984956772    0.5381633946711599
     0.5520841918483438    0.1676100367743843    0.9664020050212780
     0.4062948699954894    0.5023929508783016    0.1136660593793833
     0.5543013363592060    0.4430119806090629    0.4474419358192461
     0.5056177570734890    0.4570034061709149    0.9071647747281743
     0.4802262179518315    0.7572492549360273    0.7106321669502095
     0.4898840968335086    0.8150767011354579    0.2617745616246390
     0.7228265337003519    0.5694915994435388    0.7139274579044178
     0.5532067120213821    0.4771316095846789    0.5317271077860940
     0.2775361654924284    0.0019200713448023    0.0758068090865691
     0.2819277731859054    0.9918903082947201    0.2414428444077009
     0.0976266041420274    0.1004466642233652    0.6235930869054295
     0.4244036074664793    0.0448522422666595    0.6566365917475013
     0.2265260069002483    0.1810189766244550    0.8633968371407084
     0.1704566409491733    0.4272038597472200    0.3987385075906958
     0.1773137948013221    0.3550128417698605    0.6337588910275340
     0.1455593054740511    0.3046376366133484    0.7211415812285334
     0.3210288967418153    0.3266712801474979    0.9830497052561904
     0.1482741272842843    0.7342746200381572    0.3399862544063940
     0.3056757489686923    0.5423178596991399    0.6205945158769723
     0.1398385391780874    0.4750248980070385    0.6974616258455543
     0.2064884035515934    0.8499363450258494    1.0456676320884346
     0.2901516011023639    0.8784251644107174    0.4474355865328776
     0.1200896532790060    0.8561830869674940    0.4501915954669550
     0.0690767849592390    0.8949054743674473    0.7643259879586073
     0.7595579771733374    0.0205058306742276    0.9788097961802971
     0.6454897036153540    0.1599482787905266    0.3231760526531135
     0.6666939497668579    0.3377842490551062    0.5381982888584533
     0.6370385973957390    0.0377661241471428    0.6327841393317245
     0.6513113181338513    0.2933218664743686    0.0715180252146986
     0.7394954386082466    0.3802579203297708    0.2939167328654869
     0.6580302027631391    0.3824446766017696    0.6602928675300097
     0.6773058177107920    0.3830326149408153    0.7699134773212796
     0.6573986080311081    0.6131856736892151    0.9919127136450030
     0.6673578489949382    0.5944764601690934    0.1541784673146195
     0.6904988654989090    0.5151454151996847    0.6120750970074222
     0.6834201675958803    0.4969626095222225    0.7871171195203617
     0.6395620591908788    0.9139524129196192    0.1682435394975158
     0.6505690664461455   -0.0306690997385600    0.1285897741097916
     0.6574793946605584    0.8602096815814031    0.3875419459512112
     0.7766375174483059    0.7168688008183162    0.7257567525473851
     0.1201242807118607    0.2846303736346376    0.1529629949204963
     0.0319852479694487    0.0903899466515754    0.3889010541017692
     0.2177283954434859    0.3112691027943082    0.5393283940202168
     0.2793701893865747    0.1591054351858898    0.6805154701243130
     0.2993384325224999    0.2983588472496913    0.1403540280110113
     0.3156748948442981    0.5447569168085027    0.4722060918518926
     0.3207687142008531    0.2299215513680493    0.6713194450297401
     0.0728988300043649    0.4793016378925342    0.8562642635130799
     0.1754570562859863    0.4637810172002242    0.0968177315391243
     0.3771533102824744    0.5297338969712465    0.3146505807096535
     0.2745553174267634    0.6995469310864170    0.7870972986397685
     0.1206155557758329    0.5911932977976179    0.8601723826728810
     0.2831747772334907    0.9682912165212730    0.1477972615573852
     0.3056803281361720    0.0104918613774844    0.4609859313685999
     0.1052403242789979    1.0097357145839980    0.7306721761749407
     0.1110084379733652    0.9816359285312279    0.9210097250058964
     0.9599119165004731    0.0870368730975741    0.8947146898911497
     0.8097418281293552    0.3280692108646387    0.3792645775844258
     0.5956300100265931    0.0524969495091003    0.4822439844448098
     0.8411151501446519   -0.0047569023262830    0.8241608921271287
     0.6543657578361707    0.4426956549998552    0.1923464446003816
     0.7930297959873576    0.5642242670044515    0.4516605412011450
     0.7281027286380315    0.3445311900894899    0.7364028419938804
     0.6244491068965334    0.3150710319590451    0.9395814960148879
     0.6871081754826576    0.8225766178166519    0.2243084218361060
     0.6022876864422857    0.7906619112052942    0.4009602617534757
     0.8682399960501082    0.7161909396375430    0.6415711058170758
     0.6635732644431306    0.4496852587810434    0.8166331569540154
     0.7474712837712068    1.0165671098676565    0.0944772088342441
     0.7935464661218141    0.0689406522835601    0.2096931250050398
     0.7387689436098205    0.8387391080770444    0.6994997185612000
     0.7181444747279155    0.9713919504349335    0.8290976536439317
     0.2673736087582848    0.1060165256134346    0.0445021524392572
     0.2773501016483436    0.0205507944904924    0.3567427288721866
     0.1103578725265069    0.1392175167450715    0.5598490819790060
     0.4154695297484248    0.1205682743262070    0.7078391015763357
     0.2055661712106352    0.2400318757520651    0.9071236764510524
     0.2569143622316507    0.4387930121632294    0.3526292405131481
     0.2296117757011665    0.3510360595815507    0.5633455128759546
     0.2359964672226501    0.3159498309887691    0.7299885281023044
     0.3532893510616050    0.4113210657723034   -0.0130429858488255
     0.1785580040476087    0.6971015264711681    0.3104052568915580
     0.2589371791558168    0.6243914668475308    0.5642866947519325
     0.1247656765097672    0.5806795467466377    0.7442096938473680
     0.2565200134357918    0.8289395729395194    0.0022846317456913
     0.3085499988390932    0.8490509484261298    0.3764664078249433
     0.2010871748705412    0.8752828594861923    0.5045456330783213
     0.1401993853416688    0.9412963699222568    0.8204863173293249
     0.8150386889005725    0.1124553678389488    0.0340764193579270
     0.7482680275523512    0.1224634069914474    0.2979896363039606
     0.6398456615578598    0.2178307368952846    0.5137562990201505
     0.6542615857467085    0.1076105136361225    0.7374259383925846
     0.7121175144076117    0.3532080300948404    0.0844838935765269
     0.7629869346787095    0.4157481997709436    0.2612254557317270
     0.7189290621937173    0.4284450962644445    0.6509122664919503
     0.6611630872282828    0.3079653798190073    0.8288504204942028
     0.7143116166844533    0.6357683829274895    0.0934399182233395
     0.6854401475083212    0.6607912414218499    0.2744434697057850
     0.7466838902575744    0.5742259169176476    0.6024566532274641
     0.6725138181949923    0.6170365306484029    0.7996654630284421
     0.6752032118047790    0.8761538493351819    0.1114245249909324
     0.7053835034814322    0.0075321564917517    0.2198171746572745
     0.6615317411302802    0.8354356622605716    0.4698232914938904
     0.7796823596605280    0.7952105566860445    0.7087011869281377
     0.0615770420316110    0.2373267490341517    0.9896574283764898
    -0.0197119110721038    0.1433297559651425    0.1590580937881220
     0.9497027090385834    0.1465395562064382    0.5293628962397245
     0.1149694697172028    0.0650899399328308    0.8590483175628867
     0.0593585853824449    0.3167498945813586    0.0539657314136864
     0.1944812603473601    0.4364136042186878    0.1436033031938325
     1.0012435134753408    0.5537895984374743    0.3102106758071431
     0.0356747303349098    0.2860677304504077    0.5626614663707744
     0.0072565543668261    0.6219891957788074    0.9573834850405111
     0.0149820101144549    0.7135986479311548    0.1236206696370083
     0.0859459372690895    0.6492974943577444    0.4816606398671595
     0.9217687233898254    0.5367087301036458    0.6648669571958680
     0.0659444031472474    0.8503677695761165   -0.0299069238518165
     0.1403489713790381    0.9490786300715849    0.2058618979239133
     0.9581787591290123    0.8882126931394357    0.4799207183954484
    -0.0130248532246153    0.9689728709736455    0.5849378561647659
     0.4457204760716402    0.0744130292319016    0.0408116100746608
     0.4737374738429522    0.2189054869401720    0.2399713238311778
     0.5192934373028127    0.3825045970793300    0.5818884144658187
     0.4956531453930613    0.1298142984128201    0.5495223299311645
     0.5277634406513372    0.2347936593671473    0.9837770278290826
     0.4276320271738411    0.4327298806961350    0.0779527123681482
     0.5035618275037814    0.4683245013307347    0.4420241056020137
     0.4952599246678977    0.5111517105363876    0.9400510631537996
     0.4771286522042608    0.6602586730244874    0.8413924524586527
     0.4866078492982812    0.7997894674200668    0.1984209257088321
     0.6123660609781589    0.6156475850053775    0.4400759737380520
     0.5695712199997739    0.5171053445670893    0.5841631685086821
     0.4893298512497474    0.9375398256170802    0.8965557880699820
     0.5280451368962714    0.9730194607274955    0.2249956528652236
     0.5138272013087856    0.9524893214384310    0.4012177495639725
     0.5338650898713608    0.0197524762921884    0.6450364416397659
     0.1062313634805488    0.2511758304301820    0.9419123030989323
     0.0329548654560650    0.1505494176386580    0.1632442148953568
     0.9356852597506925    0.1068660111233858    0.5729612700825802
     0.0712944468568512    0.1034644886937783    0.8956303851673842
     0.0142950399286566    0.3392622583568763    0.0923072420030715
     0.1527333981439252    0.4149622183033518    0.0914474658572580
     0.1123684200171813    0.4542043279757539    0.3692546611406151
     0.0285693115131673    0.3390952331357227    0.5510112428378739
     0.9706786565840194    0.6709733496921652    0.9637525097965087
     0.0621299144362853    0.7115609645420133    0.1705065271603800
     0.0576283848249242    0.6400450344348148    0.5242026728916030
     0.8927275229434734    0.6291259509343137    0.7405501641366623
     0.0573698271510583    0.9247627152819062    0.0158116746208150
     0.1502173132019483    0.8996306993852272    0.1501771583757024
     0.8925459496553103    0.8270492222126882    0.4081467882334335
     0.9484322114423940    1.0065953784438266    0.5539006930768603
     0.5183085670577241   -0.0022078072467584    0.9979836000624538
     0.5122008489084033    0.1637770543527149    0.2004859686475483
     0.4774645508408452    0.4262095529562336    0.5536027384257578
     0.4804121556216071    0.1345776010693980    0.6048526283354553
     0.5707304137570169    0.2563190933548514    0.9971167138243145
     0.4755972487131708    0.4358688389322339    0.0634193420496127
     0.5420583556178648    0.3697650614243674    0.3630807984273831
     0.4088617505460825    0.4850920007749043    0.8851722985687467
     0.4017266620037339    0.7283012964259119    0.7742294925243420
     0.5722990499186440    0.7653750178407775    0.1826263950887824
     0.6022630187198312    0.6347527705413109    0.5060586949831257
     0.6255391289181871    0.5116125570111296    0.5995099044752021
     0.5432792077012761    0.9557004204051447    0.8902597798662143
     0.4772619941985325    1.0121152472203288    0.2168996937423557
     0.5741776946712378    0.9081561085903177    0.4047040337454453
     0.4759382112251471    0.9742014124923674    0.5710178813624119
     0.8684013231789607    0.2834563797921695    0.8985254121053095
     0.0798453101692902    0.0385863477588533    0.0742138030452276
     0.8993814722531525    0.2597137691231931    0.5380910799805911
     0.0854633650613369    0.2658355195830605    0.7628612933492559
     0.0511734232857255    0.4379033069685472    0.9643002818917166
     0.0431645699495333    0.5081923561746680    0.0287383575503816
     0.0253819840033315    0.4818761055630211    0.2724115536977735
     0.0226652871747735    0.5161845975108171    0.6329641499545133
     1.0182369765520807    0.7205899246455585    0.8559609196892999
     0.9124372741132858    0.6801758716976178    0.1114820405088937
     0.0673214318410854    0.7048581328150859    0.3710390590279433
     0.8725023140308511    0.7139932261105998    0.5218882221450605
     0.0047287844291819   -0.0147994629204936    0.8895123599388556
     0.0094993519430875    0.9209218138365283    0.1264147461857120
     0.9769924991788173    0.9915573676513165    0.3777006251786185
     0.9202277919847840    0.0707256269033522    0.6298856912437768
     0.5536385443516472    0.0156988621496099    0.9145888961824880
     0.4375455801236222    0.2195944453977334    0.1785689706994868
     0.4873542450729889    0.3088759326013872    0.3928487681369232
     0.4538752259696936    0.2443402316941236    0.6400456786486084
     0.4295405565314978    0.3758455497895611    0.9393778611495580
     0.3936865912170927    0.3963296908596527    0.1192714862110610
     0.5721403273039950    0.5837239295738048    0.2610122577639151
     0.4795880938356666    0.5552215358451363    0.7419472190364702
     0.4308699971208362    0.6224222906132079    0.9207766993185331
     0.6415613625299684    0.7654691672629763    0.1361671332468265
     0.5082800666483172    0.7609413792440285    0.3311309000616218
     0.6563711321931467    0.7650827516455340    0.6383775436283534
     0.5084208348401654    0.9928765864364970    0.7528892274514583
     0.4723230457803114    0.8325582456983416    0.0445076036907452
     0.4926479835588951    0.1362978350358857    0.4566277900242325
     0.4185157346853504    0.8863328985290304    0.4987602658969441
     0.0828672573222533    0.3576117099268827    0.8581644717036508
     0.2609674466132077    0.3019503473130802    0.1940831794139869
     0.2472853621624803    0.3738161667103904    0.4613000775525570
     0.3421265382683116    0.3133490528591085    0.8339854438131817
     0.4345320820939044    0.5177437382197146    0.0314197803315188
     0.2030970803929129    0.6171003090926422    0.1822144514215243
     0.1503010154603399    0.6687137875718523    0.6005073993251155
     0.2292584022730909    0.5627133435143404    0.6597716758128012
     0.2285551749039889    0.6674574002531475    0.9973977388867601
     0.3107516753120662    0.7154353322566900    0.2426101786831951
     0.2293511110038179    0.9480511717776939    0.4300472357585012
     0.1761154172522978    0.8310695483629286    0.6753709064953376
     0.2548420265744340    0.0356844803516366    0.8868164812692642
     0.3289042791221685    0.1910343038941883    0.3292533920259822
     0.2093107917858412    0.2199672979202012    0.6799170640494268
     0.5587364063002587    0.1376741955613540    0.7109740785474022
     0.7471321136181061    0.2024612194968573    0.0291951377257781
     0.8130375812700371    0.3270046129486087    0.1522703883678424
     0.8043102103209721    0.2828457902953715    0.5813539440526829
     0.7159224584979464    0.1662630883010376    0.7379772745916608
     0.8476275456022460    0.5221672451240889    0.0541334322414330
     0.8027491682537964    0.5066876038326646    0.1869954936060763
     0.7212045854064497    0.4419516311936554    0.4557871968862012
     0.7359439399843163    0.7212272948813471    0.8165520669430942
     0.6172939841646327    0.8353963133371278   -0.0640346885376600
     0.6074539194341927   -0.0082261931543816    0.3249684618735256
     0.7329525464421298    0.7340552524475705    0.4573765899665641
     0.9077858126611813    0.7224140910828024    0.7704447696769545
     0.8631323813929418    0.9118993269489153    0.0016252361316026
     0.7185204739108110    0.2664442769292891    0.2513722795315271
     0.6890157746863140    0.2938832919794753    0.4414552723393382
     0.5756126884928294    1.0260752612744177    0.8286125926223038
     0.9869581454536819    0.2063436412376484    0.9186021588631816
     0.0505160050468668    1.1019747086744929    0.3088733733777324
     0.9075702652611827    0.1330820546839256    0.5533061424029665
     0.1184211612674732    0.1031785097520504    0.8038022101390919
     0.0299692431072294    0.3312781397003672    1.0269602343667485
     0.0858475728320640    0.4736747536064002    0.1511342526984590
     0.0746996191230051    0.4299396586079176    0.3247030935103986
     0.9781575247211645    0.3531451695765965    0.5227677177153143
     0.9256653443948242    0.6199005373011439    0.8820760999110434
     0.0111758738107346    0.7070963896781362    0.1865697487835351
     1.0345169476269174    0.6762770926850318    0.5037399297831060
     0.1273129499915903    0.5945009996755791    0.9129705431853686
     0.0227593937905111    0.8624280377237191    0.9105025318467282
     0.1012621790432555    0.8967569506017068    0.1510672985602262
     0.9361355977470577    0.8877205038381936    0.3837417079671739
     0.9289679101884640    0.9586035580646609    0.6316944251716824
     0.5067186197436889    0.0045744719706917    0.9604547509488933
     0.4681131976075578    0.1362447527073806    0.1560760891461726
     0.4818132411720270    0.4043853572928595    0.4812414923589746
     0.5912434534548684    0.2472669111101224    0.5450169691519234
     0.5224949114669070    0.2844057689761911    1.0063362702869603
     0.5550927566252921    0.4067741863714437    0.2164726798516371
     0.5709840799441523    0.3908274529051895    0.4117671421614126
     0.4408496536067160    0.4711698294950549    0.8341253394827107
     0.4595283420599747    0.6440593987164046    0.7634162623598801
     0.5619504170301167    0.7182739762460731    0.1371788681157793
     0.5301890747526358    0.6313678618746358    0.4100136755058441
     0.6253225991926590    0.5939028212399756    0.5507110556744886
     0.4869648006008527    0.9134733249501561    0.7985344595090427
     0.5142590484325013    0.8949841509268601    0.1534291489465979
     0.5002326375442606    0.9847106892360332    0.4672957127577357
     0.4957103622917621    0.9048275599435637    0.6208400272218474
     0.8993202307298376    0.2288955398996414    0.9206287808705178
     0.0331577763573723    0.0102265265199285    0.1557585169869147
     0.8887400148427510    0.1743144475968176    0.5112649805273407
     0.0544354752141228    0.1850797910627554    0.8294372803739253
    -0.0124326299686746    0.3541321958858216    0.9692080092216747
     0.0490443454678152    0.4760684079545479    0.1060609521210006
     0.0150737318459086    0.4574477530343268    0.3240754300922878
     0.0483912696890628    0.4614109979107179    0.6686729741217106
     0.8575800407867733    0.7289778170994210    0.8184591394620735
     0.9352959124740911    0.6882443287025292    0.1537909392240238
     0.0315807726598510    0.7641495476286628    0.4804360278762588
     0.9330315443919331    0.6566351092492427    0.4395135481837388
    -0.0442652101400975    0.9325020146734601    0.9055940211685006
     0.0534296146906931    0.9599777572580434    0.1647576518416708
    -0.0046940603764697    0.8680735254341765    0.3644245214975093
     0.8687877516762529    0.9925308585811135    0.6163971990449636
     0.5279208667390823    0.0858214966407935    0.9619601369313703
     0.4831053703554634    0.2064723683170134    0.1354500235362656
     0.4688800331403216    0.3705168070186716    0.4172099200244200
     0.3834762242914729    0.2936429275174435    0.6217158173717845
     0.4456763897265181    0.2556125006858367    0.9421208175166922
     0.4421227295622250    0.2923590600441660    0.0768870196154269
     0.5780136645435876    0.6629741510659998    0.3722957498465907
     0.4484166649235406    0.5428712340635971    0.8014978354501270
     0.4305618913360448    0.6125656035015542    0.7989979098309375
     0.5603704310056783    0.7230617676570520    0.0530014907333771
     0.4846166087559948    0.7080454545854376    0.4216486650471619
     0.6295744733776828    0.6364872174786184    0.6256195548119280
     0.5170603953032449    0.9587582900341363    0.7998753083180797
     0.4297451147461065    0.9039413022142665    0.1150491649693034
     0.5306849670185619    0.0797670847465348    0.5226379512543060
     0.4685836451062860    0.8554585644515911    0.5475537395306793
     0.1102700549255827    0.4389196068531659   -0.0274646902579803
     0.3831035030426441    0.2732184282403897    0.1696194263724912
     0.1745276921399171    0.2084427572339161    0.2407432431771928
     0.0847839182328030    0.2400445250496732    0.4515459343911723
     0.0939523957128745    0.7202337003450887    0.9470984845683361
     0.8648397756224306    0.6169064286976236    0.9693773339934053
     0.1903232999856363    0.5209807834428281    0.4297666422159914
     0.0990911989890808    0.5433636376637124    0.5319137330424371
     0.9886672760758193    0.8319318865438584    0.6895705736983786
     0.1400234502896093    0.7577291658212639    0.0258678611829354
     0.1691535969164996    0.6398671474194302    0.4351032920784929
     0.7908068068596044    0.9192000865193186    0.6011776645739244
     0.0418627626604435    0.8431097820188970    0.8036408417376838
     0.3597886184999066    0.2416349390445912    0.3318586744385904
     0.1172469591064659    0.2866121042414566    0.2072380647823209
     0.0055150609084725    0.0803029015488820    0.7426433702724601
     0.5880860793237349    0.1186023919340375    0.8355035388395975
     0.6762483006197209    0.1252913299649307   -0.0108460949695776
     0.6318971005073215    0.2480569817976430    0.3106473750822642
     0.5515226277016411    0.3880849735813122    0.6668364836049024
     0.6032291136151202    0.4564785937826842    1.0843292068229877
     0.5064972503235780    0.5586720495816546    0.0171405743738446
     0.6732840904200826    0.5678788217711737    0.4372703953078792
     0.4437985905083354    0.5898731670655992    0.1147358531733145
     0.9368800717186074    0.8002431262944513    0.0003437627012687
     0.6880516207197943    0.7836689570707798    0.7967394965602623
     0.6155906815930902    0.8264496868035139    0.3525591615858706
     0.6445530544136909    0.6577922570671600    0.7398379368428676
     0.6990111794861744   -0.0972190622693204    1.0046167114184525
     0.7098332435027496    0.1531570829463973    0.1349555461001725
     0.7008660310344027    0.3389353420490598    0.1447915433264831
     0.5376135501485690    0.2514052030117647    0.7842276976978043
     0.0713560352797191    0.2994787515272798    0.8781202730748831
     0.2264525070878617    0.2901474820837244    0.2528093672174649
     0.1814621763161840    0.3595906555243865    0.4674862460044785
     0.2933846017510203    0.2597325033720986    0.8136859542976227
     0.4307320483264438    0.4383495982748553   -0.0156932659991867
     0.2597700267020221    0.5901832972813676    0.2125672753112495
     0.1697086714644890    0.7261597459268520    0.6618719807023583
     0.1982872818554075    0.4943628554874981    0.6183531094961093
     0.1875462943589586    0.7190174124271825    0.9693991400499270
     0.2910514677775725    0.6961949720722521    0.3034455670607007
     0.1874784558482158    0.0169649408118201    0.4726514335787888
     0.1886547995118965    0.8077927808676830    0.7329904876436287
     0.2587900870981003    0.1166381808342399    0.9200719100856447
     0.3231044746138556    0.1586482419912789    0.3951924362749835
     0.2066906879300310    0.1373175137248147    0.6541871592046182
     0.5418555458020717    0.1652201192581424    0.7599469816543231
     0.7390577990297358    0.2240508443423691   -0.0365518289043716
     0.8445864777442272    0.2905463579133702    0.2074969538743144
     0.7339517021161782    0.2765431813414470    0.5826898064998379
     0.6522319342509694    0.1851800306704554    0.7685304690013235
     0.7805544641221858    0.5022959914476531    0.0324187620449614
     0.7435292261938830    0.5217528370619984    0.2155162199717648
     0.7729457084099137    0.4226165618360083    0.4960226080013179
     0.7794762746223078    0.6610609886022287    0.8380694731310034
     0.6201918260922504    0.8952587231665737   -0.0269769866908371
     0.5907121557977869    0.0344861862016613    0.2718471382353519
     0.7627231506354808    0.7592393449016275    0.5198437777976276
     0.8653004879302068    0.6784419163194908    0.7539517617135584
     0.8146029696842324    0.9637300280049330    0.0163345498477480
     0.7845825445825665    0.2578257151708921    0.2821513481412251
     0.7466490870259611    0.2857797359197531    0.4837497794468122
     0.6321990681282506    1.0038744915373894    0.8273501693736770
     0.1344668693083365    0.3178129060570104    0.8407423087365679
     0.2137774856369554    0.3356218677881653    0.1892576062320879
     0.2339255646432723    0.4426274437192218    0.4723982718125143
     0.3483415510636581    0.2893029745712177    0.7739004762411140
     0.4081697443875656    0.5339966744666536   -0.0218780333930989
     0.1748297335400529    0.5789978498118741    0.2115135288707960
     0.1518364794964765    0.7190614157700055    0.5727608405801664
     0.2070154848550281    0.5913517080850591    0.6175664015093223
     0.9325213206372879    0.8246487042003162    0.6696872926094003
     0.2608162886423834    0.7336150936978896    0.2308222358078593
     0.2647811879531718    0.9494917537561943    0.4732281317442372
     0.1211988768805501    0.8286907132607546    0.6788030666085501
     0.3044295534476942    0.0219955232210075    0.9089841557336484
     0.3421408991557038    0.0761162138261793    0.4305433443661736
     0.2473124864637072    0.1984320227412197    0.6337600735804723
     0.5148425202681691    0.1221030819193026    0.6789354083008918
     0.7918087527303967    0.2335806384043987    0.0409072376494222
     0.7878258573235570    0.3014919035199706    0.2035302365084772
     0.7512224948756098    0.2958072958991507    0.5269521580350766
     0.7013380797977239    0.1868253170430011    0.6919529168385009
     0.8376952514355779    0.5437119612211887    0.0032276994473686
     0.8136280453159848    0.5697515763605516    0.2191499636535025
     0.6900407129813781    0.4384947936669124    0.4986025569525090
     0.7590461963889968    0.6415666879040437    0.7715336838756285
     0.6147773742852319    0.7932447336078631   -0.0311958899430577
     0.5940888982400460    0.9384939375300659    0.2788265657197272
     0.6962118349387892    0.7817364454283704    0.4564304277507926
     0.9238477257309031    0.7476538184509560    0.7306769098003738
     0.9040153493311570    0.9529971573750102    0.0250545716513122
     0.7335531106905311    0.2136620677833461    0.2017866620079959
     0.5735329246907708    0.1310786824132393    0.3232283442307877
     0.5673689053603082    1.0277353299801093    0.7674993592997004
     0.1722821394758248    0.3123693349725923    0.8685094610441989
     0.2494858734681294    0.3739885830901920    0.2297172916609514
     0.2617190324303039    0.4060821630155668    0.5092550417009604
     0.3094059487414090    0.3483279241098888    0.7944134541735699
     0.3649042730110846    0.5292062761699708    0.0207560692051830
     0.1796196924967523    0.6374245646077814    0.2437050576117464
     0.1989974481623365    0.6779946430100662    0.5602396655529560
     0.1691654408838033    0.6103834368280538    0.6643017231293755
     0.2716565881106996    0.6917113185649746    0.9776994730997098
     0.2888215664046314    0.7908413056042976    0.2631431380659222
     0.2292345836248582    0.9144675975132147    0.4785767120332413
     0.1293572950766159    0.8887580555148804    0.7158782339593845
     0.2574002333627953    0.0261445570639471    0.9423480573502480
     0.3070665299196879    0.0504786970736736    0.3810602778389272
     0.1955459786417911    0.2163341847323668    0.6087276021645126
     0.4855927074354522    0.0703257649927291    0.6822191397006739
     0.7460374336827521    0.2814363923879273    0.0669096881420561
     0.7911501409984748    0.3726627537421076    0.1881090840669507
     0.7849288398545574    0.3535466420271650    0.5696881469396676
     0.7174411311566432    0.2331366235375748    0.7344719095712025
     0.8180891072699936    0.5925535032827056    0.0623592746268151
     0.7791714721937500    0.6292713649626533    0.2158007336438721
     0.6990010147731071    0.5089186347823134    0.5013573131158946
     0.6982517990540202    0.6780272705558711    0.8044611978013829
     0.6268619168542719    0.8116798969950539    0.0239937025605349
     0.6519461565223045    0.9605924017247741    0.2983523874019963
     0.6524151464226966    0.8002215540245127    0.5000862821456494
     0.8850047949107380    0.7866811109877050    0.7534862487274893
     0.8928474784183550    0.0130166599024463    0.0386335297939325
     0.7184471662081002    0.1897741068000788    0.2467808905890756
     0.6709887120838681    0.2331950491822871    0.4481594414703824
     0.5960707102000257    0.0602872367131514    0.7434503979326936
     0.1040037912635148    0.2622493764062874    0.8972367580659003
     0.2782633047112072    0.3413008880414828    0.2689706679662100
     0.2408322519214544    0.3406141312892875    0.5015651871276147
     0.2797361464507999    0.3467968573142791    0.8459669050518656
     0.3958738859235986    0.4761754886757334    0.0466070060038200
     0.2269408658861786    0.6635220897454817    0.2393635043688480
     0.1971643389615954    0.6457981377416500    0.6216920594038070
     0.1942322235420497    0.5348362941308304    0.6886446760027914
     0.2251788168242872    0.7457128925270129    1.0336958345152345
     0.3332081795988462    0.7506392022844055    0.3046556432803433
     0.1699508711533133    0.9411908312378671    0.4543020677966536
     0.2002337098275131    0.8833434305579323    0.7347852163772720
     0.2177204043398359    0.0609837101849880    0.9328879793573126
     0.3096449251128270    0.0850713174360770    0.3401527925946331
     0.1510353379474336    0.1981714805882124    0.6516697491856114
     0.4947773815187776    0.1551447101823117    0.7817882659991527
     0.6977079970384625    0.2645432388676952    0.0223018957198750
     0.8551444896628878    0.3650080055940935    0.2034356776244959
     0.7705873271166400    0.3283287717132710    0.6301942183999880
     0.7028546680874240    0.2269578028562949    0.7929211802233128
     0.7931933579083041    0.5612289835810277    0.0967665719472613
     0.7845199006110970    0.5795357150023270    0.2608415929499579
     0.7572498058039557    0.5017406984718936    0.4848208541946528
     0.7200039016173587    0.7015601944463511    0.8682169477611973
     0.6102405423987828    0.8789672708787161    0.0369924463809591
     0.6552728584343445    0.0257018666363502    0.3066448163252441
     0.7393872837829248    0.8217569397524099    0.5448032454243168
     0.8382473807042159    0.7446055866697104    0.7728488794281694
     0.8531798639069265    0.0203553092771169    0.0695559475024830
     0.7238388193626891    0.2414115439634377    0.3016671462188014
     0.6801524289025092    0.2975524202005149    0.4975780214865111
     0.6380448361311778    0.0020361328989856    0.7573513107496616
     0.0926288874111228    0.3603314062481661    0.8992089494218403
     0.2328683853695592    0.2763076765140318    0.1947273546064225
     0.2168893057350788    0.3877805276614882    0.4320295082101809
     0.3442505482438276    0.2666946673219470    0.8255394194897998
     0.4510180130552188    0.4943579200235496   -0.0092143797587236
     0.2178073614960160    0.5709629738883660    0.1719924250340343
     0.1306454843793848    0.7118590679907029    0.6196112585599794
     0.2344799079467542    0.5336471464908589    0.6153585225264433
     0.1921280109863617    0.6593354694962953    0.9706549519158439
     0.2855829279154071    0.6810539035153874    0.2407137311485658
     0.2349605262342674    0.9966430877188796    0.4413479125451051
     0.1714878778149723    0.7877356706730267    0.6734955951071735
     0.2754890267513708    0.0664446723742208    0.8754644353461042
     0.3663504864998862    0.1180162966690833    0.4086978157970595
     0.2409296892915143    0.1817166637577771    0.6837804539900815
     0.5602516088064001    0.1026329930055888    0.7264664505216666
     0.7676322762847843    0.1901844676235840   -0.0092334728868226
     0.8135336459898768    0.2823541029051801    0.1431345735961727
     0.7832574478332185    0.2441953358567616    0.5510142721256112
     0.6839753179042523    0.1463397042870009    0.7187288911335242
     0.8346353124411983    0.4888974493001601    0.0167733425201326
     0.7679383575096967    0.5292242537535295    0.1720086494013088
     0.7342080965010993    0.3996836056958869    0.4635158658235679
     0.7712909052810395    0.7076130916412391    0.8042265393941932
     0.6515359917499872    0.8451428839145931   -0.0431041174326069
     0.5721897959838581    0.0003610150639195    0.3046477570114204
     0.7173405408279389    0.7263601259793492    0.4931697331290148
     0.9216765786142067    0.6871545476077197    0.7354666422661499
     0.8485463869240490    0.9411971409605001   -0.0217464370481626
     0.7515093291699363    0.2772381276492521    0.2391860911371664
     0.7275263307576807    0.2849594940298307    0.4233742557903949
     0.5925151589201586    1.0675060190418439    0.8392535402846348
     0.1006143110297991    0.2839239548834721    0.8493528972874119
     0.2640459050168416    0.2735143180587859    0.2471652849598269
     0.2168030536330004    0.3325044691409810    0.4526556819790328
     0.2990556765434932    0.2862678259811956    0.8558371211918097
     0.4501998867599343    0.4557618162724313    0.0260679673610417
     0.9445816020932339    0.5526409113508183    1.0124256268183185
     0.1592669452997238    0.6811110889701745    0.6605857028380829
     0.2258098725739742    0.4939864488503318    0.6500972545674203
     0.1762888697697780    0.7179269749332849    1.0116354038485860
     0.3278270699427508    0.6886210580401068    0.2913310774118528
     0.1833202888353001    0.9847862167884999    0.4323142908293473
     0.2153481014240162    0.8079830419509983    0.7067694532015706
     0.2246872675555255    0.0950427272062375    0.8952275489100363
     0.3414477214021031    0.1324996541075405    0.3599317120769900
     0.1852756770656117    0.1598573316496035    0.6886752924754398
     0.5116014575276537    0.1778363215385961    0.7397007880005284
     0.7092918172366397    0.2072572315952442   -0.0187324059689502
     0.8612819731281431    0.3002056985666212    0.1722279852246685
     0.7615160885320706    0.2663309187643248    0.6090092192785944
     0.6848348752584336    0.1697356242768090    0.7836144028613548
     0.7984148757326536    0.4926671431052979    0.0663570566915940
     0.7722147336888662    0.5177339462558764    0.2448242515907774
     0.7730283449515444    0.4354119522829250    0.4581761753299942
     0.7735136421094040    0.7106944462246017    0.8589858156732565
     0.5903623897029237    0.8746146391343885   -0.0174362141218880
     0.6051898836922400    0.0511647708392928    0.3157344536752415
     0.7551162020209365    0.7890242300051239    0.4957076843099446
     0.1560525840648447    0.6403757955315140    0.9338115000480770
     0.8343969492599455    0.9506001169063701    0.0491318559418393
     0.7535065115792732    0.2943098695750784    0.2969511303500854
     0.7279197547610352    0.3277490907725161    0.4831232893065249
     0.6028897928678396    0.9865272129320753    0.7916897962395123
     0.1760056555332886    0.1891679980578526    0.8502430477468715
     0.2135881582553788    0.3665375451323850    0.2890303651418561
     0.1997179641303360    0.4090590886317959    0.5355538236392244
     0.2658558564834272    0.2923480016061202    0.7723820526974653
     0.3772575631468346    0.4505801927719227   -0.0229514096285903
     0.2391117360039028    0.6027762565380734    0.2734787875461992
     0.2168711634539236    0.7208123925637306    0.6308608374721888
     0.1369401097028944    0.5466692346404504    0.6485083331167812
     0.2252381377120284    0.7428294805914439    0.9592526082889612
     0.2677763198188906    0.7706506631757232    0.3227531166853084
     0.1908814669985373    0.9813457685239622    0.5229276033382020
     0.1561555498218189    0.8668262053705997    0.7763919224408989
     0.2682637068009866    0.1061115073862911    0.9823153429411839
     0.2735867385180001    0.1294848955855925    0.3983347488433935
     0.1925706892403876    0.1360289881930145    0.6041626298103030
     0.4850317561829890    0.0850420984808052    0.7504279269360419
     0.7462627819317538    0.2988554136611203   -0.0012035880797993
     0.8139896488781181    0.3441582885435652    0.2464210840419290
     0.7238435944583108    0.3448735488002723    0.5811316597385460
     0.6509109867899662    0.2567887500026713    0.7587044394780269
     0.7586905354005070    0.5683463003037686    0.0327875068744887
     0.7054959193418662    0.5772042289644390    0.1876209862011554
     0.7458279151732680    0.4799890793317377    0.5490726226966998
     0.7417159886327367    0.6226754494352960    0.8265422559064030
     0.6722548069494071    0.8576397645574310    0.0067836608039221
     0.6314522558198782   -0.0201835398220150    0.2348461511504438
     0.6788671373441489    0.8363441743073339    0.5457792945413955
     0.8485275647618234    0.7336682618639997    0.6962706810046281
     0.8345795997748136    0.0092236488061837   -0.0036836977514849
     0.7824626342310723    0.1958941193023694    0.2645796696969634
     0.7289031932120618    0.2348171144270973    0.4931170594741189
     0.6288761684391128    1.0741064572597525    0.8125744055304790
     0.2078409094280236    0.2177525399827160    0.1502318798248131
     0.1162224087434667    0.1405355296508058    0.4131308974188629
     0.2315983031264441    0.1968862048395256    0.5362532696310560
     0.3544701822347500    0.0974496895705632    0.7230848534957506
     0.2286496113837075    0.2365117918875011    0.0769378579440325
     0.3374944065993642    0.4290600037262331    0.4224003224719770
     0.3548913572558903    0.3170080367717256    0.6412520287977835
     0.1597810839511313    0.4504865037709045    0.8046404279135928
     0.2696750653398128    0.4422675941499021    0.0998086096592587
     0.2978281836333943    0.5811112733141970    0.3740247894188187
     0.2517141077198088    0.7508916384775106    0.7085595851841214
     0.2002591495770278    0.6380029958077091    0.8639606350407079
     0.2475425731699648    0.8646832504781412    0.0962734302935789
     0.3605622527085658    0.8972495003149225    0.4229898755357505
     0.1961285254925035    0.9773610432768249    0.6923629070160151
     0.1847778133729281    0.8978222531396861    0.8939951653558964
     0.8812912586099303    0.0943610019699831    0.9463181917577780
     0.7724743986423896    0.2488325788636662    0.3986733665780551
     0.6822445604938373    0.0684903908875720    0.4508237709605259
     0.7988273458170300    0.0977176095171168    0.8064918833316785
     0.7435008597839822    0.3977526169548284    0.1505204704370837
     0.8016195204898725    0.4567975026913571    0.3781896822837452
     0.8104271136005943    0.3803970384504859    0.7361013975146268
     0.6779210970734107    0.2263587797649543    0.8699228993825509
     0.7245965197171436    0.7086727036780112    0.2117306600827692
     0.6412074545591234    0.6761861372867016    0.3497867259144768
     0.8780750319503429    0.6329370314951214    0.5471060867302512
     0.7422252458763399    0.4987524804584178    0.8381470640660219
     0.7556967198915236    0.9364218958802819    0.1433585632412055
     0.8175477820806463    0.0567107985658500    0.2894355400364624
     0.6667678389025568    0.8722644480648652    0.6317433820876860
     0.7581949938533264    0.9406312827563388    0.7880556142424080
     0.1638712931984802    0.3471046647192533    0.9074520779494839
     0.2134239696011028    0.3925134734405467    0.2374915562297960
     0.2428270317479641    0.4465441967143464    0.5360457485137179
     0.3039357153298307    0.3237692527709210    0.7495276544958019
     0.3551174305680431    0.5137347901467362    0.9779990321295531
     0.1855631803513684    0.6059054237950985    0.2726793933117536
     0.2112469757425343    0.7172326429141402    0.5790962786609559
     0.1506872258094074    0.5912531334597747    0.6248030079847817
     0.2660645952392509    0.7038819721001135    0.9382417883324592
     0.2539283566458144    0.7964986278192910    0.2786963361429589
     0.2363996255629565    0.9402376657128454    0.5201580622319695
     0.1145624460835193    0.8760346578807078    0.7467989833221784
     0.2877418541507810    0.0361419434038104    0.9686825320208421
     0.2840460183130085    0.0735170164883621    0.4172981742049739
     0.2150465185523224    0.1748968518460619    0.5842160197407648
     0.5173716202844892    0.0536829024472004    0.7047409156546880
     0.7745465364236525    0.2998125367011666    0.0510257526738169
     0.7661803676042830    0.3716017112717219    0.2120541483844883
     0.7493897455508166    0.3541649076207903    0.5465282574588336
     0.6844581247696028    0.2531651725542701    0.7156074414140506
     0.8014109440695579    0.6054335713063997    0.0300264811747470
     0.7613440049767705    0.5984227064157438    0.1848811887058451
     0.6928178692229212    0.4981276045741454    0.5349276766698037
     0.7047189609267920    0.6289217304487684    0.7841943889117144
     0.6615774392738898    0.7973883649998518    0.0201682858592564
     0.6506380266105376    0.9264508854781920    0.2602492582847609
     0.6706282944946592    0.7707433445105295    0.5207930944101832
     0.8808794917467923    0.7797008213853183    0.7077040382725640
     0.8890867578252319    0.0103402532444268   -0.0080727736732541
     0.7532704209426558    0.1644299542431485    0.2286687216384193
     0.6985887729105766    0.1944265041149460    0.4459311629597051
     0.5914510829459380    0.0956452919604286    0.7789580586503971
     0.2588700648216390    0.0042953513266002    0.9891759639888315
     0.2816052839651215    0.9729397494333415    0.2851054955993680
     0.1741692642379987    0.0901159808209763    0.5309462810277178
     0.4577270844381185    0.1699779502294878    0.6762222938549078
     0.1475923079433805    0.2235493138892327    0.8682470119411201
     0.1724554240499575    0.4554306573167384    0.3607598118490456
     0.1871632246078138    0.4022380721140168    0.6438924192308826
     0.2231619344047922    0.2551853017065728    0.7476105162954805
     0.3547273955195820    0.3557711331428792    0.0163243042833153
     0.2411470091773672    0.7135388405810240    0.3492983957576500
     0.2467655754585266    0.6001136641577984    0.6506055595710167
     0.0715906866020555    0.5894515501220031    0.6855978519510545
     0.2012611664595138    0.8165561875694018    0.9211376844423769
     0.2423511338029338    0.8494327004815833    0.3697264068394860
     0.1413500831399641    0.8155812326817670    0.4919387620444808
     0.0927236384019322    1.0104275755638168    0.8206470916087794
     0.7734098670286610    0.1343316738274584   -0.0054865761313720
     0.6865467732054541    0.1965009835409854    0.3450762628114234
     0.6298851891678140    0.2573697040198570    0.5684080738391909
     0.6504477029496766    0.0052201456415772    0.7128755788911468
     0.6777573177928641    0.3723024702951906    0.1228429655618943
     0.8200091618263690    0.3576192975881043    0.2880970952373998
     0.7053293428841355    0.4599441613104762    0.6105386829715488
     0.6617829763702581    0.3606075691442014    0.8728001761221934
     0.7334608419073704    0.6377839902222423    1.0205548487715324
     0.6924970849933816    0.5636660764432335    0.2227229491284817
     0.7059371558832216    0.6185428001957960    0.5879182626326540
     0.7212035257096766    0.5651329727272685    0.7787562260605606
     0.7039383566524567    0.6618070570027995    0.0323950804874475
     0.7247595395590813    0.9525046907219725    0.1760458851660751
     0.6204447686603338    0.8866260379045175    0.4467312994644642
     0.7707860592368446    0.7898198195295665    0.6493661745354798
     0.1627847168794669    0.1805220907118708    0.1540718621927021
     0.1191440388032853    0.0730964777729333    0.4079078333870981
     0.1823553422823436    0.2250950933526484    0.5472717272767218
     0.3573001215979612    0.1574554917465938    0.7287175473748875
     0.2177501792784609    0.2995678875680690    0.0732591471132551
     0.3019673411952802    0.4669853993595557    0.3885724741986363
     0.3300194911268602    0.2739233095398868    0.5953705853128084
     0.1680015712555216    0.4970892471560085    0.8589553153204479
     0.2500203160989060    0.4763443979134042    0.0628984893988132
     0.3340104188403050    0.6295507323602628    0.3745757413213031
     0.3045080552620695    0.7480899851160178    0.7214674226734920
     0.2066676913996116    0.5799558360739924    0.8293475628274747
     0.2874852028861160    0.8692053930257252    0.0629699964134626
     0.3224761986627417    0.9070775045733186    0.3868923834780635
     0.1663224445946765    0.9252019613844813    0.6666369883307636
     0.1780205421384643    0.9518911155162141    0.8634500339836497
     0.9314460701453998    0.0714845061157030    0.9781980565783979
     0.7992996914695772    0.2431234308291629    0.3525555324340847
     0.6579519200469155    0.1196461128636526    0.4917767837427142
     0.7830502301298818    0.0413481448458480    0.7627492771313479
     0.7005489177329346    0.4120888045465927    0.1149607451104827
     0.8206212134367371    0.4986770345406716    0.3511916468154487
     0.7636192848204625    0.3828081673435877    0.6591741685130370
     0.6776663619170785    0.2897380367156175    0.8614188744059040
     0.7250844450475740    0.7335371229237461    0.1646425037654692
     0.6719887515579086    0.7185676394544268    0.3391586647626315
     0.8779345648280292    0.6037406025833622    0.5917010865239026
     0.6905841723159257    0.5291125298105078    0.8624109947106339
     0.7429740875622614    0.9092827546347164    0.0816663213438980
     0.7691756323392448    1.0693505890008723    0.2571356629354711
     0.6822877690333039    0.9385776353030295    0.6801352506306892
     0.7502221891558568    0.9159365018114123    0.8320849049399337
     0.2152251330668797    0.1665800796319883    0.0812072468872485
     0.1772814274813629    0.1124184713571758    0.4173734325478530
     0.1403640946619985    0.1384445917821347    0.4905716923890263
     0.4026638944983169    0.1709637517260542    0.8127503610063991
     0.2234529618855252    0.3114803720742172    1.0065302162417502
     0.3373861105766766    0.4162412574629439    0.3010233099279511
     0.3111405998624631    0.3713865014968448    0.6436572571387394
     0.2385538274346315    0.4524704559824216    0.8309885403110653
     0.3069333939077072    0.5479867916181971    0.0880747007870085
     0.2505386971045931    0.6605875374871909    0.3907737660002444
     0.2861348710406466    0.7654835333131056    0.6529960599939597
     0.2094099477865014    0.6528793051260464    0.7639460258565420
     0.2461633465322434    0.7655053268478843    0.1357386641239705
     0.3653345433006246    0.8558021825539855    0.3148501499729891
     0.1919132773475321    1.0028121090222148    0.6409092646478107
     0.2430646594665568    0.9391163175773409    0.8297316890674608
     0.9311438362957478    0.1032028317482098    0.0541843474504564
     0.8491877176577469    0.1512579171047333    0.3371060533997768
     0.7307786807274286    0.1473581061240708    0.5468053503493443
     0.7199879920560702    0.1273400321260947    0.8144357976085486
     0.7608729497064110    0.4385856855834916    0.0655557904486235
     0.8879542106614076    0.4401525627987674    0.3163249544473367
     0.8133707320517134    0.4069247800831922    0.6741078197855882
     0.7572449249352101    0.2722448103661002    0.8386823865163268
     0.8086349478714497    0.6844484368873823    0.1430918120962049
     0.7532609188345457    0.6807717999838054    0.3563675628831256
     0.8122896284474560    0.5777791366427237    0.5123003748361036
     0.7137822495310672    0.6050159570025266    0.9385862397542131
     0.7607268596896819    0.8167807036708908    0.0702650012004254
     0.7550890828350558    0.9991400618141466    0.3129673984167132
     0.7288762166333597    0.8968526235646375    0.6024707811233826
     0.8159623279106106    0.8629111010982135    0.8176739126936947
     0.1435168587059504    0.0466025301478342    0.0738745114369178
     0.2346115671201990    0.2018622734548604    0.4048322081406869
     0.0407501213095569    0.2246682619140974    0.4736436642466139
     0.4749382961211686    0.2562859165834560    0.7841974770207798
     0.1037773077969687    0.2357251360163405    0.9830498779923486
     0.3103297376477386    0.5121863960153351    0.2482814024873169
     0.3228998002622990    0.4852373310648477    0.6118962923023504
     0.2578364217102382    0.4376076744015697    0.7173760779195727
     0.3281952108731949    0.5765698147198445    0.9903839643914641
     0.2165976544484048    0.5076529203042409    0.3272401551909112
     0.3381041904528795    0.8004867295475083    0.6095499417909641
     0.0961829419198473    0.7251526101879427    0.7666320461775671
     0.3837026713100513    0.7377610131326023   -0.0385190994307194
     0.2583716518580552    0.9091890527692656    0.2572201736172632
     0.2654609175623727    0.0032300962176167    0.5558705090299014
     0.2146456093495635    0.9969414797336800    0.7392037290637098
     0.9088845523247943    0.0650137499615471    0.1539108785820263
     0.8757485592006711    0.1174587237820904    0.2206912585192341
     0.6641384941963778    0.2706288420695402    0.6177837819011898
     0.6520552559855596    0.1364695047753879    0.9064099463179172
     0.6797190310615204    0.4501121921770407   -0.0221883795338986
     0.8788654604887640    0.4415504029179655    0.2019596794669059
     0.7984597715806560    0.4301871317206976    0.5591728784474553
     0.7966633633964513    0.3791813910662933    0.8190568811920417
     0.8257238618850610    0.6465616093138694    0.0257879685872894
     0.7933013438708821    0.7498247310186407    0.2763383128984442
     0.6997781007878264    0.6318287018275229    0.5171230326184282
     0.6081103999194569    0.6694133710552064    0.9324882637357130
     0.7149250241789936    0.7469548772000661    0.9596262444608996
     0.7354797592707644    0.8649776946000095    0.2629380428602607
     0.6415797806552794    0.9670190796277474    0.5067357698189060
     0.8322414605270655    0.9394803590676497    0.7390308994100215
     0.2327071969572380    0.0514482363650461    0.9948171104767484
     0.2486757685360000    0.0910772649106551    0.3382964976541312
     0.1689396859651048    0.1463377306997549    0.5548443556826090
     0.4697285147712917    0.1480262938970817    0.7226250137751794
     0.1589222801596814    0.2510964088251676    0.9187452475672720
     0.2360371903941687    0.4262799844695144    0.2922676354510931
     0.2352306405786320    0.4299022020949623    0.5813170933553768
     0.2686082360514793    0.3618610928197245    0.7672631704322981
     0.3251715124418019    0.4792199506394442    0.9919018619594696
     0.2482064616057800    0.6627475925595405    0.3054290700537531
     0.2612630771940895    0.6703370741269642    0.6337301816383074
     0.1322018880805741    0.6055611894556794    0.6956212021381062
     0.2728270339609696    0.7665977483634903    0.9645128086410083
     0.2763848902072976    0.8322739454613196    0.3295963696951055
     0.1567412586622448    0.9454892564474656    0.5212486636070390
     0.1654248759859526    0.9349660299341617    0.7579994662285344
     0.8581356521246992    0.0698609570323051    0.0058763168868782
     0.7670361850945123    0.1897400320469393    0.3243537676672730
     0.6892954068198786    0.2493993474633119    0.5390697010663243
     0.6722008386086826    0.0427228984648480    0.7586292069097471
     0.7003724236483577    0.3403611247424632    0.0147611381114367
     0.8083822534853081    0.4205513247397368    0.2367667235350259
     0.7499961370606391    0.4017889702487356    0.5934387828170742
     0.6809443940019816    0.3015111802419125    0.7594661677053786
     0.7561721152957828    0.6363566691605752    0.0583110340212504
     0.7327624814330572    0.6561527205565594    0.2433823477077386
     0.7389885365554486    0.5582774054405544    0.5342709596853471
     0.6840939515041569    0.6597946675373472    0.8584349666808246
     0.6723608473363483    0.8917210137905103    0.0644052755839951
     0.6806382157454566    0.9464720362655246    0.2299224729684824
     0.7155020898850560    0.8350155409092141    0.4870134883898863
     0.8330584734722479    0.8015066872998721    0.7101327790325660
     0.1990825530299034    0.0582346984223201    0.0811940756977710
     0.2048664338312720    0.1628345000582321    0.4234487160451821
     0.0879044367270512    0.1768657836080418    0.4747149374288636
     0.4625292132541559    0.2009721311019927    0.7996268950115184
     0.1281789027859842    0.2880189341461786    0.9957550035249866
     0.3041302488117790    0.5056732123543727    0.3037566300062726
     0.3336798004260856    0.4127747601533697    0.5849959434230968
     0.2752513389525895    0.4242795100211649    0.7758033114154523
     0.3405651016352900    0.5532219148909637    0.0444491670313503
     0.2336982617447996    0.5441470961999945    0.2964318233160768
     0.3009563630452478    0.7966342877298539    0.6421036188858007
     0.1035210706900864    0.6619745011419456    0.7644885841130734
     0.3369013384150039    0.7686419907951509   -0.0445957551772634
     0.2610429233830853    0.8625342920998614    0.2887632410089399
     0.2476466349961601   -0.0428074089257435    0.5849853863272018
     0.2245392306673159    0.9451837092023117    0.7567171859269981
     0.8856144406429293    0.1136564511833526    0.1242804684593720
     0.8505681916452622    0.1092347926445537    0.2726002013014487
     0.7096556482686270    0.2356830480924799    0.5827091509929835
     0.6687982398353721    0.1541554123012519    0.8577602666445659
     0.6790943818869709    0.3981528899263237    0.0027275712019656
     0.8885978291514179    0.4160464257131894    0.2456650481047555
     0.8181092337942996    0.3987424040703911    0.6022737593353793
     0.7818960486847731    0.3148124695068930    0.8034990311782301
     0.8270274416057267    0.6423776521482710    0.0837933164498268
     0.7839119782960579    0.6862854411401641    0.2820369839993571
     0.7400826824481733    0.5893779308911040    0.4908623510147891
     0.6255080902193842    0.6407591932929436    0.8741996825367611
     0.7325561995642245    0.7647354178509908    0.0184584872118461
     0.7274137829972729    0.9249614424645121    0.3029064378206431
     0.6889248201408176    0.9524606373469298    0.5261684283984177
     0.8107052851203642    0.8858750177377536    0.7108498907610314
     0.1157034327209045    0.0779741388043109    0.0388603628971264
     0.2198147670508083    0.1978172207129122    0.3280880843393287
     0.0465577512564280    0.1507788966714337    0.5267974328559606
     0.4297058578815502    0.2795220863384475    0.7451473892838384
     0.1359700269480194    0.1874144490520775    0.9642768557129178
     0.2944737008370477    0.4452677677640276    0.2000873798209045
     0.2786487281110330    0.5019234712753939    0.6597083952618897
     0.2148245317611708    0.4421722491379776    0.7047963614447368
     0.2706696401700190    0.5677153248450486    0.9707747783209030
     0.2007245791646687    0.5409193695631825    0.3895359015504006
     0.3375204069968394    0.7381046667251736    0.5454075766453880
     0.1508215031109523    0.7421012771580306    0.7582748445662536
     0.3876742879644186    0.7114029098258606    0.0213314010825591
     0.3082963177823756    0.9287410003303668    0.2520306967245184
     0.2364030703306766    0.0631568698871092    0.5692430085109725
     0.1936247138367155    0.0569504649803744    0.7861892734044607
     0.9459019562422264    0.0174170451097009    0.1174728625527486
     0.8770902883525646    0.1842252570981928    0.2265714429154985
     0.6162199175112049    0.2310241786526480    0.6114041586218851
     0.6694425263625599    0.0787343337892549    0.9027475000265387
     0.7279161932342265    0.4721340365935954   -0.0173608107991106
     0.8527574285184130    0.5096120360833899    0.2107004758594442
     0.7807191996239334    0.5148877894982627    0.6016338484949664
     0.7572084529177812    0.4289333549558461    0.8564219996546673
     0.7891800320065909    0.7112344353649279    0.0219698723070993
     0.7357477353928050    0.7930680697542416    0.2922191480092515
     0.7180210830342657    0.6769583671178073    0.5723470732258319
     0.6542759598391693    0.6877886323247411    0.9842284394539133
     0.7176830356556122    0.8153163162799855    0.9424473797374052
     0.7789839194835178    0.8594000832352613    0.2154827460330888
     0.6033277480372475    0.9351028452564771    0.5256909507199478
     0.8742495600274350    0.9332214785745215    0.8002311407156755
     0.1771965467841070    0.1688372860238530    0.0642073247971588
     0.1642246355227998    0.1320043293952030    0.3832428276098484
     0.1358908607805095    0.1777517303327146    0.4861443772348287
     0.3751630507352879    0.2030215467731663    0.7982908706966476
     0.1880477875062291    0.3063212203613024    0.0226813095687924
     0.3375398340504241    0.4656650815740438    0.3225918473252555
     0.2781098343370232    0.3592499757703383    0.6351690011841941
     0.2036568375105162    0.4781489805804243    0.8230729574550419
     0.2664750760147356    0.5494621249867546    0.0760629496549055
     0.2716127702601889    0.6231205139557169    0.3905323957325144
     0.2555553159306630    0.7383902631649549    0.6560055398361345
     0.1909884777407280    0.6630291492225276    0.8022531191922790
     0.3469817843104546    0.7933923258244672    0.0613577942757080
     0.3557990467825695    0.8986824380181164    0.3176120697266970
     0.1516595308496786    0.9973170682088824    0.6240256948442956
     0.2310173775095977    0.9842047296874162    0.8556230642910737
     0.9308000188173912    0.0582078724986574    0.0202153796473234
     0.8567759195947442    0.1954557124475674    0.3381149767244941
     0.7007256376904999    0.1339686394428394    0.5596890422314876
     0.7389255635459752    0.1001271932115121    0.8342918871448780
     0.7308739359706837    0.4627005712497551    0.0825814450471864
     0.8773313461227857    0.4883597964620394    0.3228885878891218
     0.8209292763907021    0.4533270098929405    0.6793047421339907
     0.7486523154959145    0.3082572925974070    0.8823575696255376
     0.7867310128947037    0.7239248788186929    0.1442190735327484
     0.7303637165498706    0.7232510155571867    0.3630009098923854
     0.8149013614415525    0.6220879309000428    0.5332221093403570
     0.6834377616686661    0.5760437517947602    0.9303332644766394
     0.7801788442337390    0.8335030603355154    0.0444980281633582
     0.7821181582679820    0.9856336611434391    0.2843170763250289
     0.7261341751017572    0.9367381766263513    0.5982516317457660
     0.8006020799335916    0.8987806307229799    0.8043684712247160
     0.1234571584235185    0.0092483945325266    1.0213869350221403
     0.2129739394368744    0.2424449400273553    0.3722213258989448
     0.0404461751319761    0.1707306118381006    0.4804095229707876
     0.4412003807612762    0.3180278889351291    0.7984642095166082
     0.1099553141498758    0.1849350803781343    0.0085500584351097
     0.2586232707253815    0.5057699160133676    0.2110081411268964
     0.3327203177652315    0.5153712412621215    0.6707333946430006
     0.2392112631113663    0.5009773600028170    0.7168785897514741
     0.2864254706868357    0.6288381152133603    0.9910684860296924
     0.1683425997769008    0.5126482918155972    0.3482103446350688
     0.3286211671963389    0.8103891601842134    0.5523549449733415
     0.0983553459382083    0.7503816474794762    0.7208130733915417
     0.3974071152867019    0.6750356246434531    0.9614260256909136
     0.2796561844908808    0.9042568578500462    0.2044363362453780
     0.2836273474414844    0.0576356261058055    0.5931577037912985
     0.2502761657280123    0.0498063886900919    0.7628272387810729
     0.9624470449717968    0.0648704478416119    0.1696999876905067
     0.9216862737612744    0.1439102349972805    0.2243552080064185
     0.6449915670894011    0.2524961976984617    0.6625614491366936
     0.6967944090603947    0.1345902711709265    0.9528601088947799
     0.7123236996396750    0.4447807229688039   -0.0718756749623373
     0.9022013862654130    0.5025705563825676    0.2046085681395094
     0.8239430655673333    0.4910459693882719    0.5657203861095217
     0.8112212361802398    0.4147386908342085    0.8776908420509342
     0.8366713226004233    0.6954530764870115    0.0118746625922447
     0.7848989214161740    0.7997457063992780    0.3252329805737557
     0.7064545908981831    0.6985302664423861    0.5238226930253740
     0.6168952798733601    0.7370619927355374    0.9626471860347724
     0.7525635093530330    0.7533966449218814    0.9162065914778142
     0.7846911867546565    0.8308052516217900    0.2553652380943409
     0.5958345376402938    1.0015918142187830    0.5496451083369763
     0.8874118647528048    0.9414072043153495    0.7424529383462034
     0.2067884060944959    0.0306421119013812    1.0409368370082728
     0.1736799980733696    0.1691885430745856    0.3986285665729365
     0.0982685482907681    0.2220076883485488    0.4931457639561879
     0.4349325415492353    0.2219338047425274    0.8222353500454653
     0.1493188879718405    0.2793133750859390    0.0303544594504362
     0.2643987761629402    0.5092729707445294    0.2960501363447761
     0.3385804016655975    0.4147771245392015    0.6290855798504195
     0.2571796926354474    0.4649479797316158    0.7944004529920009
     0.3078779680763006    0.5845250230701343    0.0637754451524840
     0.1988413643464325    0.5743940683855367    0.3016192436476928
     0.2713277208751333    0.8026375394764028    0.6142569795768641
     0.1079544393181957    0.6493402967944069    0.7183655842813914
     0.3170396334277009    0.7316137767758988   -0.0491980078268345
     0.2863244795521575    0.8322531931459624    0.2603824194217287
     0.2462529805374075   -0.0071949228792669    0.6210565288561268
     0.2509334315010922    0.9645613158442832    0.7872696623775934
     0.9205967866989384    0.1211906275545050    0.1123583445385915
     0.8759767434092990    0.1430974966523935    0.2985279201037826
     0.7111761125875905    0.2057533188972341    0.6051946998370741
     0.7081727872002036    0.1434726185077242    0.8754412300650930
     0.7065551261922194    0.3776577204445928   -0.0167951893337687
     0.9055736333986124    0.4535108465843449    0.2695055860283800
     0.8350092463033858    0.4358414798944692    0.6253656868867234
     0.7921041196633172    0.3102006561809595    0.8431057409105316
     0.8373701312427531    0.6855062941254479    0.1037331605454260
     0.7871085552947176    0.7055225859544664    0.3250721000588953
     0.7648202646213864    0.6221758071286777    0.4986886184007281
     0.6492319713886405    0.6758695353062880    0.8785328861748534
     0.7702198973832761    0.7711905922372404    0.0057833826104516
     0.7623543998399632    0.9290170489815229    0.3107092147639217
     0.6807685380297716    0.9759658309432323    0.5682271011199266
     0.8506767928324406    0.8605782924438312    0.7113753240743664
     0.1623756894625614    0.1009092421224386    0.0687635400304452
     0.2325792455763672    0.1407673977629034    0.3621281202585131
     0.1000758194691012    0.1582981357512049    0.5160459752997114
     0.4401045135749490    0.2071518357043528    0.7424591687021794
     0.1514983102561475    0.2389543718769594    0.9538231393307463
     0.3151261805600752    0.4469362677320004    0.2588856721571968
     0.2779163886608303    0.4480030184927552    0.6077452079455350
     0.2294898131530060    0.4026507957287777    0.7485889201500275
     0.3078722612440964    0.5248934002122083    0.9982073622918560
     0.2448785472775360    0.5643891520249747    0.3556141497620646
     0.3193871605351570    0.7353325860637879    0.6056856506113848
     0.1530099294249333    0.6856292718022649    0.7758665253430650
     0.3591663126015685    0.7599059295968931    0.0132720852840311
     0.2960248895379183    0.9102529639634730    0.2992785969836063
     0.2141174719872845   -0.0045100116748897    0.5548767835621214
     0.1851129084349352    0.9886911451834774    0.7784550065268409
     0.8930594569666177    0.0453632881337623    0.0918895312548621
     0.8297640964077686    0.1672729294192534    0.2489805788570810
     0.6540742018827342    0.2228156221046371    0.5624739441873688
     0.6607536468977556    0.0833398418702976    0.8541330061762179
     0.7141571945393865    0.4525783646676197    0.0296460963223780
     0.8419817564081605    0.4496660629106123    0.2372314995947847
     0.7682862838111637    0.4497055353777407    0.6115830346293417
     0.7413492707866599    0.3545435536396175    0.8122678503039227
     0.7782026379788267    0.6682491624964961    0.0526322321559366
     0.7350420653106582    0.7078769598280582    0.2729957439934289
     0.7380886705260683    0.6172189996085872    0.5606603453236214
     0.6479281405659034    0.6365254709841884    0.9332679121212992
     0.7113374721628335    0.8112755961132445   -0.0028954013510732
     0.7294972556473354    0.9177956734854209    0.2436399377032450
     0.6493077229402778    0.8711891159165165    0.5047199767757501
     0.8225102465278760    0.9104377582226939    0.7758121618858118
     0.1148376340288675    0.0624480812932914    0.9947571336077454
     0.1836002861068903    0.2097076729943239    0.3282757817388356
     0.0240598256299518    0.1846173675470942    0.5498405866757824
     0.3976279643528650    0.3002399128435426    0.7612459146943559
     0.1577589401818964    0.1630289287368858   -0.0148921962870492
     0.2560319914259652    0.4422816869634509    0.1929440888906643
     0.2877941925459568    0.4958105155670150    0.6999863826688901
     0.1901767997063371    0.4832471532237000    0.7183901637465533
     0.2425255917458278    0.6000231825245875    0.9912769771422979
     0.1681369572289237    0.5766698083907866    0.3949052103374193
     0.3132392419834518    0.7523969109982814    0.5183028405310122
     0.1544770761318231    0.7362637206851431    0.7111977246994247
     0.3749251814948391    0.6674780478729433    1.0094787952780981
     0.3295364604115195    0.8992933218613212    0.2195042461680549
     0.2316983259140843    0.0890977520532114    0.6121935698277935
     0.2264432062211828    0.0744635584830521    0.8147979248448888
     0.9804703560435649    0.0254930985106031    0.1085348505290368
    -0.0948510060036745    0.2063607665998180    0.2535748987271464
     0.6221324466258058    0.1957120080530382    0.6276410656263205
     0.7047784841670647    0.0628129558834769    0.9216390419879986
     0.7626845652311482    0.4432850957577604   -0.0414194498676369
     0.8688318257940072    0.5420058584598846    0.2461437889072225
     0.8147008569963146    0.5300802614943249    0.6250114722455864
     0.7530078805698072    0.4299777556075082    0.8976817453104904
     0.8061768227049028    0.7499885300481935    0.0464424642920273
     0.7267011159484236    0.8107421274942965    0.3353705492447400
     0.7409457513604979    0.7130621322144584    0.5756617277968372
     0.6712583624517283    0.7237139473796030    0.9765231719443777
     0.7533390388117351    0.8198524715405219    0.9278547278841710
     0.8136791393270797    0.8740376903721825    0.2366884640188233
     0.5910502115629649    0.9530972748205019    0.5702852498207136
     0.9058357508762811    0.9007352292123606    0.7854525597523710
     0.2217159773018405    0.1003904160303994    0.0633481826980136
     0.1950991151223075    0.0930766661466249    0.3397274866363377
     0.1346313407134776    0.2212725755944760    0.5343133476376212
     0.4002353064990144    0.1656909659884679    0.7413610093891931
     0.2073750006615919    0.2502096981883279    0.9604331238435441
     0.2787498478807358    0.4598428926844776    0.3219363636729841
     0.2349646319883459    0.3723746348896365    0.6053026949771370
     0.1961003238197853    0.4103220318335501    0.7957572663123942
     0.2799330320530700    0.4920448050088110    0.0292041288882446
     0.2538391523978442    0.6050620143299763    0.3206834150201574
     0.2510459089501632    0.7516083366308721    0.6090967443694403
     0.1488568847764562    0.6267195156632807    0.7724180290678850
     0.3065027092305260    0.8032832919540419    0.0041391096200708
     0.3040902393075673    0.8795789746118556    0.3418231308338640
     0.1662176270565735    0.9849986496341097    0.5675527918891511
     0.1815942381263004    0.9737260464520590    0.8292301954978938
     0.9875806118516093    0.1152658752087473    0.9452332487730107
     0.8148178449403364    0.2046198765792320    0.3015943892492034
     0.6601335041096635    0.1691753049917821    0.5243621449799261
     0.6963181737419389    0.0561390534502957    0.8065918386323280
     0.7046701482546930    0.4073989006449223    0.0622759303014929
     0.8217534307391633    0.4697970338552141    0.2983839025818289
     0.7621529644183220    0.4501556946950859    0.6748969288630662
     0.7076877978469459    0.3321989345735842    0.8450519083252700
     0.7483872018796356    0.6914560387203764    0.1102468111715115
     0.7035180581519688    0.6948330289689135    0.3049933736677046
     0.7907131478648545    0.6023797121858252    0.5801282095280896
     0.6698702350291689    0.5884518289576353    0.8803030820840988
     0.7303577384750159    0.8709767551530043    0.0353030613023130
     0.7376843678321999    0.9762781402709392    0.2374993285932735
     0.6852846742307876    0.8770324463055520    0.5718920485444868
     0.7953724997909939    0.8512507713162614    0.7442800182195091
     0.1649684485833196    1.0015133822844144    1.0624090660884846
     0.2039545655137575    0.2244203953123539    0.4286973434773558
     0.0479309894003728    0.2478721801312746    0.5143715324053635
     0.4722543515853942    0.2668257776975768    0.8248826669135880
     0.1004314081939655    0.2606246535293475    0.0278116110245553
     0.2731742529372635    0.5379683882625002    0.2650994565157506
     0.3592615575185675    0.4691780069487997    0.6266787656400854
     0.2823489206695715    0.4714981902675908    0.7391100679360193
     0.3313277264994717    0.6169999045690764    0.0250293788617667
     0.1959613213904727    0.5041881888080990    0.2942513961933922
     0.3095301083648265    0.8370548655352366    0.6143651554650618
     0.0745207107458150    0.6989087814699046    0.7321993177501489
     0.3692211953046535    0.7055564614607477   -0.0748451211110893
     0.2432641203346862    0.8691715882201724    0.2318018939082116
     0.2902008628952192   -0.0181015438195536    0.5818355654438698
     0.2554937801566738    0.9863217973202923    0.7321160411841519
     0.9175597565888561    0.1092307360448927    0.1739487962003276
     0.9026651967704067    0.0934820259646388    0.2479126927569399
     0.6937087641158610    0.2665237610812097    0.6474738253350595
     0.6742916252152046    0.1724097598059466    0.9226431736131240
     0.6730179729428246    0.4092320061442142   -0.0559888301723397
     0.9174985608072841    0.4354493588859440    0.2031461576280007
     0.8355358880500308    0.4232620060252839    0.5605303850035441
     0.8289055301372723    0.3500952548103811    0.8350216564870775
     0.8612931978795793    0.6552331247268641    0.0436862980308958
     0.8154250083227409    0.7429404562683489    0.3085049534489527
     0.7116994100932245    0.6400657214575918    0.4802251122824509
     0.5968334130177435    0.7007191602431093    0.9059788007082048
     0.7498814789062103    0.7278520345176346    0.9600483656666563
     0.7518397542616950    0.8682136098752654    0.3064966166024525
     0.6529087464859776    0.0036010893505316    0.5370877408458218
     0.8485278253661839    0.9190875339781311    0.7025290678353380
     0.1690559989061420    0.0660306403068337    0.9914589786739681
     0.1678636947843950    0.1629409798529932    0.3437003913869250
     0.0689749698931593    0.2233159738702308    0.5613170276134626
     0.3839006906686449    0.2509431124371930    0.7791255965843278
     0.1887663664418872    0.2134229811219290    0.0106277817872511
     0.2483189418088849    0.4443848641549715    0.2510909422047097
     0.2921742369351079    0.4304290562103714    0.6742447315120157
     0.1933882268659814    0.4775045203217130    0.7777313030248186
     0.2566147013172224    0.5708693887043007    0.0431377804115741
     0.1835521993849756    0.6129186423495652    0.3650392879412270
     0.2688184820301081    0.7504949275147097    0.5500382284301638
     0.1643175469884067    0.6693140695088166    0.7021549072036026
     0.3258145823712599    0.6927017018372613    0.9949216561223673
     0.3337019432622094    0.8483018847070189    0.2464755484807440
     0.2038765263816080    1.0497724134432294    0.6235761911400065
     0.2238851353312359    0.0281107439612798    0.8430513182083452
     0.9554388539769020    0.0638721319928065    0.0753199654251715
     0.8777076738602736    0.2013709197932252    0.3030268569863873
     0.6630185622374578    0.1644660766748078    0.5987483636130793
     0.7300902626358764    0.0664254903909098    0.8677949917078180
     0.7564844580185827    0.3915469279186533   -0.0131566843575529
     0.8574128311194723    0.5244745476720996    0.2870759767989158
     0.8170886791869177    0.4897937725073905    0.6596931039709610
     0.7400411221601593    0.3700722197019433    0.8861931761057620
     0.8001689587058998    0.7407738298878721    0.0982272876545317
     0.7236982420532058    0.7531660121009770    0.3419766765398313
     0.7818030166660105    0.6578864129026909    0.5512580432767950
     0.6890156095871397    0.6857479857942800    0.9206313382714182
     0.7739783886287546    0.8287911130861932   -0.0127816723454399
     0.7956125380100186    0.9321637446163240    0.2688078551671813
     0.6359037702219278    0.9337696454454801    0.5966460962248844
     0.8779867774474613    0.8536475984982269    0.7688016205426219
     0.1579191084452903    0.0132959181457995    1.0000127547853379
     0.1785553362241518    0.2349957716225689    0.3800653693704436
     0.0064960666973305    0.2018081147083330    0.5027780818950788
     0.4168099743753833    0.3036021931163220    0.8185047789690566
     0.1320846750980313    0.2064463961860129    0.0404309902165960
     0.2431741200980985    0.4928998399204533    0.2415368879044782
     0.3397716168165086    0.4712523049918698    0.6828371660660837
     0.2346815083713516    0.5073597389038027    0.7619217184789359
     0.2811566478730102    0.6343663193990332    0.0317554519761737
     0.1548220219945066    0.5538790590911012    0.3354624991794717
     0.2932255523192510    0.8053390987417370    0.5515979154277981
     0.1062452557568069    0.7007414672790547    0.6936742078892367
     0.3528476344249289    0.6677052521397027    0.9575459594999985
     0.2930079623388182    0.8580655656199039    0.1968963640183129
     0.2730477459429625    0.0422812036305816    0.6262839019842497
     0.2630262300176973    0.0268649393699079    0.7900394764774220
     0.9660227833614122    0.0915916009824735    0.1415265809392396
     0.9262352279242432    0.1544015580543665    0.2683259802197643
     0.6732297020512034    0.2097722629277768    0.6510217982389491
     0.7216571539384351    0.1265457181124995    0.9204896465127237
     0.7245132058255868    0.4010567957564672    0.9332518758854488
     0.9112434408284221    0.5060936817721895    0.2471978544326636
     0.8445778290436132    0.4746195574041086    0.5997159900515203
     0.8021194577670643    0.3792274613920575    0.8919542171472369
     0.8509861691926348    0.7122166876134968    0.0511058396423961
     0.7743340378104420    0.7766155967961813    0.3511164844191883
     0.7412764480727320    0.6822836415276331    0.5053411913245808
     0.6444955250092028    0.7278470016635454    0.9278290201991233
     0.7752038171300918    0.7705293456305534    0.9505367903186522
     0.8050471849301439    0.8636620458812398    0.2851992994569257
     0.6235834369372387    0.9932475225365115    0.5808871981102406
     0.8949949915165507    0.8900778676320231    0.7244245078801312
     0.1492211165667944    0.1085987231073332    1.0104676620079858
     0.1954695880298570    0.1376201576096543    0.3125006647768976
     0.0817228535624587    0.1801066600806706    0.5709304018994369
     0.3929323325350283    0.2333842540025434    0.7380841209596863
     0.1928668627878833    0.1894793257690717   -0.0348495545010933
     0.2767350178246472    0.4083514776026400    0.2355786577674929
     0.2597761408847857    0.4477701016105214    0.6535474216940164
     0.1784068469551500    0.4408398296107085    0.7489880149637250
     0.2536418345550259    0.5353819256803133    1.0036867831712342
     0.2057118567119970    0.6096609801280439    0.3972619847405394
     0.2947166234559342    0.7134258394731990    0.5430245894690270
     0.1844571655685336    0.6898109552614891    0.7398355471225789
     0.3302476102599274    0.7245730849571029    1.0376121880236440
     0.3500242895570339    0.8882229204500129    0.2720583570079279
     0.1884903185861399    0.0509603014377007    0.5862198109514690
     0.1849824722768240    0.0363210267232363    0.8300279342279777
     0.9416635040004711    0.0243779839405544    0.0632354427929862
     0.8481201694494818    0.2230665344369643    0.2785779735881834
     0.6368646061103245    0.1722030653872934    0.5668259294695891
     0.7003186584323919    0.0408288138370688    0.8576192097352678
     0.7682318814575366    0.4277358816501091    0.0178863643104262
     0.8254022642105495    0.5140977328263675    0.2622633606761309
     0.7773668014090157    0.5105364282589246    0.6576003271017002
     0.7180676280099031    0.3969825692013026    0.8591661459481114
     0.7655628568386829    0.7383433327109223    0.0808462037016873
     0.7010513572688709    0.7543067401191611    0.3093561177187422
     0.7677567322123794    0.6614573850022790    0.5922259624673483
     0.6982136990990689    0.6625672781381128    0.9523631150363542
     0.7417009648385317    0.8612888235023338   -0.0153493818254521
     0.7868056940353093    0.9253827416414039    0.2274980286054686
     0.6290668515250289    0.8960311224729132    0.5615639245827488
     0.8594839073487122    0.8840109347349060    0.8072433732385171
     0.2217674026601150    0.1357945149174946    1.0145558280433227
     0.2290339035294822    0.0498378646640494    0.3737235285728860
     0.1182077814810183    0.2070998317936561    0.5843019409325788
     0.4335784547109602    0.1192361462907467    0.7671637992151005
     0.1892663114573178    0.3181490392634831    0.9597561721050650
     0.2943635869482945    0.3854378673606147    0.3146842112411758
     0.2779731106708372    0.3522127660720245    0.5576439038512466
     0.2277089975971310    0.3783737456449002    0.8230839486080826
     0.3291096043169405    0.4700450023250181    0.0596311507814858
     0.2115739147733674    0.6713782269898207    0.3573899582009922
     0.2884314998752537    0.6708400287464519    0.5923559868289909
     0.1823055272270139    0.5760903683250902    0.7344976748904830
     0.2712530992725191    0.7797804934877353    0.0407998616455410
     0.3408617062178178    0.8117541652527794    0.3260339772634982
     0.1732021771745210    0.9288211575982250    0.5713352854598063
     0.1921799386375580    0.9098363035777997    0.8138520611567263
     0.8541346819787798    0.1112627290783857    0.0598352102259937
     0.8029508832284596    0.1273030875146958    0.3039364427018553
     0.6943317658421868    0.1683804741940868    0.4889907105067216
     0.6758461979256040    0.1193315257900455    0.7875701505132886
     0.7530073993557186    0.3584867021192588    0.0558320383491926
     0.8427973895110666    0.4009275241881327    0.2950671957284945
     0.7930586380149797    0.3732120626755538    0.6269534974854917
     0.7342678962967363    0.2674909014278085    0.7932059757306130
     0.7654405985164747    0.6264223788059521    0.1289807987549368
     0.7361584570096614    0.6260005326909464    0.3025159272997606
     0.7978982090889001    0.5344235601076190    0.5572506081915950
     0.7325460311892366    0.6198216566358400    0.8910690866975950
     0.7107501001992628    0.8544390975543745    0.0880776242869727
     0.7015305253221849    0.0165867462071240    0.2821980254741978
     0.7339046257591586    0.8693582332633329    0.5422336655755776
     0.8120125246436011    0.8093464948149549    0.7787913681113168
     0.1255915269205210    0.1618025308760420    0.1038486165595231
     0.1121831970897651    0.0249646804685378    0.3465271434414863
     0.1485080911612027    0.2344258859862568    0.4942462422964412
     0.3353144349667913    0.2099834463727574    0.7582484537269657
     0.1215846481502856    0.6955354875968995    0.2643139715687079
     0.3421994395196868    0.4975396869463576    0.3656786170576019
     0.2765694737557612    0.2718411898002323    0.5956768399925700
     0.1608300545542439    0.4825909200796102    0.9147515737569130
     0.2295714424914361    0.5468899789604862    0.0943009275573140
     0.3371884944135332    0.6420568333260700    0.3161878032248021
     0.3408344752267686    0.6923672160542917    0.7188081605550581
     0.1831668330122533    0.5402581851557338    0.7789501773482381
     0.3409525933929256    0.8830421821979655    0.0942165910409978
     0.3279723426988493    0.9492519019206144    0.3561456917772984
     0.1242141445615883    0.9222312326133212    0.6313166854577859
     0.1886070190065281    1.0095113125499919    0.8927896041792852
     0.9668379729903661    0.1130213226738265    1.0024551975569773
     0.8512008691221112    0.2646342155140963    0.3566689027472900
     0.6606025191431651    0.1101946188744548    0.5566204412818868
     0.7547070996428012    0.0003325756283326    0.7836206961012517
     0.6878510998977917    0.4733767052449652    0.1135764504078699
     0.8555024081233643    0.5390972469269055    0.3743222892012337
     0.7347061288665027    0.4450382039078747    0.7056501812039442
     0.7073676906244266    0.3363525361963700    0.9076367116020000
     0.7609246748942162    0.7686941426517071    0.1608609276642080
     0.6986234925194595    0.7604893343888751    0.3778581756845045
     0.8378057980518951    0.6134700830416480    0.6291324686082995
     0.6744936939130292    0.5239502864366039    0.9195736882041322
     0.7789516784890945    0.9065506202891508    0.0399459786020149
     0.7434830487793637    1.0256222941037270    0.2179185768218544
     0.7344802824133189    0.9447690164989647    0.6920400024579214
     0.7139640153016742    0.8746253858772457    0.8359477219305993
     0.1755061044988019    0.1277344186136302    0.1079209364324955
     0.1478326897631608    0.0776937760712243    0.3466949730593102
     0.1869692295383753    0.1619718049341255    0.5287425156216047
     0.3776574246437549    0.1212412877229095    0.7721628566820244
     0.2167381171520401    0.2411847991464777    0.0265130674413866
     0.3247223496848021    0.4069068834452443    0.3552236973429866
     0.2852338358494004    0.3160807344595840    0.5805318405923718
     0.1977796711663087    0.4198627593999106    0.8578222262918282
     0.2968571747658486    0.4766786248688606    0.0846429078391107
     0.2808973247472392    0.6586662338061312    0.3368094318015183
     0.3039934123177151    0.6883195236684262    0.6526720240371892
     0.2129971482356527    0.5880372523716532    0.7663882552478202
     0.2821453714032761    0.8085202913352229    0.0748268776033368
     0.3600833525417538    0.8647063848673591    0.3715712622332590
     0.1691083775661223    0.9286052257599390    0.6062871918686711
     0.2175638820543869    0.9128122846567215    0.8579407674789857
     0.8813771228269369    0.1014477863225196    0.0029615454280517
     0.7990958161016400    0.1878106123882414    0.3662892181800351
     0.7202471418036872    0.1081279008879993    0.4896548182122853
     0.7271056742465266    0.0590687771056110    0.7632863088634866
     0.7570946922450998    0.3994666409410934    0.1091737865264122
     0.8417839603549795    0.4376625184253020    0.3539749009995352
     0.8175469992692720    0.4367930886239246    0.7303127652582382
     0.7193949872357553    0.2393490469382564    0.8397192917254880
     0.7543581952223120    0.6815978328048139    0.1722145356702174
     0.6972286871367060    0.6574391054851815    0.3468122224759992
     0.8417300325903890    0.5652449241488611    0.5672745997466332
     0.7351072173072974    0.5610305844562035    0.8820791608718048
     0.7655284042293630    0.8741784376401136    0.1147215058268857
     0.7380422571533192    0.0569611301864672    0.2857748764379121
     0.6969411761757687    0.9600950208769727    0.6430873426225512
     0.7595134033825582    0.8364053026319065    0.7904415308849746
     0.2112526984826805    0.1097746401016576    0.9596062858091547
     0.2903281732016076    0.1240072138724695    0.3416608237876125
     0.1544425096040050    0.1463335262486329    0.6406498188653116
     0.5246685772305109    0.1159410250716585    0.7753017612528675
     0.1006429255745536    0.3071740069695917    0.9234982940217025
     0.2591328706528189    0.3270114795459528    0.2999134259079198
     0.2046611296189014    0.3433806191467624    0.5117734485198079
     0.2511287133295811    0.3122820223066711    0.8266184301693130
     0.4010807898196635    0.4278134351414449    0.0197540005480497
     0.2648704699182661    0.6415250553347558    0.2512753299531696
     0.2150901884931646    0.6749806541223564    0.6626369518025221
     0.1688978089780609    0.5034420247156228    0.6656302876150346
     0.2017466831789764    0.7712206221417339    1.0108671290590105
     0.3177750775776475    0.7449855392732340    0.3396135592571294
     0.1541786213077745    0.9724996436455751    0.4812334997881812
     0.2098238469458771    0.8581032982730380    0.7606318517593945
     0.8144184399277806    0.0242402019712479    0.0570716900251856
     0.7591325495993598    0.2455622882524567    0.3262302139774974
     0.7108586535951841    0.3011163678673508    0.5288285904070991
     0.6611724899836841    0.0105157891845841    0.7964824219299881
     0.7006361627508105    0.2732982649551043   -0.0176612551642165
     0.8629070622724954    0.3469272601276149    0.2335787009965941
     0.7344506016522466    0.3229487688879998    0.6303115937511454
     0.6680448930331597    0.2418376899609715    0.8082879792446362
     0.7594847747577265    0.5528433038766174    0.0846446559694698
     0.7521528785901965    0.5685754040617621    0.2727299354419631
     0.7886620279698030    0.4874897481685319    0.5154001295381599
     0.7443615638480455    0.6737364766069578    0.8878587312039952
     0.6320312310487818    0.9114840525585264    0.0306034375630160
     0.6443643643176399    0.0433025267123749    0.2745841636369253
     0.7209907629018778    0.7880812987053756    0.5559223191602882
     0.8194439183125990    0.7185073540064385    0.7359473655422812
     0.2606086881124940   -0.0109062406819697    0.0243223440478873
     0.2585188929079437    0.9713225115257927    0.3191428500930599
     0.1370801585165333    0.0858275425675383    0.5152877420399722
     0.4209736548582771    0.1752564008801667    0.6889542301047051
     0.1240124382711418    0.3625706088132356    0.9757411129310125
     0.1877977758092622    0.4600593243288337    0.3268810637257379
     0.1653293500311462    0.4365906278896510    0.6336438364561384
     0.2029176636027735    0.2701342078092046    0.7177567849761205
     0.3309256953649631    0.3703240495304788    0.0503346398842968
     0.2081847643675539    0.7315602771919925    0.3732153200724324
     0.2634415500027729    0.6374839370774190    0.6584833129230759
     0.0767779086738306    0.5990673755224308    0.7284567206558878
     0.2332438204484214    0.8426744234057432    0.9380243410097072
     0.2670940786529591    0.8759680898505355    0.3934534659451859
     0.1797080311861531    0.8164373497218801    0.5021785552138833
     0.1285910439780609    1.0147523325133885    0.8066980189930089
     0.7545824545568842    0.1041602837255748    0.0062177998050682
     0.7165259636062326    0.2150197963931367    0.3367930031520536
     0.6083845516071297    0.2931972988032300    0.5687292735060950
     0.6830626577985577    1.0236081449886154    0.6963238052460110
     0.6479824888400993    0.3434928149787268    0.1108541436182258
     0.7808076536335465    0.3558388591847312    0.2905327494936942
     0.6725126128715749    0.4507161075407189    0.5822743733342335
     0.6263585189512220    0.3768016996673227    0.8584635492925068
     0.6747060347911037    0.5572820690858178    0.9824808361009477
     0.6701965449436768    0.5711794290883848    0.1887914854660327
     0.6677588232409102    0.6151563485766971    0.5824765355970968
     0.7018565752476560    0.3927927876011197    0.7169088548408188
     0.6194037579317559    0.9219113934364489    0.0837751815128639
     0.6044101866950243    0.9315480284531938    0.1202710386391908
     0.6399992772196995    0.9213547899132833    0.4461151368943984
     0.7819344821094252    0.7456408139611947    0.6299344285099991
     0.1628438497936858    0.2504003627184316    0.1860190668648727
     0.0622113855765638    0.3358314319847511    0.2437024305875716
     0.2221547261755392    0.2581529919286759    0.5605232900441025
     0.3337413387397485    0.1361720529907370    0.6854299873670540
     0.2454994874452545    0.2809623294661613    0.1342604653555467
     0.3010405916345937    0.4849636352066591    0.4471517747348810
     0.3543783182710585    0.2484712906785549    0.6407046670871637
     0.1125579986959896    0.4953413125395958    0.8272422142535513
     0.2217617307159918    0.4386143494189340    0.0639999174185615
     0.3507378517763850    0.5611166440620607    0.3705388589394475
     0.2604353785370508    0.7496554617726555    0.7636999966396674
     0.1712471694212180    0.6015690249521571    0.8841346742587715
     0.2573223902952999    0.9261168040950941    0.0905421927134895
     0.3064062398492373    0.9357736390017374    0.4431978292011646
     0.1483990325455614    0.9607982764794010    0.7203783814614956
     0.0648803765385504    0.8206589980011714    0.8567611811720725
     0.9153075269579416    0.0695530218224012    0.9068920763197096
     0.7756765142328796    0.2999813574701273    0.3795845740001269
     0.6285935090087894    0.0614913221561864    0.4437534729093223
     0.8408626340972775    0.0443303435643702    0.7887937476039233
     0.6912067774752596    0.3916781655672212    0.1654263254198220
     0.7749062537172895    0.5179635519294888    0.3919810332129253
     0.7737886640304382    0.3387036693323082    0.7060567228211612
     0.6352733820803959    0.2748201696709873    0.8836883865504128
     0.6832499729687589    0.7550322973710341    0.2105674216775241
     0.6090686195843809    0.7363938826791300    0.3477911607898488
     0.8968561496618190    0.6667137482714318    0.6089654984110170
     0.7181920557490244    0.5258704512795893    0.7943801062710668
     0.7264762270252280    0.9720845609028415    0.1107708806148428
     0.8368912989019592    0.0692103758588022    0.2459374357714684
     0.6834109174513715    0.8501245063827194    0.6861462436412125
     0.8834558968449930    0.8165954847304033    0.9840310174734737
     0.1341687580552090    0.0375580956863589    0.2003956257842716
     0.7725785741858850    0.0875530298936304    0.4759580428675546
    -0.0110061829640782    0.3470010076812119    0.8227090698451083
     0.8414904373426404    0.3540777889129644    1.0092150885435389
    -0.0421260151932092    0.6105405356618794    0.2158347402842230
     0.9089157497376787    0.3062795048772406    0.2306043305796268
     0.9327099110273273    0.3917073924359468    0.7037824973467859
     0.8538475453274080    0.4022127770275047    0.9794214200105078
     0.0989441561469870    0.5945463742337727    0.1485837958095191
     0.9794553658259476    0.7067825643698457    0.3052190532548397
     0.9576375212505931    0.7473821374672848    0.5490679650234841
     0.8212733304098166    0.7184571361012136    0.8546148846902530
     0.0510314871521200    0.9556016748770094    0.3255099695073903
     0.9216441362346356    0.9145466122372983    0.2874358449063018
     0.8520812680989887    1.1047854043668479    0.4850369030140247
     0.8482709396533513    0.9484480657394697    0.8519153325266481
     0.5612175141273363    0.3517584722821089    0.3007291631796260
     0.3707494472658945    0.4268317311329202    0.5550379605032401
     0.3936369702975680    0.3993421204509657    0.5921594092556526
     0.4209405787560865    0.1447972989284494    0.9037503905548150
     0.4266917828122364    0.1701826453180417    0.0507642258551008
     0.4722328405665105    0.5581311098484206    0.2682978036937472
     0.4724551434819670    0.3409341354904529    0.7753009716523017
     0.4174532505864973    0.2485731204389855    1.0480835965890429
     0.4831460620250655    0.7711845352942046    0.0688941206360183
     0.4161731770922322    0.7019135360489150    0.4180009701243109
     0.4935674718299494    0.7343311793783575    0.6591230496086891
     0.3824979547796359    0.5612767056176932    0.7794002962653921
     0.3443115283521641    0.9687488428129800    0.0771719246038748
     0.4408512281280039    0.9690474018729700    0.3947994488962926
     0.4385417363543148    0.8341861545780587    0.6370936078030862
     0.3950824173420301    0.9423008901253652    0.8212825027726328
     0.6772716469783275    1.0024811677099033    0.9498896450247805
     0.7788503061308627    0.1127841213017213    0.1870507115802165
     0.6750714664365233    0.2502425974308609    0.2061960102256713
     0.5727608842945826    0.2553949990089198    0.6943675258979457
     0.4801877586600386    0.1023111024112905    0.0926801152616102
     0.6620279005854237    0.1839161045592782    0.0890639126275928
     0.6530706901525132    0.3768386153058148    0.3666156620865628
     0.5547457180228568    0.2815786990339782    0.6250440296377671
     0.5917841017121142    0.4964671532411005    1.0066329215473764
     0.5786775581718273    0.6319442822644412    1.0221853562592167
     0.6644422172930339    0.4712072517786438    0.4482364027770452
     0.3655665222715385    0.6559821067287893    1.0630956160226028
     0.8720776764015653    0.8156634549307652    0.0728679860776002
     0.6365946478901889    0.8363106513485098    0.8898056574923239
     0.6197849977024429    0.8101899201429447    0.2506122903233298
     0.5431237679587150    0.7042468976118342    0.7859915794055311
     0.1496065394177259    0.8353374351283206    0.8282631987120608
     0.3565062333523374    0.0761175092936757    0.3767172524939586
     0.0915829937060068    0.3762895205013580    0.2789027850525648
     0.0004469584172520    0.0091351349294414    0.6214720921729275
     0.1780857137115496    0.3695513896197192    1.0090240634206535
     0.3430582828998718    0.2260918318936663    0.2412114041389370
     0.1130264892138726    0.1067446212477607    0.2151977757571287
     0.1141462544092372    0.2682236953171185    0.3740127189970383
     0.1076810486348478    0.7894764767913429    0.8926140366648814
     0.9525773931294134    0.5279797906796428   -0.0925669135991429
     0.2037094175884635    0.5630520552085018    0.5544725562024272
     0.1198001390402774    0.4647267186410379    0.5857650814252524
     0.9469400442994195    0.8062564446962004    0.7610348781753619
     0.1044203171783385    0.8300903113552488    0.1163336885740387
     0.2201498661599108    0.7542878231700704    0.4849087261807884
     0.8262148634032060    0.8101668882118549    0.5991498503758556
     0.8797948430461656    0.3252094665611088    0.9174820860296596
     0.0640834566218030   -0.0000241098823276    0.0690526503417890
     0.9099187503127800    0.2317446919368227    0.4950258151887754
     0.1161340375975348    0.2568013164476877    0.7850780989840599
     0.0529129083268373    0.3950897583243300    0.9497482088313038
     0.0073291401091007    0.5232781154149484    0.0402279688771456
     0.0511976908579275    0.4474791490059373    0.2506395591730617
     0.0410505556887432    0.4726937118148006    0.6265109704113783
     0.9992770911194738    0.6833487125784774    0.8297356160360753
     0.9234503230390859    0.7214772201555858    0.1199466162223280
     0.0749731424475680    0.7470555918586654    0.4024574002568626
     0.8742234301952886    0.7484605913088860    0.5061165178433548
    -0.0163864798465121    0.0220203850959770    0.8863626063891817
     0.0470481506949322    0.9049387738770690    0.1239710765038903
    -0.0440404912359298    0.9902832399587127    0.4069939117784558
     0.9004227128787609    0.0964672612430269    0.6090487254421552
     0.5475192271219985    0.0175186333181739    0.8704896229203243
     0.5034347117099539    0.2858646787585895    0.1563569370106522
     0.5564930569883536    0.4458673526399128    0.2728298610574788
     0.4812275367738250    0.2589406499578329    0.6193640450966371
     0.4165775690278097    0.3643665640860800    0.8948588675111041
     0.3767569366784819    0.3653239989645034    0.0894943004613373
     0.5839370862619314    0.6226403667727312    0.2567097747876989
     0.4928240963125269    0.5577339868278522    0.7837167065368131
     0.4587736131772316    0.5916323849964018    0.9011262922708899
     0.6393484929459433    0.7257159568921269    0.1420979067152277
     0.5420182042479748    0.7549942749355690    0.3561315818477102
     0.6806446566515527    0.7178369180408811    0.6178499296100284
     0.5067137177340697    0.9489856211320956    0.7554768045184963
     0.4663523677832587    0.8642347060425363    0.0194798875766619
     0.5178911907954593    0.1478179669589342    0.4879274634127949
     0.3795624279454868    0.8800120190091825    0.4942856447181757
     0.1081057307142413    0.3954419581824832    0.9455939180947420
     0.3820780178195609    0.2313620653449480    0.1716631828317782
     0.1803105393722674    0.1669980182681189    0.2080947060809749
     0.0574051969946263    0.2755706592164310    0.4608511926107255
     0.1037553218174233    0.7589975372142594    0.9847181138420731
     0.8867228238457830    0.5712585866426793    0.9690479272158511
     0.1823390513721564    0.4870839863103754    0.4500146962001786
     0.0667231023811385    0.5198659688458612    0.5160501733572168
     0.9802953146035978    0.7886186926984818    0.6622310814121161
     0.1402939962016153    0.7295748592096430    0.0485770750724572
     0.1557139888146377    0.6835862328330968    0.4594522312202318
     0.8302922851292894    0.9186482132333916    0.6075091228090445
     0.0652373130305083    0.7974697047736264    0.8018822149646464
     0.3529141825810189    0.2357037961770199    0.3706465869592593
     0.0952112141809622    0.2707111491889362    0.2289792769367879
    -0.0241428082145467    0.0573461935246126    0.7156983984621860
     0.5865307017061537    0.1566941356125649    0.8778488431935161
     0.6813179343000318    0.0917722247019276    0.0126817932234520
     0.6459471761565082    0.2816267671865083    0.2984958510879542
     0.5164879908921053    0.3907298769938451    0.6417512197810057
     0.6365876388899103    0.4808310571694144    0.1014219523119953
     0.4832046400331545    0.5990778669434110    0.0103433028952565
     0.6960974503772224    0.5745166688751951    0.4736917486761762
     0.4549978273944458    0.6067311000181951    0.0793563882675340
     0.9176547054593971    0.7588767325374099   -0.0166104533518805
     0.7085928692817780    0.8098450432995453    0.8298255688722567
     0.5747455836623486    0.8463055751180240    0.3421721515962364
     0.6086457907080587    0.6452664607822857    0.7216285091069423
     0.6668594115510726    0.9254254366467187    1.0063300338135086
     0.6953018670048864    0.1219239359566766    0.1006718156302130
     0.7120457301797785    0.3254029671429414    0.1798874862925601
     0.5500146517831517    0.2104011748998725    0.8078707108736121
     0.1391481825208377    0.2585673590548484    0.1138551911430559
     0.0405957841221481    0.0948558845406733    0.3473853958056213
     0.2246363389567626    0.2845784301894954    0.4986984302225616
     0.2712073822709317    0.1491238988633413    0.7154900676881416
     0.3036305462309024    0.2652909858688060    0.0978820901834588
     0.3552025178720002    0.5227958133409140    0.4586338336292297
     0.3041912206505361    0.2757235386565526    0.6915519914362381
     0.0955233185992752    0.4411042910402675    0.8614186158681395
     0.1963410508515936    0.4874638755641609    0.1301929080422585
     0.3458923160582291    0.5434514575127969    0.2919871233652328
     0.2725610817717119    0.6664680868910112    0.7480545769201193
     0.1240703681616187    0.6123517465697589    0.8271123520400148
     0.2771910640155087    0.9342786872298894    0.1624171409817694
     0.3460194094735455   -0.0039323723259241    0.4466992874684786
     0.1141855701650314    1.0205834628602122    0.6947216559457086
     0.1327953475463677    0.9742675067197842    0.9538914345393391
     0.9460019860800031    0.1322160086380050    0.9120618386605510
     0.8087580772249565    0.3470540041566006    0.4234677315866159
     0.6244612231799554    0.0283749805138063    0.4994479882696839
     0.8115747119388567    0.0264197192062693    0.8487591333131849
     0.6828112880796459    0.4724030111631717    0.2043098168174135
     0.8150577978229087    0.5312609621870349    0.4596227431956151
     0.7368415922951526    0.3891570774891047    0.7639417030698261
     0.6519665322620585    0.2925259484872748    0.9603726597719191
     0.7198404736893644    0.8162757557726282    0.2466064723499008
     0.6291767754752335    0.7659479527033914    0.4231796848234750
     0.8320672490578050    0.7118777184151547    0.6162203209174626
     0.6838108961072267    0.4296692307141813    0.8393354814387521
     0.7861187778508404    1.0017196339934320    0.1050116268245114
     0.8204376544508111    0.0455818947670501    0.1832307768083662
     0.7490415028584524    0.8425439837327717    0.6601995315620945
     0.6805714071907297    0.9694451894210743    0.8045370316079820
     0.1435447681818458    0.1978796205327453    0.0898174118652898
     0.1065864604819523    0.0642985263834058    0.3325470549791616
     0.1817274709165158    0.2260660709210509    0.4726338522435768
     0.3036626099318071    0.1947792066782646    0.7722373717057343
     0.2519325723016422    0.3362240197854395    0.0613793262615133
     0.3631326902646085    0.4933277398928106    0.4021847925630783
     0.2740614313457420    0.3018864834961413    0.6343041160355863
     0.1477232881177918    0.4410036726451089    0.8918749066922916
     0.2295545262057255    0.5352003110052403    0.1290045196612543
     0.3212774490416509    0.5996665242104615    0.2997434869199764
     0.3115342862403334    0.6650420208927735    0.6961853071298769
     0.1560915274764400    0.5816405856741748    0.7787755612825773
     0.3280638562804370    0.8757157641485439    0.1279594187645443
     0.3589603508702323    0.9707495925096060    0.3800702074065100
     0.1182969158040377    0.9732988035582101    0.6374125320358144
     0.1996576974714279    1.0032562676478065    0.9333939122224560
     0.9476125043451431    0.1499103884919789    0.9855806117946344
     0.8648528212360883    0.2468391311989778    0.3896296560549717
     0.6747786081627740    0.0684448315554964    0.5378317808696155
     0.7611885153182085    0.0285587699603819    0.8251841369392389
     0.7108555277141344    0.4874256638190470    0.1483114460114991
     0.8673088088249902    0.5234129467756607    0.4076827712199464
     0.7323367160662048    0.4446398555226901    0.7452067416762639
     0.7138381619256368    0.3031655550489273    0.9307675147303148
     0.7715846995871638    0.7791505724666528    0.2070525115288050
     0.6885036444298536    0.7471551471044646    0.4103038775659881
     0.8162131978038327    0.6406020123381703    0.6064901323949686
     0.7027005563955468    0.4907636963725611    0.9118746485897642
     0.8045390430266687    0.9246288140511935    0.0697855289327243
     0.7689596503257780   -0.0112271023407854    0.2233090327416806
     0.7501665188157117    0.9046622699276395    0.6567412783386553
     0.7053263635771601    0.8775818500194837    0.7936418245752801
     0.3316508485394127    0.2936914054387343    0.1866726003647435
     0.1624515168985264    0.3234612899567824    0.3219664693919293
     0.1107249260983358    0.3409455755882910    0.6147834540020012
     0.0961018897256501    0.3345618334391749    0.7493956514590814
     0.2517637649434316    0.3062661388222304    0.9623805857262197
     0.1531204306850927    0.8360723586014656    0.4120995628535881
     0.3339027841650661    0.4831512717256584    0.5633008386907630
     0.0821949236712761    0.8049791334448089    0.9535535477795903
     0.2009199623042421    0.9219126165214997    0.0803079622109162
     0.2742365222251748    0.8746792046906122    0.5133161413747173
     0.0693121337955188    0.8477744065819567    0.4486899539177880
     0.0264507665895217    0.9000489886759410    0.8005480691331471
     0.3163076556325840    1.0144760835240640    0.1294873557476567
     0.2526286394168210    1.0166067722798020    0.1958098946728553
     0.0524108794907603    0.0557235290155109    0.6007640949765106
     0.3677061297991791    0.0272985733598371    0.6232789904302852
     0.5520234449658793    0.3250094856293431    0.0663878363644459
     0.7195015997206071    0.3475653038017598    0.3324752952278103
     0.6235241517542973    0.4439803589067291    0.7015566308136789
     0.6127397816256942    0.3102246040536311    0.7217003744586382
     0.6698332893624905    0.5076012518432829    0.0098157922081065
     0.5968892800869349    0.6817638304960426    0.1670983059424075
     0.7419926119783615    0.5699184016615155    0.6784439183524059
     0.5894886870007304    0.4813729550116112    0.7672807271959220
     0.6048796607763541    0.9114067800594863    0.2214493382692395
     0.6076139290184080    0.0294720469206845    0.1289568359132580
     0.7057754771847667    0.9430717633127306    0.3944259093093558
     0.7159070876080360    0.7169322100079111    0.7390048724132851
     0.7400749448225974   -0.0043748157108290    0.9183983005809305
     0.6351488517858023    0.1757444612110095    0.2238156458040532
     0.5229357855340327    0.2647428912129112    0.7205555692837694
     0.6007743564869208    0.0780019000006139    0.6058250185181122
     0.1048596151039584    0.1998430600967319    0.9368159626168954
     0.0508836052378306    0.1737645536684087    0.1986410992012710
     0.9456447969248655    0.1115757164796002    0.6106125998390511
     0.0736235183143312    0.1485860214691385    0.9108457135246357
     0.0118391714027870    0.3856906709588054    0.1189765505631348
     0.1165082412822241    0.4129801193987248    0.1022628096868925
     0.1062561131963125    0.4548460365426485    0.4082080856079571
     0.0151809932946294    0.3795301948149506    0.5735448146581990
     0.9543847626454561    0.6944913750592124    0.9397364926478349
     0.0795245807904262    0.7456468527888062    0.1787240540745009
     0.0462403061831649    0.6836067643119661    0.5603550437263976
     0.8797505631224398    0.5864505125859617    0.7446732551963218
     0.0616467294406166    0.9599683614568758   -0.0074966878096402
     0.1587824368591905    0.8540733982660186    0.1477586660606872
     0.9176054271298627    0.8045354137029377    0.4296463501593729
     0.9235592544760690    0.9806703258510047    0.5214650890227438
     0.5044632854202378   -0.0098912300209311    1.0339433581223803
     0.5102675836749440    0.1159269975700718    0.2000131577682472
     0.4886464620756645    0.4461106930772646    0.5228861775571751
     0.4788710258135112    0.1841138221152858    0.6351756892700193
     0.5915668771233046    0.2802764058187779    0.9724896565982972
     0.5101288267035173    0.4420625129309061    0.0911818401525304
     0.5115541322464465    0.3623295773754677    0.3860675956740501
     0.4187596662382408    0.4782099480141899    0.9219868822401449
     0.4868491971506383    0.6138705545827263    0.8128540375236446
     0.5674755764743591    0.7506610200394792    0.2164709060897459
     0.5813811877919894    0.6783838010126302    0.5219645367833320
     0.6496469919969301    0.5185242880792181    0.5716085670829519
     0.5714683830744639    0.9195047226575360    0.8754219868222509
     0.4638271993048754    1.0081233194958619    0.1767678753182810
     0.5989426087873770    0.9369553226409444    0.4290655423898485
     0.6057405013328158    0.9278267120598810    0.6505834972562861
     0.4568106454081906    0.0661691925414095    0.3464884670118612
     0.4321471125922187    0.1540033238462483    0.4122596302065833
     0.3751089147229120    0.3570335110084279    0.7743077800149298
     0.3084343088232103    0.1569758874922692    0.0904334633189924
     0.3780527299339691    0.7983989364374166    0.2686276062929130
     0.4437953878061626    0.5338614159202955    0.5598448425780136
     0.4008502758727726    0.6002833473613414    0.6349285513344932
     0.4097671987919613    0.5511495026150984    0.2308359687399755
     0.4609042725078695    0.5771776164279447    0.1632705810278098
     0.5454326694020628    0.7780711723544046    0.5694030317741582
     0.2455001509671052    0.8295040915383628    0.8481094999639219
     0.3383793203359893    0.7739976751805725    0.8133838803472077
     0.6311667118975435    0.1932227534455175    0.3692791556970451
     0.3181121017158839    0.9434971867173414    0.6373163079209859
     0.3263406847647108    0.8071499096026257    0.6923900951766455
     0.3648777004040284    0.8899983212473268    0.9282693772859641
    -0.0085656362369015    0.2424939949168745    0.4105996368878565
     0.8275956028734139    0.2487315868005529    0.8192956609596317
     0.8610871618090500    0.2148334306755574    0.6689929701994404
     0.8583244058763716    0.3741360513509998    0.1248525057447763
     0.8973049767119704    0.5950896396698435    0.3034007440014201
     0.9858042024159855    0.4990051080935922    0.3300604859866335
     0.8786515658351803    0.4566212070743824    0.7968819135934478
     0.9621081961593000    0.5546893544415235    0.0635840159232560
     0.8433630288129613    0.8318058471825535    0.3178934182781795
     0.8463878771679816    0.7491935199886407    0.4211658513180772
     0.1295204636251436    0.5601199430142363    1.0309319079853603
     0.1713250748306687    0.6390075855547968    0.0508010709024803
     0.8858038813534558   -0.0773473563309789    0.3263452125739024
     0.7365785753681713    0.1417803230436289    0.6866190560319866
     0.9145022215459144   -0.0059946865595606    0.7463521648991208
     0.9335014735384599    1.0227880860675047    0.2212872149978446
     0.2074479632922685    0.0934791344034666    0.1804385339710098
     0.2452305768177170    0.9639749778757877    0.2791945963098161
     0.1885029124832857    0.0623927831918803    0.4788476523076057
     0.2726689608846061    0.1266774069038275    0.8038387691290634
     0.2457586995511223    0.1953270642041916    1.0286147939877148
     0.3683406502389819    0.3238770107987430    0.3045213637727702
     0.3566202138108757    0.3084661200345979    0.4947342830513804
     0.2706464613927647    0.3960085604593686    0.9096486391613332
     0.3539858481678537    0.4767846679328002    0.1348201933907373
     0.3061651570979372    0.7370549705434952    0.4662026290442610
     0.3407423070101351    0.6490839167659841    0.6519827925053665
     0.2760845255816795    0.5310559383278746    0.8002426798092391
     0.3623183236237417    0.7711133138388278    0.1084730252278264
     0.3835990513303395    0.8203774269974000    0.3622245472569200
     0.2287157528363363    0.9049877275277698    0.6916732082565570
     0.2957155932187913    0.8672866370421393    0.8581256324471305
     0.8278172853979000    0.1425430541341407    0.0130366903562968
     0.7947086000192519    0.1448352101133382    0.3912090267541716
     0.7388023635495796    0.0631559747696781    0.4499221645215430
     0.7196247415770431    0.1054490958716409    0.6849211708961758
     0.7995972180506170    0.3884798959181432    0.1525012772666912
     0.8828398315342861    0.3812016324944276    0.3204151343675223
     0.8015713734772196    0.4575902186345159    0.7837290136671426
     0.7838589821699007    0.1636377392833689    0.8361592628675968
     0.8014582751751917    0.6255235332804530    0.1683162150949297
     0.7483872665366176    0.6303360931163380    0.4424278776021071
     0.8923437841113050    0.4900334844415075    0.4724582218519056
     0.8181609131739247    0.5004484952878194    0.8917735678553635
     0.8120892251594474    0.8905290016943623    0.1911854017450590
     0.7691064235938604    0.0105999717910958    0.3665119607755880
     0.0011895469514347    0.6283756095356495    0.4156834938559130
     0.7721828042468433    0.7776169761466587    0.8121562987267541
     0.3912606865347897    0.1721099399902040    1.1739696246453850
     0.4904528880591538    0.1814860347027475    0.3504225339803400
     0.4594595079039696    0.2101704004178364    0.5173597707466778
     0.3932867358679777    0.4860828665974879    0.8125925996677534
     0.4853729779205240    0.5055035755055581    0.3072118257545272
     0.3668610206926431    0.7119783105674494    0.2686470528195267
     0.4458315866933684    0.4587162012523904    0.5464842261837134
     0.3132335384901404    0.5763099166673777    0.6925286715382148
     0.3848452840011126    0.6988905634773331    0.8037015241199711
     0.5448223575334961    0.5691572657630003    0.1025810732250597
     0.5355154414738605    0.7534451683822804    0.4512237033966007
     0.2192895208749709    0.6814435237749200    0.8750320068877838
     0.3959359127776099    0.8128859501534109    0.0299712897793468
     0.5370273018002597    0.2493593818796510    0.3383083155072834
     0.3778581316308930   -0.0608423797400299    0.7482179977660076
     0.3239311887939582    0.8672135987748117    0.9572257103685617
     0.9376465621694487    0.4086729832854210    1.0282242419652152
     0.9379313733451268    0.2947817612068303    0.3366188901269441
     0.1644684732870392    0.6893788945019381    0.4055141372595505
     0.8693488249121203    0.2727644047397484    0.7663054346698318
     0.8791511307157874    0.6176854902683774    0.1549895781682274
     0.8211867835224104    0.5628565429933283    0.3516956596078815
     0.9438834870481058    0.5093576971669038    0.4362737910578057
     0.9369465568718651    0.3544232703828417    0.7327706757721997
     0.1521856368495297    0.5523343717184220    0.0916764943985439
     0.9446107646714728    0.8407604844505060    0.3169956830097952
     0.8183884806803250    0.7063826352604033    0.4054764989775229
     0.1150908947930875    0.6597322193755952    0.9434033430651604
     0.8426199127318876    0.9422071153621934    0.0917013603492320
     0.9516029563855979    0.9811930675143258    0.3066472682514096
     0.9143637060851887   -0.0254300317593634    0.4697107562515270
     0.9241125371920376    0.0854774658698597    0.8058255583704929
     0.5397962438568686    0.1502466310210754    0.8189885229687285
     0.5038472552257602    0.1964790719773870    0.2980365886613990
     0.5596141043876653    0.4422397457797760    0.5909648948212926
     0.5272194587211719    0.1912177507499596    0.5701610817139048
     0.5448307773936211    0.1728659372541285    0.0341332235920226
     0.4276878802177806    0.4973787941304595    0.1452460731649791
     0.5345973436326557    0.4506495113968748    0.4859125965037249
     0.5039766082465440    0.4450863425089417    0.9421802378001357
     0.4583268050522972    0.7225602139242379    0.6988618643985746
     0.5190118704443580    0.7786741932754861    0.2601643197072852
     0.6625788201611749    0.5633781501718675    0.2716780233462138
     0.5743800702532428    0.4905789929573126    0.5038834515364203
     0.5048076994511330    0.8754250363708936    0.9243929470441139
     0.5569501809551991    0.9814861367189994    0.1619288945322970
     0.5507192762231514    1.0062533809501015    0.3807601687728452
     0.5543965857613264    1.0289424556149565    0.5774196613299798
     0.0195791535061846    0.2969633079288593    0.9715882134700894
    -0.0299716243043576    0.2213951344035457    0.2011291443206690
     1.0158113005586116    0.1259411678586082    0.5440670963574985
     0.1661403733629484    0.1056376549893305    0.9005074279478972
     0.0973234866391955    0.3298398725750696    0.1199873353229892
     0.1751152336468102    0.3775205154409897    0.1695752884970488
     0.0560901762276853    0.5515508883254692    0.4066239587127157
    -0.0336530363194076    0.2894277205421966    0.5658103657980069
     0.0512658744564750    0.6667825492249130   -0.0601075768729639
     0.0575022868998722    0.7415814688766317    0.0809745759707755
     0.1399172859942681    0.6403424619267180    0.5168092036943164
     0.8754319473212139    0.5182596141524750    0.6508473508740874
     0.1210619955912119    0.8393882907983847   -0.0543473244587879
     0.1917073545003792    0.9147697658465718    0.2404283291941458
     0.0649225843971928    1.0047978032506908    0.5833290214913863
     0.0022882654990425    0.9095550672936021    0.5178529117821590
     0.3540442501276933    0.1689505194116987    1.1912187174004147
     0.4850530380569984    0.1901051481129951    0.3943685436780267
     0.4933658228868794    0.2074917909138528    0.4984359989272490
     0.3749254632268610    0.5285123077955645    0.8304458719184228
     0.4801660351945714    0.4565852166421611    0.2919427928631880
     0.3790188974680527    0.7074157245525731    0.3092848269970521
     0.4062575118221625    0.4631827701211065    0.5518061010737670
     0.3426956683324385    0.5734040608458969    0.7225406118439314
     0.3952370543363699    0.7197551115894565    0.8487326819207909
     0.5584613570631284    0.5623305790606724    0.1414677594299424
     0.5039819278933757    0.7845333405913476    0.4381633422446374
     0.2478932230482149    0.7107555056095450    0.8798007144646295
     0.4121551466110099    0.7705202979507308    0.0143143158507606
     0.5542938870984958    0.2891870739186790    0.3521212791602489
     0.3640945473527016   -0.0779465254601310    0.7789142494779843
     0.2420122309132126    0.7921419239236952    0.7463383579211227
     0.9097824951164509    0.3815427768699001    1.0224634377441362
     0.9075942787243759    0.2817595172314445    0.3569093256213818
     0.1440469602104729    0.5444051570303273    0.4662734152876395
     0.8925228764613220    0.3015755997048252    0.7701775524818897
     0.8972696044421947    0.6551039959800312    0.1475383532505500
     0.7970720925716828    0.5953109179953483    0.3346120006214180
    -0.0888708958211147    0.5459394083805993    0.4299997407327976
    -0.0863120347049970    0.3275176705745811    0.7503054313463955
     0.1416435809011303    0.5882209911731432    0.1346432003230857
     0.9253066290605236    0.8888030932282518    0.3434251678210140
     0.7883304900982089    0.6945778680176653    0.4273621023001344
     0.1429242511740929    0.6539227224577607    0.9752000660686576
     0.8721956536246740    0.9144660169270558    0.1106155220493312
     0.9137909816503610    0.9982868944787817    0.3005727397669792
     0.7018979589108296    0.0845465068192405    0.6161140439301962
     0.8811985913917262    0.0842435591178617    0.8151911483452765
     0.3450111734308742    0.9847179998101785    0.9795766998990898
     0.3531343288114363    0.1300323589751130    0.3089568884989708
     0.3385543228592058    0.1966193499098090    0.5976612931513773
     0.3899508047899348    0.9891100539996609    0.4948615164960770
     0.5419905652864464    0.3318211435043381    0.8165589096270656
     0.6022264538885462    0.5011579824553343    0.1714382644734060
     0.6501721784342004    0.4660065047443311    0.2973648131466166
     0.5673565354779876    0.6557868858750370    0.8917597796324603
     0.5666565167842940    0.7941048101326691    0.9355098588440357
     0.3853994792161818    0.8647145072625368    0.1416786803026261
     0.4151891722794817    0.6531971491407843    0.4894980776917465
     0.4672847403316890    0.6348294739351564    0.6668983801069063
     0.6076971255627258    0.8524591729489674    0.7117463038008732
     0.3467517651552677    1.0062828170050582    0.2190926559406245
     0.6063700801873139    0.7868717289112419    0.4928505636699606
     0.6296201017001520    0.9483605546962712    0.7376434723012819
     0.0663222054909965    0.1387175249449175    1.0035516139055374
    -0.0532847215777893    0.0382122224175881    0.2937603252537388
     0.9674386309975731    0.2131689816929859    0.7418041465946924
     0.9272942013370928    0.1719959199812703    0.8301306240733537
     0.0487467674685575    0.2421402918769753    0.2740603734062017
     0.0894319493224392    0.6217331124295532    0.3155216123864625
     1.0366059710970472    0.3494921181341627    0.4951048602248991
     0.0043624507109376    0.4190776136285749    0.7857848429335550
    -0.0831418946343322    0.4667591525794818    0.8026121730360981
     1.0482952068204423    0.7330175779355629    0.3430485666013732
     0.0445267494550845    0.9027552677213458    0.6669351344010939
     0.0580547504730191    0.6603947063624364    0.6716469701252142
     0.9278769982249545    0.8373897623336818    0.9081730475179514
     0.2294655511196725    0.7428396481964428    0.1887997604300342
     0.7617252070801109    0.9515340733376879    0.3770459061079942
     0.9611707228067160    0.7663048355329976    0.4890986591794011
     0.3260795510558114    0.0634553373208172    0.9799613860823282
     0.3806012253081074    0.1744761804651896    0.3013232215583246
     0.5978045588290734    0.2303619975655525    0.4837360437265665
     0.4432322992371365    1.0061315299174753    0.5020454697948025
     0.5689414861682625    0.3868381265223803    0.8656113782440727
     0.5636452732943662    0.5185228391500348    0.2112009939813839
     0.6371665668108329    0.4728935550874285    0.3580144243068430
     0.5300364882949595    0.6290953931698033    0.8474358841893718
     0.5251509058318715    0.7588606057592970    0.9403252231451419
     0.4029026494056800    0.8348387352779273    0.0835578102815091
     0.4283973875971241    0.6385520087197558    0.4274488840617182
     0.5098152348135692    0.6696795531976277    0.6959981243791840
     0.6479347160878722    0.8505651169192491    0.7705074205220506
     0.3934060267695029    1.0298805144061662    0.2270725400707157
     0.5856178565654022    0.8353584557106882    0.5489664001552075
     0.6434336301918407    0.9143513827905245    0.6836821012808578
     0.0817949912241099    0.1623151087897237    1.0536048970251819
     0.9929805876167628    0.0042575898955917    0.2740855082996451
     0.9328902660913648    0.3041904897308860    0.6033520783889804
     0.9490521905538851    0.1575489245937851    0.7754555380492283
     0.0615491729131142    0.3025465975094692    0.3003173535848540
     0.0626083175904209    0.5678069194745800    0.3106411177420850
     1.0056322677902818    0.4312258178906438    0.5036487756220597
    -0.0325858981096494    0.3667361322623335    0.7625750622688525
     0.0406095839763582    0.6129876851463409    0.7435229864939091
     1.0524974166100873    0.6967799567574611    0.2813427034671040
     0.0922046089400126    0.8709725029465945    0.6641215065592611
     0.0152722276970736    0.6299177066077707    0.6113546275282038
     0.9564650876558705    0.7984189933680560    0.9417627424836044
     0.2253573814271364    0.7816141629095801    0.2426506382349655
     0.7865976673205037    0.9918433691141665    0.4214827068422594
     0.9043158966724553    0.8034608095733826    0.4882569472878635
     0.3480876806585977    0.9916751914539432    0.9392151120479858
     0.3373683983512081    0.1525852737753211    0.2805202460662391
     0.5901127541076996    0.2015501115459421    0.5303089987642241
     0.3955959968251011    1.0240752894545777    0.5329200636440509
     0.5555004632686209    0.3086787536266296    0.8432234946550905
     0.5994471610513316    0.4820779109822598    0.2019799146238149
     0.6386696307831453    0.4271274972202911    0.3060472330287705
     0.5392681348005933    0.6430089310339475    0.9104451733867097
     0.5666421977024682    0.7498957472773717    0.9041372428765549
     0.3701237829906982    0.8254392729817960    0.1242323136836647
     0.4257697002551912    0.6086234255704466    0.4715461269585884
     0.4882483075688204    0.6607662540378334    0.6502040443838187
     0.6486319764967479    0.8318822659447939    0.7131530820650647
     0.5328327254466686    0.8617327217279305    0.3754873155098227
     0.5744718519909872    0.7782648010266224    0.5019731443065348
     0.6159654517815552    0.9719253720968817    0.7111831186569649
     0.0379671718606779    0.1334818583697208    0.0244293693309733
     0.0091186859363009    0.8165623150764497    0.1405774002025453
     0.9938134806603964    0.1775747420717847    0.7197250594095240
     0.9432076510115897    0.1261790600337626    0.8250651235722811
     0.0556740183752811    0.2292293061670612    0.3096857005592552
     0.1181496943315593    0.5815120408835173    0.3142584855445402
     0.9976638305864490    0.3691926070956023    0.5006419681513877
     0.0131463352843508    0.3705765206549044    0.7878612509792952
    -0.0586907356039520    0.4679002342077412    0.7705709410378858
     1.0653166513960748    0.7581881396366986    0.3247349421473456
     0.0611239480645061    0.8910066082288056    0.6231133176590268
     1.0539694757428943    0.6755288729026319    0.6349491629374835
     0.9110545227711238    0.8456334451233242    0.9461718267090257
     0.2018729215751435    0.7282049215566105    0.2086720243292056
     0.7973902581617995    0.9499107688945709    0.3686513004681248
     0.9531286432580092    0.8059461556453755    0.4830946953644639
     0.1842505422835261    0.1142788132068594    0.1523538287711830
     0.1430377326503439    1.0307398896320614    0.3031289555647759
     0.1581919319064108    0.0893701601167690    0.4567621007809641
     0.2870364502762307    0.1619111391777767    0.7872016818472269
     0.2429918193715600    0.1558005118140580    0.9846755738960384
     0.3455753572316929    0.3453135788669455    0.3389998093100269
     0.3749635875603957    0.3241934274706928    0.5363474205997050
     0.2331844868158468    0.4068340974770018    0.9194469608186746
     0.3646853656361888    0.5024643381444486    0.1080949819814028
     0.3391195644530091    0.7314109081101151    0.4443096296824550
     0.3524283280861204    0.6427522486591162    0.6038019683949378
     0.2607584881410794    0.5498413110990357    0.8395151813107870
     0.3550087349636762    0.7501271192852234    0.1383362878520557
     0.3964043024395839    0.8038933180247326    0.3147777455840344
     0.2236174489564111    0.8569825333438088    0.6710049157868808
     0.2632357771506791    0.8799691711189811    0.8388545890768053
     0.8222551501486389    0.1891678883328663    0.0318043718196106
     0.8197345978791611    0.1220520860980302    0.3551948924305345
     0.7704199508775837    0.0360653130984079    0.4527257161741078
     0.7156748607759804    0.0626102982848877    0.6895362323484189
     0.8268518935769437    0.4193079835244183    0.1773855461492347
     0.9113245527632521    0.4028030131597293    0.3133436519341481
     0.7810492734464800    0.4964843637459985    0.8100277100237149
     0.7464422862820069    0.1675351599521383    0.8309625360003479
     0.9170532592116186    0.5775134338360547    0.1619239417292811
     0.7730472016761311    0.6420004245462283    0.4165433036891592
     0.8787946906620536    0.5371906348736326    0.4640085713434264
     0.7896326418117938    0.4771946258721416    0.8881030608644460
     0.0775186339638392    0.8891380183920855    0.3295060473100240
     0.7930235172818482    0.0392787317297221    0.3859748142853764
    -0.0316918970036471    0.6274689109266454    0.4330505368323799
     0.8085305359702205    0.7807582543687352    0.8005056036728323
     0.3491783388703037    0.0501763838469484    1.0083748528897469
     0.4000919114413650    0.1353932906088522    0.3011518610166100
     0.5640657724982527    0.2121447515378602    0.4749769337581011
     0.4231189437803274    1.0269188067155157    0.4735052154707562
     0.5297720401940073    0.3945891392217604    0.8685746954006263
     0.5414845086813140    0.5115774207641819    0.1711286765606475
     0.6192656877563832    0.5093439229400367    0.3474135759471386
     0.5633991647346336    0.6016255607927806    0.8368794236379176
     0.5093326148281625    0.8051511842809461    0.9361851992256405
     0.4327752488875295    0.8452448202712615    0.1159523175414397
     0.4551997739414174    0.6676307528653423    0.4554250161924639
     0.5077986346216989    0.6328736995930209    0.7107340491197803
     0.6378258527736244    0.8907837787690788    0.7567975562947181
     0.3868710400162562    1.0094965335216639    0.2625474693030963
     0.6048475276472651    0.8454294333214386    0.5210314969656853
     0.6262284251932442    0.8870366665504444    0.7030647661869026
     0.0699093818588049    0.2039356210948023    1.0394421780911427
    -0.0219126276896324    0.0166265357472861    0.2367897464316015
     0.9380918559176545    0.1683037359294173    0.7093406535179213
     0.9687317917689682    0.1884968739861669    0.8081857971278603
     0.2140746910677175    0.1463390182985923    0.7521891691767680
     0.0574821215489208    0.5865310361721551    0.2758584808310259
     0.0295028808888158    0.4138118861653120    0.5293465598018408
    -0.0355907524980535    0.3997982970378524    0.7399145786780474
    -0.1060685892840922    0.5264721610416634    0.8071820817773301
     1.0139296162309674    0.7159038856565630    0.2872737969702261
     1.0674797470612312    0.8399968361461826    0.6625959147912819
     0.0468019122471253    0.6062921679018087    0.6217113206943771
    -0.0247561950242089    0.8298827951573079    0.9275799327479720
     0.2170253685496177    0.8076817776965720    0.2163571205935766
     0.7698205574609571    0.9612319929211166    0.4351293958701022
     0.9140233788541098    0.7854605263928642    0.5237187203250534
     0.2800664601320834    0.1457640055909202    0.1455320861902081
     0.2304211035201454    0.9893370579050197    0.3817974876189266
     0.2606790960915532    0.1204379606989428    0.4532256916528134
     0.3823893080775153    0.0823618945358960    0.8028584405886978
     0.2493339482712366    0.2193688757032753    0.9188017247586918
     0.3856598967635378    0.3671396780316065    0.2621971725354501
     0.2953290260958138    0.2918365011167402    0.4780640994525748
     0.3059754444908819    0.4063895417648601    0.8720207351107171
     0.2985522327843558    0.5643675265887956    0.1946354497901367
     0.3583981981890924    0.6568833395277600    0.4118464396812553
     0.3897463212668655    0.6517443923491748    0.5853493883388379
     0.2782378446161986    0.6615133167527126    0.8409140229105599
     0.2678405057241691    0.7062614097170085    0.0849717399134162
     0.4537514451446606    0.8919560750060956    0.3272513673457020
     0.2434177208709236    0.8791644217358142    0.5849406846181421
     0.2916292363093525    0.9773951557771116    0.9459843892717413
     0.9088168762790726    0.1904189132263570    0.0928192343307383
     0.8778630888288160    0.1816128617602357    0.4488607068208578
     0.7934900530953175    0.0548950773751271    0.5485528806840392
     0.7577943658601941    0.0081748584402323    0.6764543462794065
     0.8100970612471976    0.4014293250341504    0.0714457067260025
     0.9484052568627347    0.4536356053295718    0.4250767968224116
     0.8328932740582453    0.5081343297398092    0.8095078300829582
     0.7555721065941003    0.1421914405217914    0.8853519894471136
     0.8589226611093002    0.6476809890584596    0.2401556663150001
     0.6715255129900529    0.6067046715862834    0.3841531776090658
     0.8238377591545287    0.4878121388018656    0.4895362153972603
     0.8149945686616240    0.5713726916252785    0.8849213434212366
     0.8767730499094137    0.8653025848616370    0.1681427696579109
     0.7077132937676975    0.0259150631770089    0.3512141476166141
    -0.0499668172957157    0.6065945502193771    0.4659404393370253
     0.8556827432789428    0.8286169281981404    0.8642456614459652
     0.3987933393563550    0.0662192557440200    0.1073797443030997
     0.3810743121567347    0.1612218576808969    0.2402278843928918
     0.5682149904949542    0.2881012620197117    0.5132866033677557
     0.4331947280139061    0.0628431638071559    0.5483714004278444
     0.5678148122033876    0.3456869172475783    0.9092140947896542
     0.5532997279862074    0.4613625749830904    0.2179224336456378
     0.5929241673982515    0.4471886014403509    0.3559940074475492
     0.5096166667981776    0.5780158035712146    0.8626796867448682
     0.4979054003776284    0.7322774890444110    0.8867450373232143
     0.4118647391077606    0.7743403763681863    0.0831883109538663
     0.4667459131356296    0.5841842729602360    0.4308363548647294
     0.5435053980521446    0.6377748569721190    0.6517610704092394
     0.6088747357195583    0.8735174507472764    0.8059797716088810
     0.4316491884321929    0.9878120001408559    0.2074069887724478
     0.5376184626764829    0.8551317337780304    0.5265007378340362
     0.6071075160863305    0.8825093537138406    0.6377269384388564
     0.0294988782386241    0.1825431849989822    0.0825056013541260
     1.0323674055257759    1.0494330150880435    0.2863127833320145
     0.9031996893877613    0.2069534267247432    0.6776522989588247
     0.9936751406773692    0.1111775989571724    0.7828888197209236
     0.0507723597657243    0.3059634889793869    0.3760534571870413
     0.1087125923236905    0.5265758990759078    0.2806143055332038
     1.0514585342807528    0.4467084370504939    0.4961388343370583
     0.9950750028179925    0.3231157134266316    0.7264122234141814
    -0.0542015969802085    0.5489292826429938    0.7772983376400452
     0.0625696835186997    0.7530582671615418    0.2728598192587952
     0.1116716730808562    0.8276059151767986    0.6083492234620200
     0.9972929208363422    0.5975122971944643    0.6326882116483974
     0.9452492409366273    0.8584752825155504    0.0007000853649338
     0.1722276986660796    0.7874949376344464    0.2580966420435111
     0.8378657250997347    0.9626279238428318    0.4238054265794735
     0.9029723970473967    0.8634466245286420    0.5237089027987180
     0.2344574511005959    0.1287881844972056    0.1095438532664781
     0.1875759401605810    1.0388718333450702    0.3929760147444251
     0.1815094555906966    0.1500504464154241    0.4528529064400439
     0.3625179485998214    0.1440961172785138    0.8310654462412074
     0.2640554681598360    0.2624494850344359    0.9853713723509557
     0.3854385794076613    0.4295290412204172    0.3481498605308184
     0.3295022381273138    0.3518539880278219    0.5652055862802546
     0.2191556246208427    0.4941874556704302    0.8968244865571965
     0.2787830635961220    0.5341424755368024    0.1518450446513266
     0.3232443821474241    0.6856446792573810    0.3692807019694889
     0.3377662313568041    0.7533520045266681    0.6670163241959119
     0.2503059668030653    0.6305202893666928    0.7916975345787681
     0.3273554091402203    0.8275309912516249    0.1311691879892818
     0.4043434622790823    0.9082237184797641    0.3566098722346211
     0.2237025045190124    0.9302442615086051    0.6153942479537864
     0.2553780558225013    0.9701621340102748    0.8941795170978575
     0.9154843844503017    0.1622145540190753    0.0465961197005940
     0.8509543718328642    0.2064178819029787    0.4188338210009802
     0.7352930793631242    0.0742588352899590    0.5449512386376392
     0.7418600772733647    0.1276577570829518    0.7749511373533670
     0.7687390334344195    0.4720636667139047    0.1145402212154161
     0.8997813998770856    0.4715766817928189    0.3742186688069974
     0.8009821561241357    0.4970836085529745    0.7134006487446614
     0.7630064693411881    0.2628403050159836    0.8920006892899432
     0.8027060382762921    0.7273988738916347    0.2087643952084998
     0.7178659545504866    0.7015292721274978    0.4148114851703503
     0.8768118975485206    0.5891405069365043    0.5194110704491629
     0.7430240715132808    0.5455046015786452    0.9473393031425488
     0.8180504138573044    0.8312829267463746    0.0868593322940333
     0.7991113390397051    0.0477579965254722    0.3249967955784984
     1.0529827578335402    0.6055357559463861    0.4865253051483719
     0.7786951603138701    0.8772235796990492    0.8608255112714398
     0.2134124542209997    0.0776069982360985    0.1356439191484999
     0.1726579288925254    0.9941001696506935    0.2842950600731837
     0.1898097801638306    0.0606244007244523    0.4362619657489005
     0.4278906750523099    0.9143562856063294    0.8283081245375008
     0.2777936365032925    0.2970825623087905    0.0460510632948054
     0.3421539933383246    0.3572046515476763    0.2981102316970259
     0.3806880305141700    0.2793500214641593    0.5115657765267952
     0.2443452612994270    0.3878012488853103    0.8747131323108730
     0.3690047829460887    0.5180006339455875    0.1521391621039059
     0.3072995898357599    0.7506640810457343    0.4269425073088956
     0.3789885757596823    0.6422261354171176    0.6392710627729872
     0.2385799008621226    0.5426133825506322    0.7998003047158383
     0.3465760599936931    0.7293332414288702    0.0946218407300134
     0.4205308786283455    0.8000658568567716    0.3434414159579020
     0.2567699110358824    0.8755752626824004    0.6658637925303686
     0.2910103836103449    0.9043417947627833    0.8418354626013210
     0.8468122163230840    0.1710690173961713   -0.0015662296833400
     0.8221167219613582    0.1030382076128658    0.3919876068278215
     0.7368105238084148    0.0179108134654852    0.4484606384721965
     0.6992554919734068    0.1000653428635393    0.7233368846413063
     0.7882097843756171    0.4284585742091644    0.1877149160354127
     0.9234779975520543    0.3639017406339761    0.3289219150681760
     0.7645508938949854    0.4584590858862281    0.7778277689090348
     0.7657088154106194    0.1961813629949877    0.8145715482109531
     0.8369236908156674    0.6209736002312017    0.1962903134672778
     0.7505867084485229    0.6798287673085548    0.4450189875637392
     0.9110805185464587    0.5323616656782334    0.4856961709016195
     0.7835157041938576    0.5077906672949410    0.8641279950040872
     0.7850748062068592    0.8990679579225647    0.1639890418489045
     0.7619465487236734    0.0501780744641971    0.4059261956813883
    -0.0089981215362168    0.6621749630875063    0.4514995868415536
     0.8041390618458432    0.7616241194751366    0.8362752772534129
     0.7067873399097130    1.0092362789672664    1.0010907542384060
     0.7894306503467852    0.1297425186447477    0.1389435809374968
     0.6338731279197664    0.3014534095095853    0.1840978971151816
     0.5969256137086416    0.1968374725181625    0.7247273642154617
     0.5999344967575061    0.2206607585592219    0.8277080139696504
     0.6911118025412094    0.2022416208416674    0.0373243449253132
     0.6011411431899626    0.3665835159101550    0.3569379850859540
     0.5984378971178771    0.3420730681228873    0.6511433542719964
     0.5892230758815387    0.4273793219468844    1.0266710317445267
     0.5519717185465504    0.6461564728605236    1.0806395895330674
     0.6238674010243228    0.5295484458944808    0.4257530858525047
     0.3749209665641972    0.5860732023277226    1.0437836527498776
     0.9361370622448063    0.8176809868590590    0.0802223445107847
     0.6267417595572522    0.7935136903628450    0.8119615101797081
     0.6547240784613099    0.8514845118135842    0.3134670881802301
     0.5766102096045460    0.6534517603656911    0.8060634816925120
     0.1268779644115235    0.8299328978436359    0.7729019684881326
     0.2887455654782134    0.3142249676022814    0.3944897024210176
     0.1445124136948388    0.3455718249193556    0.2336852194988084
    -0.0081915606083892    1.0746112059178814    0.6371046360435167
     0.1656797830259065    0.4520265664905228    1.0016452727764269
     0.3914109953927705    0.2664003336788848    0.2714541355717962
     0.1485446811452148    0.1094873157134025    0.2647645406734049
     0.1296382295669549    0.2308921861155582    0.4248865392459298
     0.1289891848909273    0.4615658782388576    0.7562813008855250
     0.8925989808402993    0.5297518361559075   -0.1228764424923009
     0.2468282638309976    0.5173038979980519    0.5150661745013473
     0.1533770261454154    0.4895753367099467    0.5374805958514509
     1.0016897535200144    0.8428096167346407    0.7484148263008070
     0.2400963612002184    0.6457997298252174    0.9447987684786524
     0.2273777682779522    0.7040296901934633    0.5089745928755873
     0.7731983827394641    0.8692442142487343    0.6204116022181070
     0.7272833012851386    0.9511134151885671    1.0088589423518979
     0.7509447763065967    0.1397837554505494    0.0973717578726313
     0.6515053826881840    0.3094818893412273    0.1408691733982930
     0.5948605453614634    0.2379897495082680    0.7795401528948290
     0.5948913872437261    0.1567032757182100    0.8057106258261429
     0.7179987248062687    0.1432669344026989    0.0191973046586039
     0.6102164089178612    0.2979970222473164    0.3627152908316625
     0.5713868059955799    0.3698163544526266    0.6131310772242133
     0.6422931237122035    0.4249859909212463    1.0462248143185102
     0.5266743149449531    0.5978997610184750    1.0762130903621756
     0.6418268204080581    0.5703516363598887    0.4886191450904614
     0.4026063174744584    0.5704132233296678    1.0935559223382780
     0.9470988587803132    0.7494636602554208    0.0405631823021265
     0.6606551194890012    0.8393686826284467    0.8068002096535311
     0.6038254849191459    0.8850893991576816    0.3345603277412362
     0.6236311945976467    0.6734123735926367    0.8000441667419673
     0.0806759234150817    0.8616739053925103    0.7779739812901154
     0.3118152913202296    0.2896579552960288    0.3448755192694130
     0.1368718793712279    0.2981731236403996    0.2684913756761954
     0.0220879365340646    0.0938002522990513    0.6942278256128452
     0.1541196169369246    0.4220214597737420    0.9393210904799876
     0.3886472323163420    0.2990334622572179    0.2355995917595699
     0.1521811633368933    0.1830864366811252    0.2790028172209895
     0.1110519480890778    0.2968937120634887    0.4651934024744923
     0.1434521783771674    0.7205794854574599    0.9453447029663841
     0.8751057466108370    0.5934805075251604    0.9048974523841765
     0.2337987331525339    0.5325914623648794    0.4613145073312261
     0.1082160079993237    0.4730798887334121    0.4959875409855706
     1.0193322739292765    0.7790941213351589    0.7064986147517075
     0.1756283941228108    0.7809269944952619    0.0709001471317915
     0.2188157725986254    0.6529812535794266    0.4517918713091832
     0.8122771001469564    0.9034961038732577    0.6598549884625315
     0.2667110988264921    0.1891170596563535    0.1731710583828158
     0.1982287390650124    0.9650537423937225    0.3842642999031327
     0.2508481601003223    0.1431195348213978    0.4976148079853521
     0.3712178338063271    0.1052297836624683    0.8486848964794657
     0.2832318195318939    0.2347969257692064    0.9433168843519825
     0.3948423805231038    0.4106260208614015    0.2844605721148822
     0.3277310117344784    0.2614174451379650    0.4667180736568747
     0.2973036796433127    0.4377030166800381    0.8527889136579428
     0.3393894935673125    0.5610524813810551    0.1991404570137966
     0.3567051901874619    0.6783998130765909    0.4572306379289927
     0.3643979103129292    0.6890935638949801    0.5701712353285470
     0.2647107875506077    0.6555936304256600    0.8785702453370905
     0.3074260300586842    0.7073948702072597    0.0739507814629358
     0.4585612088815446    0.9038266753266000    0.3714084752467526
     0.2529058748958142    0.8424609008989365    0.6036222475965041
     0.2681873745240161    0.9536639195351544    0.9623419240648837
     0.8789917965862802    0.2267631390073064    0.0989090658095027
     0.8737336969658038    0.1395086335713673    0.4488506592132829
     0.7617841168561499    0.0337382933265525    0.5619395809438027
     0.7478662000371872    0.0400958557271173    0.6563732567232841
     0.7973516760934238    0.4510828988495398    0.0801267081934923
     0.9087518282336292    0.4534402957097632    0.4318475033749578
     0.8433435650474180    0.5119596187265226    0.7701239762205795
     0.7889883267475254    0.1386770274661581    0.8635772513887103
     0.8762198170863826    0.6328119520757453    0.1995205006272206
     0.6832802725269254    0.6168136632760556    0.3499757097409367
     0.8569236458325876    0.4744490760082370    0.4721133375920221
     0.7762701242515838    0.5911746448236577    0.8850115943633147
     0.8571210036393280    0.8442900572624897    0.1945658063743811
     0.7149423484939272    0.0523575401674733    0.3945779105849361
     0.9726391830142559    0.5652301422397892    0.4667605795274297
     0.8412661921245949    0.8694188526933951    0.8710261884466243
     0.4949946901233743    0.0141836564736630    0.3188856440486708
     0.4001816656887889    0.1778497820630400    0.3661173821590179
     0.3933594414337037    0.3709283289709087    0.7355770612590792
     0.3168933289025430    0.1193083858968076    0.0388288805582649
     0.3619708975761098    0.7881127714582825    0.2087857821803741
     0.4129991522030528    0.5893078386279418    0.5541124891265414
     0.4336622373452507    0.5419704828384317    0.6131647366688274
     0.3582269766414385    0.5332797547531475    0.2261861087454090
     0.4355217925797268    0.6321941622724859    0.1847937989121803
     0.4968330026817431    0.7651018576442336    0.5793167026638988
     0.1923821132709606    0.8399365576740047    0.8384485093905080
     0.3539238230786313    0.8328343120380249    0.8405554286349594
     0.6289579185034969    0.1336205447190381    0.3473788643216282
     0.3693142935990442   -0.0387504186558998    0.6632509139303462
     0.3738216813741586    0.8202005138961794    0.7104143909319256
     0.4126211840743767    0.8635760881728303    0.9001150969978686
     0.0080475090006331    0.1864879037022626    0.4224031748188237
     0.8716443812675269    0.2072807316877014    0.8031452013337673
     0.8405291856184453    0.2313307947413197    0.6176102655198891
     0.8958254726389269    0.4073076061594034    0.1672869336832679
     0.9304132865389938    0.6364191715052809    0.3317524437525604
     0.9535702015240441    0.6894970503136372    0.4411064075892850
     0.8672159388611720    0.4913497534916698    0.8529297884737564
     0.9795612910444597    0.4892868531377599    0.1290494479108467
     0.8420190050054910    0.7756598846883188    0.3351191281212646
     0.8664632906937609    0.7966593284537461    0.4619014698177017
     0.1759372504219122    0.5608207415032780    1.0288850926313879
     0.2235937864287893    0.6608670542830117    0.0528021604500710
     0.8309043941599331   -0.0532885751138078    0.3048091297061382
     0.7393217118616946    0.2049580317020263    0.6890209584978467
     0.9352792767958785    0.9273322094363429    0.7416597496062456
     0.9307804368932807    0.0188951017678353    0.1580272871988912
     0.9877337847841143    0.2236231026432216    0.9663872494406677
     0.0430737249146705    0.1053170455897419    0.1743354988596413
     0.8922693335188480    0.1457180818618443    0.5940948774130353
     0.0827399719612880    0.1133600193543151    0.7926066326047803
     0.0019777907040794    0.3717082889654033    0.0243861562967573
     0.0976758331155634    0.5181002958546561    0.1514165856767957
     0.0807553537090275    0.3918400160336575    0.3427841215709824
     0.0093117235792391    0.4076748955126713    0.6276851175493751
     0.9355600802042324    0.6594496840300861    0.9168032056364942
    -0.0057846181910902    0.8406382618190792    0.2246445827035130
     0.0825792276516233    0.7915158495241943    0.5180058765791662
     0.0231813551423389    0.5977064724975512    0.7677227684223976
    -0.0138732758895306    0.8817713883284592    0.9290564158865149
     0.1421012272907707    0.7444834009451538    0.2015000332131445
     0.9344065462070590    0.9296331400226253    0.4070355091929751
     0.9523682862685794    0.9852045256337830    0.6171881920826785
     0.4743123466985266    0.0113290714988445   -0.0608081688623304
     0.4285105227481417    0.1611217502173128    0.1578491976563037
     0.4761356587918517    0.3454726926906637    0.3737216467649497
     0.4291090570089229    0.2155678236847258    0.5511205274401278
     0.5083526735492973    0.3250322859514663    0.9985878001376433
     0.4896129248646400    0.3741290823286850    0.0637565149508875
     0.2478961232440441    0.8326721090731286    0.7775940526372694
     0.4351934134812031    0.5175702125075814    0.8527495411050389
     0.4942756132334820    0.6640362741030897    0.7807454788815701
     0.5333290393952114    0.6935378509118886    0.1290757742450842
     0.6582869416048260    0.6419705243472190    0.4348338269330718
     0.5881187085122543    0.6039485172113842    0.5476635397396638
     0.4703631476046757    0.9150843791351615    0.8366134334991584
     0.4821996095551153    0.8765794738386055    0.1656184561162542
     0.5153785915358229    0.9815404298429045    0.5083826173989575
     0.4710003610363727    0.9406336588668980    0.6124587395231463
     0.1632585918928519    0.0058613248522887    0.2029443210695124
     0.7486693996108091    0.1275726351972415    0.4718370893959264
     0.0213958530188403    0.3167461566891828    0.8288976349862801
     0.8465797204915912    0.3478756854749060    1.0484442838936563
     0.9663427642301280    0.5837254870472487    0.2367720562254255
     0.9404382555974338    0.2646353197636581    0.2155068917914242
     0.9171868896738953    0.3601498023069840    0.6731598834373157
     0.8659761550054494    0.3631004695869348    0.9434831307466569
     0.1060708604276524    0.5876753938424539    0.1867470270910532
     0.9546947741933741    0.6751756580819909    0.3029176448805409
     0.9870027200321104    0.7577798446115910    0.5817577954147026
     0.8161951452663461    0.7417850737631351    0.8962930872163826
     0.0882830310429050    0.9668087724756853    0.3311394616761515
     0.9417783876912054    0.8692825575569392    0.2754312194395599
     0.8484751716224389    1.0640601555941815    0.4522225499023222
     0.8409272230292710    0.9532341000316520    0.8904153759236513
     0.5369975770867317    0.3686875749691620    0.2718483627709139
     0.3536140594968853    0.3828161111846820    0.5371621009111948
     0.4108262171295450    0.4199845920879783    0.5680898866769093
     0.4065769797381335    0.1568291539204284    0.8621066198338719
     0.4590913553376059    0.1535648348595053    0.0717762207974176
     0.4894093631539925    0.6014599010748348    0.2862968212833003
     0.4434960463485805    0.3849186968052998    0.7833562052484904
     0.4662393980614028    0.2820277175875653    1.0000816659537546
     0.4449530734490433    0.6698882297916329    0.0392785092758912
     0.3780049838605619    0.7153275828151670    0.4281961970952769
     0.5209207175566856    0.7012791943168631    0.6657221979935629
     0.3685246288027129    0.5575784510529133    0.7399999769086871
     0.3643595003418695    0.9933690734700589    0.1092753208682031
     0.4689375021525055    0.9942015975963141    0.4081188883100342
     0.4279888281618049    0.8153298905012988    0.6667168778166588
     0.3609642044848219    0.0933167494469432    0.9782144456508666
     1.0574206291358446    0.0245640822696907    0.0192561134622726
     0.9235627282747646    0.2941782692140473    0.5008117750895658
     0.1265787464899294    0.2579601329940395    0.7208501695966469
     0.8411789043606058    0.3214342695528547    0.8635498868955197
     0.0157936110466318    0.5509826023582760   -0.0019172793925027
     0.0093626079926853    0.5012368914577501    0.2238391176720951
     0.0273866893178528    0.4762694416842275    0.5691629658395937
     0.0706999926657635    0.4323734099050182    0.9108817738472895
     0.8896199258198906    0.7148950427853584    0.0734941493849674
     0.1199221738722774    0.7100630152401486    0.3829266938250909
     0.8188956767952171    0.7344288796155100    0.5143382662896580
     1.0366092591160887    0.7013408947102566    0.7948417185910571
     1.0183865947161983    0.8630226137958481    0.0782469289044981
     0.9737482520676142    0.0494534747989507    0.4142211404719602
     0.9215674232692825    0.1355148591393315    0.6644153403856822
     0.0362303528436962    0.0285505077343160    0.8786460655854164
     0.5422335936576475    0.2943980955356263    0.1197683574571372
     0.4932243156197694    0.3019199641352852    0.3299323299784708
     0.5006444648822020    0.2506827284678754    0.6711184511058007
     0.5924431090854243    0.9653131919335908    0.8729206672827963
     0.3398047421704107    0.4121122457549927    0.1191823847708045
     0.6043403422321658    0.5660568114883413    0.2065016857756979
     0.5320614453772088    0.5757167648298587    0.7544700951743362
     0.3842365778669186    0.3839038353641336    0.9584429958375771
     0.6903832749154440    0.7240632670173609    0.1396098473487172
     0.5474715968709457    0.7542060224981142    0.2989573682097623
     0.6783124795847768    0.7730877905767097    0.5966880801685784
     0.4808604651452339    0.6292758089472128    0.9593798901834013
     0.5130046145527566    0.8033098372683188    0.0035690586343638
     0.5301585090171587    0.1661200352728756    0.4294385368165834
     0.4040286090707985    0.9522739663724988    0.5352030481666670
     0.4932998377191876    0.9459489658143233    0.6997115579254458
     0.9211613376288919    0.2124136651892772    0.8870243944425401
     0.0621338120700277    1.0215399983204976    0.1822965785834355
     0.8935320303021722    0.2154755666242894    0.5425584097791807
     0.0583979473094224    0.1681016332962890    0.7866237381229478
     0.0145594200111240    0.3554380001483425    0.9406394407161749
     0.0592681818722237    0.4789014695425398    0.0637022659538520
     0.0710457392060926    0.4859190661849501    0.3388290667166495
     0.0373160645115544    0.4604540242740696    0.7077964542844024
     0.9788210776799493    0.6756262546849147    0.8721823286836632
     0.9649967871879762    0.6784926684020048    0.1825056605560982
    -0.0065932536455120    0.7653485039866719    0.4703038570912986
     0.9193062182844390    0.6866101939375914    0.4208364789101474
    -0.0237470108317749    0.9471624712223657    0.8799280578025729
     0.0400473660340800    0.9840753311574515    0.2058943264510833
     0.0226901334895921    0.8827399549641619    0.3984291584006160
     0.8649295072776088    0.9870027776092526    0.5723481020277833
     0.4962886895211365    0.1011603611595861    0.9459547555153108
     0.5057096634140759    0.1843522522979006    0.1565367006331023
     0.4436388162550778    0.4061797041079420    0.4446845262181007
     0.3883936516919827    0.2889416800356953    0.5765431699228347
     0.4779442774282222    0.2678463557836464    0.9259441422323467
     0.4191828946086771    0.3307137638923763    0.0710897786074776
     0.6116450338622803    0.6295463125906496    0.3670215397515205
     0.4245335689256118    0.5082652920361390    0.7887540575815131
     0.4241052637872778    0.6569532108049846    0.8191996443125690
     0.5768865882960206    0.6887271292906656    0.0747083697848716
     0.4906059620228331    0.6676590606451265    0.3836556298823038
     0.5379204019572443    0.9332403054942292    0.7097210287865511
     0.5283946069127600    0.9953704469531864    0.8307478121192258
     0.4419464288174566    0.8624379523841329    0.0794844795173076
     0.5009759940126356    0.0612419698404604    0.5316665628174433
     0.4608486724402682    0.8910793865519906    0.5311343182809718
     0.1385294440760981    0.3627645377715808    0.8629861428551339
     0.1985634214025026    0.3269671733387486    0.2217651161329605
     0.2010615918793316    0.4401742566570859    0.4860923061836482
     0.3136874648341021    0.2640244604432685    0.7708582327037365
     0.4025569606947650    0.4916274562379129   -0.0437270543889452
     0.2115012736019747    0.5607207766374618    0.2214332798959963
     0.1689209138997021    0.7431551348870848    0.6161524797001265
     0.1874424324877173    0.5510369295383081    0.5965237928058504
     0.2149371692980125    0.6821610615919500    0.9280967436049360
     0.2456860955233856    0.7345217402620964    0.2679568116952187
     0.2477903955616872    0.9914495508190179    0.4955484889597304
     0.1283054264237568    0.8073484398296429    0.7082766234314964
     0.3095401969511518    0.0664728662111291    0.9351632246204336
     0.3192961659360785    0.1173173495117217    0.4381273099313570
     0.2370251986721356    0.1533131154981612    0.6217778741987210
     0.5380828595779312    0.0837901213834421    0.6692133905347447
     0.7842003874476645    0.2415005201702541    0.0007994872818417
     0.6475477457925500    0.1222115939208944    0.0546113006327018
     0.6913624154123014    0.2640888223098506    0.1181826226443872
     0.6633030867422749    0.1944727049586098    0.7026471410952559
     0.8006759286962650    0.5310992277842649   -0.0018638040505945
     0.8061225117708751    0.5685223269347407    0.1761566154919901
     0.7219355730502293    0.4371302984788626    0.5280279514740329
     0.9080212651924631    0.4461498509203742    0.5568556524761090
     0.6534602201784795    0.7874232950697562   -0.0392648783933982
     0.5945931129719650    0.9619367624660745    0.2508210831422725
     0.6800376259491729    0.7408025388637631    0.4572825005922828
     0.9054904248831999    0.7177460191513982    0.6950437776112118
     0.8991791917270556    0.9523112829669066   -0.0170824571490400
     0.7732092356824417    0.2089346790717315    0.2111670856918657
     0.7380003952874473    0.2266162589390851    0.4377472360797485
     0.5539503900359913    1.0714030942138406    0.7990327346804295
     0.0511902268712037    0.3330324961822389    0.9813292020522337
     0.0897618765661607    0.0772665971260945    0.1399941569517663
     0.8388146834203887    0.1562215600906355    0.4965888106262037
     0.0484482747560045    0.2711496619918268    0.8287067511820809
     0.9538015139838660    0.4076085816998392    0.9950956144658405
     0.1679931376749433    0.4666388234657559    0.2409441362858457
    -0.0049286710500938    0.3640595719585334    0.2449967463840130
     0.9863615422146128    0.4790010676576158    0.7242773655209199
     0.9153013887785683    0.7342045860354920    0.8892915530352482
     0.0701801825597016    0.5481761416182978    0.0091292063178849
     1.0110262538182477    0.7026384172165450    0.3844232693906162
     0.9448460035876728    0.8009560207058275    0.6055520223525757
    -0.0621812856151358    1.0285266867446692    0.9284261719154838
     1.0203163154019090    0.9592232877995118    0.2420379449381516
     1.0149446954908159    0.9478051211980977    0.3489628011965563
     0.8955631601501733    0.0545743100841603    0.5743481380690870
     0.5645054526645735    0.1756439940482546    0.9300596948690455
     0.4768067927819184    0.2809997841386693    0.1875481347525603
     0.3900376299242176    0.3942679515433739    0.4390954177154500
     0.4702075976381849    0.3111404843780643    0.5933710702733630
     0.4142142387348794    0.3580915835416372    0.9833135772597996
     0.4711351490238638    0.3102910555332317    0.1427127810816721
     0.5448587368034470    0.6072648629037399    0.2889156229694927
     0.4183424671392637    0.4706632877792879    0.7371354390092303
     0.4021162137284403    0.5841131960001249    0.8381876952903020
     0.6024817927157357    0.7914220970365561    0.1148250941244980
     0.4700897638219974    0.7659661786267856    0.4093578469701755
     0.6259276334550464    0.6832185761189740    0.6697305833391254
     0.4713851729964380    0.0248713316701559    0.8677707912534028
     0.4456223059011895    0.9504631122370327    0.1198549329961971
     0.4670726681416983    0.9475055964711697    0.4773275026180426
     0.4152115849372478    0.8610248658772764    0.5984453860360500
    -0.0059745240285617    0.0729350502006957    0.0756992220317476
     0.8414876812571396    0.3136391452525907    0.4880059014613790
     0.0984449377629157    0.1565909556825371    0.7033469867772433
     0.9228587601250012    0.3026764195185468    0.8240504292188685
     0.0567778319901518    0.6167338043525394    0.0672146384245362
     0.9781151436563109    0.4118616883794977    0.1684006198971852
     0.9515373757005418    0.4757566792001346    0.5843660698450104
     0.9980533458566035    0.4940985574506412    0.9076098492209281
    -0.0393574435850423    0.6890626114128759    0.0276030474062666
     0.1054113410630023    0.6486084399559922    0.4281932583579912
     0.8374521347793336    0.6616797921697130    0.4226176009055521
     0.9742823296644426    0.7836583487814114    0.7997818291396721
     0.9718551703246311    0.8347103797936193    0.1481405307512830
     0.0396353556092247    0.9988550743623232    0.4643350513426346
     0.8455269606808916    0.1151897317085815    0.6942214873786458
     0.0397912657735360    1.0501816129224848    0.9743609069313659
     0.5920697057073362    0.2510526688316665    0.1725826345506424
     0.4328846460035324    0.2342702848682669    0.3364932950249842
     0.4259122414844192    0.3132684797684011    0.7193899768165601
     0.6323849122850259    0.0635223367323903    0.9102233023770757
     0.3451059577227251    0.3422254165860989    0.1705094997205085
     0.6649220032460614    0.6877273863990871    0.4962756843100946
     0.5486070863451247    0.4819155290656162    0.7130133544358959
     0.3598476834051873    0.2896321883738976    0.8913081797209309
     0.6808058923861727    0.7088849263666467    1.0405802864163149
     0.5238746848131831    0.6497660170647901    0.2775642432613685
     0.6003062927982005    0.7423028274840658    0.5467679251826922
     0.4748373518290764    0.7075164268160797    0.9229405427552894
     0.5519795675934153    0.9041562570552922    0.0422142602847982
     0.5752640856454175    0.0797478369480433    0.4434810187382547
     0.3404735004384781    0.9434365325384803    0.5873823162562076
     0.4211344439675398   -0.0220801094028565    0.7320631433718869
     0.0100638883829069    0.0743431175481460    0.0239699397460989
     0.8816997786835316    0.3248025171246711    0.5501689863700340
     0.1058379425638745    0.2024457493955294    0.6697274218584079
     0.8686632422411342    0.3164726824198108    0.8110998384127700
     0.0463849917282902    0.5961623936871485    0.0057980653505168
     1.0342104996466521    0.4263020023704589    0.1815514907332959
    -0.0247466098973621    0.5028149026724212    0.5532339156394773
     0.0050558966411901    0.4259793613028595    0.8797827454781362
    -0.0916240484121552    0.6692884525305537    0.0117643699119949
     0.1240967464649068    0.6397032018795362    0.3742259072967969
     0.8011119140033832    0.6764560811859301    0.4756144411049855
     1.0201414388329255    0.7578178683505156    0.7792588253034043
    -0.0147965716560255    0.8236662258230304    0.0824746700276943
     0.0169906841710392    0.0557552093995992    0.4592377794468993
     0.8903322692126779    0.1433311411405248    0.7093599744672442
     0.0733716347671464    0.0298050924281826    0.9199862383354642
     0.5912670606428333    0.2650968832940658    0.1188319297140310
     0.4665036406545173    0.2460189643570775    0.2991577563659610
     0.4640489204646895    0.2665170654016407    0.7239866923950778
     0.6432680236321381   -0.0000408061929709    0.8998130849562547
     0.3210398537192776    0.4065681298037371    0.1800869786268752
     0.6504790169626057    0.5251746875239722    0.2208385367860751
     0.5460089489484000    0.5422463906956100    0.6978455898510297
     0.3637913512790663    0.3465634320825948    0.8850941433487851
     0.7148537004581547    0.7311333682817035    1.0877317485719296
     0.5380012094877434    0.6927952840762279    0.2526261646485923
     0.6339601278753086    0.7893428497782822    0.5617819436192459
     0.4696921978926473    0.6971411476276402    0.9720930424150843
     0.5492178935153836    0.8457171431491631   -0.0086038245609494
     0.5693845700961708    0.1172623362251730    0.4020228092696836
     0.3394476238793804    0.9356756767952797    0.5285803353591771
     0.4433741007139521   -0.0194768024543224    0.6857922234352093
     0.0378341138136734    0.2880860305894915    0.9214915764907079
    -0.0061243198817441    0.1910366045003613    0.1283611864281888
    -0.0360317342209060    0.0759801257940287    0.5228012160352651
     0.1241193919853868    0.0655311901514838    0.9274792255598957
     0.0394294249439554    0.2916145785372671    0.1093146804071038
     0.1996285572389931    0.3634551416896231    0.1024253546771030
     0.1141913954634597    0.5366076961225181    0.3684324345446387
     0.0035066179934378    0.2963016737351881    0.5097057151895463
     1.0133219537739038    0.6999188002681581    0.0082459206047128
     0.0718930827359523    0.6730903076913226    0.1018969500551392
     0.1120172902400618    0.5941673157606526    0.5436513837382968
     0.8242571299933590    0.5672572785114811    0.6764082544070986
     0.1407865024023583    0.8319773604120703    0.0591509440989416
     0.1917253883742216    0.9412379992383229    0.1803764337133065
    -0.0110581933835554    0.8111267801412676    0.3808438282693019
     0.0024420190259631    0.9938067504979009    0.5469199141259046
     0.5374135218564144    0.0859999552383278    0.0799187681929026
     0.5385256303370314    0.2021766391635809    0.2397371470658906
     0.4949856566335674    0.4544524090804151    0.6152613962985191
     0.5546693593794924    0.1199640699432340    0.5823085231873720
     0.5891596885417570    0.2018478915303310    1.0024869019391949
     0.4364839110448134    0.5103718494014116    0.0754576449158047
     0.5679359356477457    0.3891270468155489    0.4692635530556135
     0.4042558282701696    0.3138547686991984   -0.0280872293553369
     0.4369249735361463    0.7930686600822381    0.7498012259733082
     0.4458868003075354    0.8744170822347300    0.2809376649510318
     0.6610981590789883    0.6433674374359634    0.4936373507920612
     0.5858211567402180    0.4515500165125457    0.5597648092665016
     0.5246019094624916    0.9553857498453248    0.9495799562100061
     0.5332358260399604    0.0326919240748195    0.2280922557456618
     0.5582491546844226    0.9246601990957984    0.3496953796565745
     0.4984227804761643    0.0737627833911639    0.6170234883224819
     0.1847326654151257    0.2051456989224521    0.7831006959006797
     0.2174855988032327    0.3410694946064881    0.3157006653419240
     0.0904611105038019    0.3591568524738418    0.5746886279921767
     0.1124074323251230    0.3490280341437949    0.8152567091158639
     0.2216171485464291    0.3604747388682029    0.9937227223207719
     0.2011029788590902    0.8117859723625914    0.3869749302128599
     0.2857262793157551    0.5183682881172648    0.5676363392884944
     0.0822104850097332    0.5011421300251507    0.7825972928341762
     0.2183454262143912    0.9462514298964929    0.0402428441271407
     0.2715648944084076    0.8079139473003252    0.5023736421547738
     0.0530796035496452    0.8521833012087756    0.4989522831980615
     0.0377078903017608    0.9433562756218251    0.8523305844112022
     0.3283937967405927    0.0776194016397981    0.1400304322114978
     0.0743442814270176    0.1226899245620081    0.4214282647301817
     0.0580839111188842    1.0278120459762177    0.5339666776192229
     0.3464511765775852    0.0910338849177764    0.6302622497556594
     0.5975574286512660    0.3821302954183031    0.0784318161808706
     0.7685349887916806    0.3484272607602905    0.3427192960339179
     0.6295941790716930    0.5014884118238556    0.6830208623905153
     0.5732065526024874    0.3535072145244569    0.7490740096465195
     0.6952171099880002    0.5421594287695034    0.0547619230297874
     0.6260007942250998    0.6855299697080917    0.2277273886187899
     0.6949513968171147    0.6240368358563904    0.7099344016785883
     0.5885285010026419    0.5411529246452118    0.8185929859703659
     0.5636623500263699    0.8736978125221581    0.1978028863980524
     0.6183745593871685    0.0853675063839188    0.1693533930231310
     0.7129370743442163    0.9312490396733197    0.4524189283672551
     0.6839553381821051    0.7568585321785402    0.7032979081314336
     0.7697749308547622    0.0109993492043420    0.8730387699784558
     0.6879012857626864    0.1573348983325912    0.2409112058870172
     0.6196670995342608    0.3148594107069055    0.4307093228732021
     0.5821209825882984    0.1380427322800199    0.6507674746005626
     0.0227413827739892    0.0159129536881814    0.0321712786351146
     0.8904106799975989    0.2896298770803768    0.4757305065228160
     0.1418341547875878    0.2173830793199747    0.7304355594900110
     0.8700024083682396    0.3472490367839449    0.8724037405350111
     0.0054887683428834    0.5800757169124660    0.0349252975920997
     0.0468058985346024    0.4823928234486228    0.2127259390432109
    -0.0019111297660684    0.4536098763210669    0.5771583674563028
     0.0513884443416112    0.3920559243261801    0.8883411116345178
    -0.0775060971797213    0.7239261803354459    0.0634917505583309
     0.1153072018142075    0.7008300800967737    0.4226859787742125
     0.8226518996531159    0.7280224358064172    0.4700825360606758
     1.0005135028329299    0.7001068386777775    0.7814087584779673
     1.0381601543399550    0.8405140200495163    0.1073444111345348
     0.9727612208133865    0.0388851743955626    0.4530219602281898
     0.8818091836581180    0.1436741208776572    0.6571068975045273
     0.0200853198087765    0.0594935705222610    0.9173355919081092
     0.5541856532655517    0.2953013288780970    0.1617624126530881
     0.4899020295561192    0.2659362881508819    0.3513191130868107
     0.4865204128633437    0.2964663892678608    0.6863271449105632
     0.5966970473949522   -0.0003565500663303    0.8552929977625665
     0.3290356114589521    0.3698960924686961    0.1174183805650730
     0.6362676168914017    0.5849629264787959    0.2300650959346489
     0.5457028857564541    0.5282834512273857    0.7548544548667339
     0.3816580173989672    0.3963866494496102    0.9202173963744974
     0.6800045986074753    0.6927870940421257    0.1014221480614860
     0.5660813686212608    0.7141181335184051    0.3082170717207943
     0.6668627047083963    0.7359066264859060    0.5599572975361933
     0.4959260637230058    0.6476174707025905    0.9263954209986492
     0.5011096687845854    0.8373377625068505   -0.0109072714978558
     0.5587246639906509    0.1563153319550732    0.4539373581227945
     0.3845260942363348    0.9428172788223558    0.4954739428704643
     0.4642917893651030   -0.0621803098157462    0.7159707309490551
     0.1812689682992548    0.2569525714118593    0.8425483328441616
     0.2030714446916765    0.4014460294770049    0.3239379796255700
     0.1791027417760156    0.4006928172565609    0.5735159259412387
     0.2112051113129974    0.3214295593633927    0.7932073377112356
     0.3050127856988517    0.4238082563143601    0.0394357669436716
     0.2248443052060328    0.7437655672976083    0.3081605569441441
     0.2580245309948164    0.5789047150269603    0.6006342884412578
     0.1064052404905714    0.5390171434611849    0.6713599053998556
     0.1970338368315117    0.7988565402197787    0.9715492936045134
     0.2680866644416180    0.7924635537426942    0.3809463926573731
     0.1545303621380299    0.8732891553961071    0.5351217047276291
     0.1097286600844937    0.9630646597625568    0.7598011708612534
     0.1337208745216225    0.9347614398784977    0.8762648597167324
     0.2301661954012837    1.0293747296641014    0.3206075918187943
     0.1611902367510612    0.0941519766539548    0.5869065142227055
     0.4709330560820136    0.1055029685962233    0.6626433540536868
     0.6677753699420123    0.3791252722775639    0.0600073328603664
     0.8076488874174121    0.4272429169826781    0.3226637172410667
     0.6811032057380993    0.3843481157545496    0.5876971839481880
     0.6833884977615877    0.3606531030606988    0.8138632460122229
     0.7135619538366730    0.5822267461330324    0.0202907019133650
     0.6540345816174794    0.6254647673313605    0.2259012954249618
     0.6891433644707319    0.5421992511949347    0.5685274028460623
     0.6845082425383165    0.5567504636802271    0.8349458552542210
     0.6112175603001044    0.8630453693694333    0.0878702392410863
     0.6541655546727974   -0.0323123440263884    0.1731061210923460
     0.6868830393468809    0.9055260836214435    0.4791347513380317
     0.8065512118003265    0.7259268247418778    0.6777068952301553
     0.8140863314067720    0.0871337707212712   -0.0321802463191092
     0.7054661007072333    0.1813826137067496    0.2854710041290018
     0.7119848887884286    0.2250759994380124    0.4043065848088224
     0.6153513140165369    0.0564017351989182    0.7053788021170048
    -0.0031444716818851    0.1162506021419610    0.0741721704438773
     0.8290278582616499    0.3368650466930831    0.5284790436201254
     0.0691327133695540    0.1712041771686602    0.6846323894986959
     0.9093766524116691    0.2636291072317488    0.8025944731994528
     0.0907884838429331    0.5983061825758000    0.0542166499928401
     0.9687269025478072    0.4587750845378379    0.1847010322179017
     0.9344016709401501    0.5207276636791764    0.5949160260573444
     1.0324601279412369    0.4855632645629362    0.9296416575388725
    -0.0384337805302579    0.6426907543340021    0.0091122162861391
     0.0905967486397489    0.6140727698052584    0.3934025186866507
     0.8432269941865081    0.6252184976205095    0.4419806695638021
     0.9976563638317795    0.8135266389680758    0.8294357635932857
     0.1010482279015137    0.7684226927165684    0.0859591766824150
     0.0624024773791691    1.0060810277179890    0.4271754988230425
     0.8657532912601478    0.0940660777243658    0.7193317339982181
     0.0684077940228439    1.0190719782084892    0.9764231494682010
     0.6042513385370492    0.2081632654264877    0.1454191884145270
     0.4099586516363390    0.2584154208627814    0.3166289506558695
     0.4096683602409502    0.2811720485646280    0.6941724447183556
     0.6355633369150337    0.0548582261884451    0.9495744299367296
     0.3617662290052864    0.3700249898253538    0.2069532188680601
     0.6600125519473539    0.5181276515798915    0.2736955026149319
     0.5286802818049945    0.4715713353080680    0.6736047511445327
     0.3699961711236190    0.3012271820755188    0.9320791420760567
     0.6811470429721165    0.7575268812345438    1.0488048917523243
     0.4906896290645950    0.6719475702262184    0.2577665762866598
     0.5892662454787236    0.7843184875629644    0.5709916295687665
     0.4368707047358696    0.7280510214267628    0.9303089907055240
     0.5694021066949709   -0.1291688352032708    0.0580012871749061
     0.5704394735504920    0.0527104803484999    0.3991599681701806
     0.3830704246819460    0.9510069014574267    0.5886635064396825
     0.4175384386835117    0.0248496019493475    0.7332119312761839
     0.0477082984957607    0.2171391341184530    0.9128709923660032
     0.0408228965417840    0.2107595238855073    0.1566238195876603
    -0.0270175314811795    0.0631959187777293    0.5798804781568404
     0.0848136779069140    0.1120156608030978    0.9478452995831923
     0.0222192531372687    0.3443156058294013    0.1517353543484638
     0.1462240384730333    0.3469429165626252    0.0799446897690800
     0.1414276855595490    0.4940255730934425    0.4036241362680811
     0.0475898453401116    0.2225466129015652    0.4078185171834465
     0.9814148428936342    0.7411777745004842   -0.0167933576681764
     0.1106672171841087    0.7119477515087633    0.1392020375914300
     0.0732565935491167    0.6332805778929960    0.5803409702659454
     0.8531087789879392    0.6199734655909187    0.6920164594095588
     0.0826125601086920    1.1532357382540002    0.2931365557789223
     0.2055215414075741    0.8818185001664578    0.1487454167623880
     0.9353204311593490    0.8223563395751670    0.3697809289885107
    -0.0340003416456236    1.0022465034113102    0.5005775413318438
     0.5426957042379857    0.0476724556267543    1.0253817950401884
     0.5531253176325761    0.1328287809771777    0.2345077883771361
     0.4829412740566476    0.4895374770738743    0.5764685598006213
     0.5284093403605215    0.1354561871267084    0.6324927841373577
     0.6272607795608421    0.2279256144715968   -0.0325657416548096
     0.4935947778478486    0.4933721958750945    0.0711567584055963
     0.5576692045796741    0.3456279596365652    0.4114953830344447
     0.4523042790744173    0.4274210483412740    0.8624589770696988
     0.3915122433803824    0.7714548802266642    0.7394710963269723
     0.5506583335894676    0.8215682177135252    0.2020265806016138
     0.6361742200357284    0.6870076296457532    0.5373800691734010
     0.6453255655026426    0.4479294568938320    0.5499236346513997
     0.5730981885257125    0.9379078588695319    0.9384700679810364
     0.4939208995652017    0.0653788523102446    0.2000451190936097
     0.6072538146342278    0.9266711620836251    0.3681643459906167
     0.4712979064592746    0.0356525232528283    0.5638863491119470
     0.0170900563879777    0.1038491812373772    0.1267140493346816
     0.8189410149514466    0.2654022766220660    0.5117867971688586
     0.0640101641846277    0.1679543280655202    0.7392557955510437
    -0.0561712303862392    0.2536327755004518    0.8446714613465296
     0.0873916816421573    0.5696497293514647    0.0970463552279071
     0.9696911289285145    0.4048143351689645    0.2192643557001780
     0.9492823515951682    0.4914150919820952    0.6495244202336092
     0.9709524071030513    0.4622113056299144    0.9389158198001276
    -0.0065238085878596    0.6417902103019572    0.0593217516916888
     0.0517072352501197    0.6637678628006195    0.4401700972076539
     0.8893325790436761    0.6416142313049112    0.4342515675617488
     0.9528174528202596    0.7908579676933563    0.8503389588024406
    -0.0029735097903085    0.8693252195024526    0.1931630982638653
     0.0466031078232761    0.9425072740077282    0.4199216637168728
     0.8549855967026275    0.0393572487405253    0.6619484858839471
     0.0179251019902998   -0.0041161102861995    0.9805530693747612
     0.5603711468703673    0.1942241925047411    0.1735947231637588
     0.3984734687627277    0.2969793673824562    0.3739293315330741
     0.4285645915262664    0.3467437472986152    0.6837287095075293
     0.5925292728993603    0.0937223670304843    0.9539415997837208
     0.3955299706601355    0.3257996527827504    0.1786208326057795
     0.6390963702852560    0.5732502868794883    0.3246624548380003
     0.5046199762070546    0.4518722785513790    0.7147682934500892
     0.4098204041379473    0.2883018666199882    0.8707267653599411
     0.6227344649214740    0.7435844198713283    0.0417646084506123
     0.4867929788103575    0.6649006773897667    0.3219611775667602
     0.5911434216628686    0.7128205477985341    0.5848177892823434
     0.4436877231393263    0.6885661965617484    0.8719743806752971
     0.5247574882751743    0.9077729357820181    0.1002858769042441
     0.5375949255162983    0.0352313166100504    0.4325045637493377
     0.3492138192448215    0.8892139828664705    0.5506228933646197
     0.4263943578574376    0.0198369578479516    0.7879723617037591
     0.0961903782052818    0.2177706716810138    0.1152065150345217
     0.0586733175114683    0.0368843671816584    0.3457359078584028
     0.1691378354815603    0.2874493633456242    0.4893773732787766
     0.2795880843306248    0.2124707393015429    0.7258355071655771
     0.3016686647180127    0.3284423107631627    0.0941727752389930
     0.3290435751776631    0.5508323592086085    0.4134750236489723
     0.2665250559444033    0.2512273319870002    0.6559976530505199
     0.1061425434578672    0.4858469389762167    0.9111343351982346
     0.1797582702011090    0.5297914543201205    0.1014093081366166
     0.3765321787880851    0.5839767064952958    0.2907875481371499
     0.3250929222567103    0.6689116504477443    0.7583075757508175
     0.1384504681156911    0.5377820461466218    0.8043059858240378
     0.3317802433936756    0.9331089257519910    0.1416856292330266
     0.3179497897434441    0.0103682563508517    0.3984677712401997
     0.0839419151876865    0.9641516234240777    0.6642140676698206
     0.1527232066527229    0.0283428535345566    0.9438173942387115
     0.6852755067227030    0.1068671077841037    0.1481690862631664
     0.8374278084419434    0.2928775779668740    0.4313573935280388
     0.6229553287791568    0.0697967081335122    0.5453875202317658
     0.7977991384792293   -0.0274759920372193    0.8152997285253446
     0.6562688851591649    0.4894392533954919    0.1639760792994908
     0.8329406562941502    0.5806163095793899    0.4343138195821461
     0.6090661370434900    0.4840105663867958    0.8036327116911494
     0.6687429355441787    0.3498810599080103    0.9476190956635672
     0.7331901616300869    0.8293425464468718    0.1992584176867055
     0.6567449067576874    0.8031962045928259    0.4044929429381454
     0.8681022584849551    0.6786188817726977    0.7114916351984166
     0.6478492081633807    0.4733669296330483    0.8798138608081522
     0.7764590287299625    0.9762814977849759    0.0434604206244540
     0.8027961404769551   -0.0122717050087664    0.1864359203607135
     0.7535995429537173    0.9007002648791829    0.7159663889447008
     0.6725707208626183    0.9250743170294341    0.8300062409887677
     0.0435078868465143    0.0941671876285505    0.0443040158981497
     0.1321281109302049    0.2000496503248354    0.1928235616462554
     0.0801912374766551    0.2374848032138267    0.6988953165470815
     0.8633933906820660    0.2746954036823081    0.8195433207842683
     0.9078495950478687    0.6295789534845764    0.9478039395938697
     1.0125052238210959    0.4541375970154306    0.1630659565150823
    -0.0153015557417906    0.5385853428072465    0.5921590093546346
     0.0313623155693249    0.4528956204981503    0.8729201194103243
     0.9131560403244307    0.6434023912568271    0.0419418056522485
     0.0901975281954307    0.6524906228736098    0.3568392193235792
     0.8318516750423824    0.6592262922589791    0.4960324809035536
     1.0367053997207214    0.7621548598411811    0.8216410400132219
     0.9747246886224080    0.8660975658318896    0.1062214768556486
     0.0261926099630505    0.0420355835429956    0.4147332813206220
     0.9109194962027825    0.1001851366693609    0.7073074225046904
     1.0645879130155014   -0.0159390781440395    0.9093343215632251
     0.5646535228259486    0.2255109523929232    0.1014405406062052
     0.4437845187959027    0.2942453295643895    0.3094061540650355
     0.4550187490801912    0.2340327193921585    0.6888392008775686
     0.6155214446480206   -0.0070414372028073    0.9250824167244482
     0.3565799205114624    0.4225550005388757    0.1744475016113147
     0.6164770127064573    0.5159822554384812    0.2368249418716814
     0.5045266126944991    0.5417785328376251    0.6984533528930472
     0.3386427149830118    0.3449580988086489    0.9133737944176278
     0.6894808942730870    0.7716970029302473    1.1084177141323448
     0.5084229671565978    0.7224731660787107    0.2599470612848524
     0.6233187093512731    0.8025673710276472    0.6070940501095952
     0.4398825588051418    0.6775593267215132    0.9653368372446036
     0.5580512930201060    0.8175996571961234    0.0219490740405854
     0.5335170837089626    0.1034248916440751    0.3877712955778776
     0.3513528787800065    0.9808168484499395    0.5508081911775369
     0.4675061056986640    1.0166585378289434    0.7114048065594203
     0.2170165060950426    0.2585841042906361    0.8081115343645774
     0.2515281998950841    0.3551710097448796    0.3639316367105250
     0.1285049769710383    0.3962220630390205    0.6099070786335662
     0.1560321295992368    0.2994197324906642    0.7912519731021697
     0.2634218381100625    0.3585448721057325    1.0272698384792118
     0.2092164488367710    0.8022222385594079    0.3230448249000050
     0.2787432780335104    0.5731763508619913    0.5434570063467631
     0.1059544120425845    0.5324551059062939    0.7608128900659537
     0.2402956479555369    0.8785310862298144    0.0154743098255154
     0.2471721134680513    0.8320646942703845    0.4513486038356053
     0.1030890951106458    0.8323269927860638    0.4909436109279606
     0.0814944901993992    0.9161501645515525    0.8200112479875175
     0.3195307893415923    0.0476296173525345    0.0875883048450135
     0.2208198445814422    1.0052045266324829    0.2521396008244894
     0.0737930799899553    0.0885777553748213    0.5712622646786664
     0.3839055175316157    0.1000705560159585    0.6741005049376750
     0.6214412440812015    0.3709590955679368    0.0190084237469797
     0.7945741305101240    0.4031391817486984    0.3723822315070438
     0.6697364367126768    0.4435510212926754    0.6841579620206386
     0.6088100979368049    0.3392408964696704    0.7993931051807173
     0.6762112664749329    0.6037289655696457    0.0886479794634574
     0.6730833018524310    0.7055753874012802    0.2353727919531589
     0.7181275065848269    0.6100129432541432    0.6437928038072932
     0.6292614843290454    0.5593447575278828    0.8356719960806329
     0.5830073043135580    0.9046693365740548    0.1616704125253365
     0.6341714415292442    0.0227323590715324    0.1828141741274410
     0.7344499526898601    0.8681505287270147    0.4517565781309731
     0.7358021813994984    0.7737292953029959    0.7256837278786021
     0.7583727223408294    0.0528864629021574    0.9301282412673980
     0.7066929124592568    0.0993301830207230    0.2423708013573262
     0.6537154407894485    0.2826580358813870    0.4651056135709830
     0.5865536958819169    0.0862829704008400    0.6751438472490466
     0.2489197679563306    0.2263783761028851    0.7990941380185614
     0.2212079547444877    0.3477319891345367    0.3863334751619517
     0.1345185928124023    0.3975702638724852    0.5687472111174974
     0.1695537451916305    0.3333523580198649    0.8197697128326780
     0.2550173316832210    0.4038439398780260    1.0275097097650001
     0.1705260770713111    0.8179029002106993    0.3173128069153481
     0.3173305924806484    0.5667888488028026    0.5399827612530830
     0.0672020574572917    0.5407582797420670    0.7470598818790589
     0.2277675897392574    0.8915172767479176    0.9844181751715263
     0.2633197842783012    0.7862062167631666    0.4327738761001901
     0.0991902622135905    0.8647511643466246    0.5324286813651168
     0.0852965616876407    0.9603272622827280    0.8454811047405268
     0.3044502269778470    0.0924362312427658    0.0886122949754853
     0.2069373030415276    1.0507294111541781    0.2756744785388148
     0.0924186113216663    0.0750122511609594    0.5325392688683455
     0.3783288066200226    0.1352587529069729    0.6558845094557173
     0.6069217632602806    0.3284025850896699    0.0057997662244931
     0.7607539767587831    0.4321868016862310    0.3859010698446539
     0.6745997084266269    0.4732045212703450    0.6577450498300277
     0.5883446291175735    0.3852912973474418    0.8091158433701060
     0.6366004323229836    0.6027451506972626    0.0760040125205991
     0.6791362198600481    0.6995973615141964    0.1919306712983964
     0.6819173686919746    0.6318141756542061    0.6425717420696140
     0.6155231621635417    0.5892568896836615    0.8112690638483495
     0.5795894375136933    0.8595196995687142    0.1319413416627105
     0.6595345981239268    0.0553040612065710    0.2028328451376997
     0.7365405445993781    0.8575066348765790    0.4067902655243403
     0.7228593845513600    0.7784706264280594    0.6854507748392313
     0.7926086533782059    0.0599477742739137    0.9203566094227903
     0.6689355761668816    0.0923510525012298    0.2544941909062250
     0.6164101226019668    0.2786836760954449    0.4670664154236108
     0.5981310572067532    0.1256589846245440    0.7033603209571631
     0.0703814021308677    0.2388448496002248    0.8894125749779727
     0.0212950141129780    0.2350670247423593    0.1942560520060645
     1.0044422014854946    0.0890863433527112    0.5898357088439634
     0.1091785452092742    0.1468100231630393    0.9565320338854327
     0.0535117521367212    0.3662379309537688    0.1583639314233239
     0.1358463261143591    0.3583474367432221    0.1254425879280592
     0.1129026484909244    0.5141946325638550    0.4324372636517105
    -0.0384829144250165    0.3572556963598200    0.5583469407172027
     1.0080855974837142    0.7267629836666224    0.9521689780060927
     0.0936756315876107    0.7497574441273378    0.1310004910939102
     0.0967617076666735    0.6680319926997218    0.5880411409267541
     0.8373312188694759    0.6142254261417972    0.7303639113134033
     0.1115893967469478    0.9513678605616785   -0.0108340798197658
     0.2029427143278301    0.8646650227114872    0.1873081954653303
    -0.0622937166667252    0.7818302944292582    0.3754151081170191
    -0.0331718676303837    0.9538069075518275    0.4847810045404130
     0.5504678332940897    1.0132877043750628    1.0498307354052820
     0.5262250716430102    0.1396562292530265    0.2633532353201955
     0.5198124943637937    0.4838926151539883    0.5625951936377824
     0.5325581776554921    0.1805474417836590    0.6395579099548085
     0.6009713792883650    0.2096628567449501    0.9347238128152210
     0.4971334630130061    0.5022035962755266    0.1154329434437367
     0.6542128789738757    0.2719276073578940    0.3708629152933282
     0.4235067852886220    0.4195037191317167    0.8827693485243314
     0.4047752612910994    0.7269219593611482    0.7148211975036760
     0.5755792947051855    0.8143068728754460    0.2343994519640435
     0.6166093383710178    0.7108079368724595    0.5124761596110503
     0.6349765373826385    0.4703191547433272    0.5213637046474643
     0.5698837549978077    0.8908647316707979    0.9239922256716585
     0.5010468173935009    0.0339762535733236    0.1596306860056515
     0.6004044300684437    0.9749384022476671    0.3969940090390074
     0.5075997020460803    1.0148588630026629    0.5469801766741406
     0.0717119746365908    0.2912978789210014    0.9437944534502943
    -0.0131562727018909    0.2424363051149253    0.1497556203440407
     0.0029324626234078    0.0580832629007286    0.5224351776612796
     0.1479215910072460    0.0943490996836304    0.9519335077016050
     0.0689323133593184    0.2991035395858521    0.1430887766234221
     0.1891692691719947    0.3316635642752707    0.1193030586731164
     0.1062291968766078    0.5620471721740529    0.4080135576202918
    -0.0355402217493381    0.2883392412286225    0.5100266630170991
     0.0403370520873695    0.7184535367812783   -0.0032139675669103
     0.0908101594176370    0.6901158818741820    0.0803027673155963
     0.1347418725149675    0.6268570440728214    0.5631163270393849
     0.8472563605293334    0.5452255642240279    0.7054048567478568
     0.1422316176896911    0.9013048220303824   -0.0348689717810170
     0.2258824008664045    0.9223587170550048    0.2011037772557366
    -0.0202242793063225    0.7917286451132810    0.4075473986649371
     0.0203734867122646    0.9709052731614957    0.5104681849302126
     0.5164506179712126    0.0529124748568769    0.0941502886294373
     0.5565708145609297    0.1905285675036431    0.2753551352236405
     0.5216161872608834    0.4871308683522943    0.6219127427991907
     0.5620273851522644    0.1629808550438958    0.5956950625941158
     0.6095307796960062    0.1690377963124527    0.9755515015402582
     0.4491296229873171    0.5375981231086812    0.1137137073278956
     0.5315898647859728    0.3829148266473269    0.4649333626790865
     0.4665111235136167    0.4014829056935559    0.9176329629763553
     0.4254766163339106    0.7800485786877638    0.7052534065230771
     0.5162307684117134    0.8489832964927756    0.2459513253692659
     0.6775197279257846    0.5026656143045198    0.3905511064047497
     0.5973962921902696    0.4329569574319439    0.5186089746085287
     0.5333433945150721    0.9189693223468949    0.9693856518989622
     0.5480540389577557    0.0529157448268538    0.2013983555181009
     0.5696891131801632    0.9533095052321425    0.3329662695313877
     0.5152894361245791    0.0736461491620726    0.5781365666035000
     0.4825190694373756    0.0272745090441638    0.2825650095373521
     0.3748200313055470    0.1907223632450464    0.3916056488585267
     0.3597697353552270    0.3518767647103933    0.7153957313873840
     0.3446415104706082    0.1447465028991374    0.0299451660799740
     0.4008988430937050    0.7861926734679094    0.1959330954816712
     0.4304223857204081    0.5870377267852476    0.5142394672930770
     0.4563724239558740    0.5548765145428651    0.6529503912229201
     0.3701170861036760    0.4935880456470717    0.1967506943341649
     0.4519361352117289    0.6447461616685093    0.2274129597917773
     0.4960452068719452    0.8139620595573893    0.5905612766237860
     0.2066394317663258    0.8353864846323261    0.8019098459022898
     0.3339153411243408    0.8389138196230110    0.8751234334035066
     0.6071522764326299    0.1280217435231308    0.3773551058112974
     0.3512166414882927    0.9942556819695200    0.6445141621370664
     0.3651187810693740    0.8641330519180435    0.7244603890341408
     0.4239245045151374    0.9064896626181853    0.9317856944390859
    -0.0273755782633200    0.1867405105032794    0.4353826725135199
     0.8725598114224199    0.2256977886476110    0.8521706234460525
     0.8052454056564347    0.2429267081657886    0.6333141496973180
     0.8943325982895158    0.3630549978632522    0.1709544156961974
     0.9051581966264781    0.6703981244902016    0.3109139663588363
     0.9616107084414400    0.5708340940059466    0.3081716073241548
     0.8668937590492293    0.5552156664097052    0.8167307121925328
     0.9165337495799836    0.5220847637715480    1.0108908480379541
     0.8471371265341687    0.7488047340838347    0.2897194122917521
     0.8488143311776418    0.8315082052080774    0.4489110177060709
     0.1785793785201824    0.5120546624551514    1.0077007802831575
     0.2190971905782366    0.6973503383385465    0.0881327899216358
     0.8224396000709416   -0.0247524972720696    0.3473577785102814
     0.7788741156474517    0.1967673273627597    0.6749409742874511
     0.9735952277652126    0.9454748348721329    0.7571391270645955
     0.9644402662052136    0.0044589815291252    0.1721301841210482
     0.0998364485641970   -0.0064488423802123    0.1818233703673834
     0.7794937559921383    0.1116604073177878    0.4310025896147287
    -0.0121573826962241    0.2956681058148469    0.7765962076445722
     0.8676805098057730    0.2812677873113540    1.0184889746670276
     0.9967363416821156    0.5375507128768736    0.1827180605307682
     0.9758543210738443    0.3153202424181347    0.2484299949182094
     0.9322760873460882    0.3721622533179729    0.6249281059904206
     0.8974144865108664    0.4199367411425654    0.9876442351545448
     0.0683254926978880    0.6486804209448177    0.2075537129091521
     0.9244846833825295    0.7140734116872812    0.3387503775234123
     0.9733823074672078    0.7019503467061614    0.5975415564324855
     0.8697740603757873    0.7627555577389061    0.8986940038500176
     0.1055569293886534    0.9129115418950903    0.2868506203597284
     0.9541290571756839    0.9355850051441523    0.2532152188622345
     0.8576312864049146    0.0314388750971838    0.5035075685417264
     0.8558191220671335    1.0123283931027591    0.8839935766785095
     0.5190303290102016    0.3412174388713380    0.3126128488560283
     0.4154410898817133    0.3891631449019980    0.5237858016794253
     0.4532791294202269    0.3636066475540087    0.5972954759811385
     0.4525252531857741    0.1160651137547794    0.8294176204511381
     0.6062644305914110    0.2868272295746817    0.2233221069580268
     0.5085608061035356    0.5435820440962085    0.3057935059821102
     0.4560241577384424    0.3445677610237195    0.7231950647360145
     0.3608142064092831    0.2126051070105521    1.0327417048080101
     0.5396461845687672    0.7872165566947680    0.0505027148521949
     0.3668606583800527    0.7333751298461393    0.3813101938900373
     0.5318785289091067    0.7676185746957475    0.6959668220986518
     0.3478073025704502    0.6249583341514565    0.7580876046621053
     0.3724818423475341    0.9993814174739332    0.0526797971254724
     0.4113058548400370    0.0276501281261094    0.4316052402814516
     0.3950607514467872    0.8754341555309589    0.6922443937011372
     0.4288665914507842    0.9257531136895900    0.8824850300816460
     0.0228365936432181    0.0343678206835569    0.1054573297561252
     0.8602001687311779    0.2365600346524803    0.4747264452927439
     0.1071879868158351    0.1900234282247898    0.7695631996742894
     0.9303042988269243    0.3140563826045776    0.8949243320243009
     0.0277151482490331    0.5765855827087707    0.0840556355287601
     0.0244402629897858    0.4012967737038854    0.2331827833272583
    -0.0124110186227179    0.4523179882275120    0.6245701778620761
    -0.0021026302387540    0.4023142366470923    0.9207976926598354
    -0.0269231911481490    0.7017222325319586    0.0922943636457254
     0.0696399178979736    0.7165275284221925    0.4532627862571404
     0.8812010121030480    0.7104383056359452    0.4473905567110157
     0.9596744377752928    0.7315333293916301    0.8145349019977466
     0.0455370990883739    0.8765408725272559    0.1655476938107137
    -0.0129563203379683    0.9624256618000101    0.4335867190567178
     0.8551633659903662    0.0971048478290423    0.6347596198985895
    -0.0133934497399856    0.0383785940086934    0.9555369641274994
     0.5420967165855808    0.2679765566200578    0.1940163643192830
     0.4386191541835432    0.3023406252486277    0.4076853703687136
     0.4618840040437630    0.3281063024850993    0.6420697018961719
     0.5812356864650541    0.0706479365587692    0.8905488538663465
     0.4490471383865946    0.3759529438032333    0.0614115073289474
     0.6234390473373234    0.6158616423312649    0.2961818373824334
     0.5032165447026887    0.4917769536583403    0.7656013328511977
     0.4491097372850781    0.3084380917035600    0.9015111317157256
     0.6315916063769029    0.6974120287174890    0.0797973129523435
     0.5339853782196823    0.6889908949926995    0.3472815327509455
     0.6368104521948771    0.7007250352943688    0.5786699875643049
     0.4727243061270218    0.6384363712119846    0.8798171767033101
     0.4914161323911153    0.9093852479046848    0.0489124573414920
     0.5453280714521250    0.0942796749988661    0.4839488210060208
     0.4063659073494594    0.8515693244883290    0.5397584601975763
     0.4574411880550286   -0.0390732213414330    0.7788775615235345
     0.0530960744649885    0.1011947667075153    0.1057300302026760
     0.8463052931140344    0.2811055167492341    0.5470719098289111
     0.0450448908349047    0.2074732995601649    0.7356215046158026
     0.9087062811078817    0.2422798039895774    0.8523662521888534
     0.0874841559495681    0.5379286824083179    0.0565586137849605
     0.9611692037215535    0.4509879342253098    0.2374343871604540
    -0.0374090125393666    0.5308434192421123    0.6541614893655955
    -0.0049756065173241    0.4844084968854027    0.9713088141453409
    -0.0407390050180406    0.6211084030339903    0.0560970532287064
     0.0405418309689318    0.6603285847777964    0.3991189942456673
     0.8168261954216753    0.8850501669232718    0.5530661704957446
     0.9859536806055260    0.7897188896072631    0.8733922631413639
    -0.0221386781720181    0.8982862111520816    0.1684097533515218
     0.0390275697715178    0.9668359972715035    0.3885066603976700
     0.8936566484726186    0.0447927801865631    0.6709962145415931
     0.0344556854563517    0.9732153400851756    0.9422421023267670
     0.5477020480317135    0.1968291547667463    0.1323743331824189
     0.4108477494894894    0.3214813272033403    0.3484754707369375
     0.4011875150478489    0.3222295391548024    0.6618519984474208
     0.5802760124138435    0.0553710942480245    0.9580174807461843
     0.4044868190776830    0.3739767521961422    0.1810512462013813
     0.6101296139865273    0.5348467714907827    0.2989029182480359
     0.4835165399891663    0.4781290424348820    0.6890685602014468
     0.4121539555628081    0.2614492044959522    0.9025516927354607
     0.6352053439734717    0.7763145013547779    0.0770329622011124
     0.4769937914008376    0.7069463444658035    0.3120170674160926
     0.5947601595244096    0.7545643064119912    0.6191469715076018
     0.4109574557706873    0.6784799419329908    0.8924042330217345
     0.5280148766580013    0.8629240061084746    0.0847379648851609
     0.5155454476818844    0.0654329091952021    0.4127789165620753
     0.3715260381198556    0.8912997442365971    0.5913554267284994
     0.4524168737037031    0.0428150647366451    0.7759826108477410
     0.2259533032666177    0.1250387332389142    0.8124880252329535
     0.1377271856088620    0.3726478653018042    0.3632473325250720
     0.0733253002767994    0.5612813222631049    0.5848944466547730
     0.1377591489757735    0.3874160216430201    0.7507048568286526
     0.2839563756979561    0.3546464600594599    0.9291958127117702
     0.1313809003342550    0.7753676526027558    0.3880946143888007
     0.3635828932130949    0.5556679567947870    0.5909741796000275
     0.0888865993672234    0.4357525700438684    0.6968544068690561
     0.1536669943552520    0.8993782079235830    1.0273668797215874
     0.3384965571098362    0.8417937802591571    0.4802876464241662
     0.0789245747445652    0.9260075733389481    0.4732252513917374
     0.0164577843738886    0.9549244595528894    0.7630245369861093
     0.2497351334959300    1.0478176334093015    0.1405406228213873
     0.2839461701790266    0.0776188538271726    0.2524102996447466
     0.1167143788716190    1.0197244295874826    0.6046210743057621
     0.4172224531178638    0.0346712789725797    0.5833768241700585
     0.5998216560996344    0.2845795807975430    0.0799864053676725
     0.7074157547731116    0.4347866634154665    0.3577273014447893
     0.6003406207041405    0.4124204233464032    0.6312982836129798
     0.6566387787546952    0.3560339262972607    0.7110575207810879
     0.6599516299393994    0.7553881536676234    0.8268306674586933
     0.6208609907070854    0.6301495086481783    0.1384643258789357
     0.6802227738335744    0.5430871249401266    0.6801455708979134
     0.6281897098080186    0.4976632082616738    0.7387741041928144
     0.6541135721516002    0.8488821268300912    0.1967650752859794
     0.6661786350161396    0.0280248338697913    0.1014349681563657
     0.6747117741845667    0.8958061042497339    0.3586262143246118
     0.7384950651748367    0.6639253398776253    0.6733605612751443
     0.8017122110331047   -0.0465638873314524    0.9327264953081205
     0.6114402995485740    0.1712034231369503    0.2780235883856023
     0.6597591260623180    0.3887432896900368    0.5182938040123578
     0.6624056878852028    0.1104887599438371    0.6312839391974333
