# Amorphous model                       
    1.000000000000000     
    11.1541438385237210   -0.0181562027085830    7.5431437526854150
     0.0000000002843498   20.1394678259947710    3.0700181580847872
    -0.0000000003039729    0.0000000000549845    8.3883387445249724
  C               H             
    77   156
Direct
     0.6876023734920268    0.4048363297120717    1.4610298415165210
     0.8364855780384897    0.9206854307806381    1.0993092030770892
     0.5126371526652518    0.9301186975623980    1.3502441728566072
     0.3881676201069437    0.1870879695475382    1.0918833038790705
     0.3995608574867541    0.1930259205789119    1.3909089435464614
     1.0507815366186459   -0.0991258902807468    1.0604330472773136
     1.1608684992429321    0.2224660852831073    0.0283303926953973
     1.4562415522803260    0.7856359243309484   -0.2225666912411942
     1.0497891946191960    0.3071188459860748    0.2552885933342238
     0.8266041330752087    0.3143338026156374    1.5086568527251345
     1.1031618528388865    0.4471514841136848    0.7831946170197055
     0.6006020350889446    0.3717452733731154    1.2765919833978125
     0.4644749890252278    0.1756963231626766    1.1771027681455550
     0.9079748291971268   -0.3598863961746626    0.6896515997167406
     0.8849585596305480   -0.3757011654860787    1.0320596006302483
     0.2983606028291178    0.5256449591871255    0.0695636501836544
     0.9249994152197969   -0.2145201338687392    0.6756269698723647
     1.1301531771319795    0.0909977649889974    1.8103692217125864
     1.1557516890534352    0.0366046872387254    1.5265251447063617
     1.1859695340446579    0.3407639835540617   -0.1139552997820958
     0.2770266052018769    0.6724360854801202   -0.0759926487125814
     0.9234420424099601    0.3026773871547761    1.2996679162148150
     0.3859176417518647    0.7775208381516981    0.1475809181886568
     0.6265188076687810    0.9552000852906259    1.1478342213273032
     1.0934901263253172   -0.0986350648907246    1.2029360520673364
     0.2769098244390915    0.7205151510459774    0.0611341073785577
     0.4077240765851038    0.7454313508280813   -0.0254318443961656
     0.7723368115606477    0.1776611685626639    1.0031892174438706
     1.0410025624983785    0.0108829894043685    1.3899076186781247
     0.4811778113333867    0.3863769964442343    1.6182195551914975
     1.0613718307585531    0.3296792103114969   -0.2583264723305834
     0.9596293887519657   -0.2705420028187597   -0.2293536898942885
     0.9438640825291549   -0.0566865787940122    1.1025948991500900
     0.3622412674513514    0.7614008455170884    0.4611797409984376
     0.7905759124181414    0.8546601520211597    1.1814959173127295
     0.4058704456915878    0.7272139193629847    0.2830031638250877
     1.1535597143323109   -0.1002706992749414    0.8502958481689896
     1.2776393903374965    0.5216047297673082    0.6458766356399003
     0.7210223174332877    0.3582077008503600    1.0831895089039520
     0.5780614067412612    0.2262147071600252    1.0157903370044199
     1.2392400272608244   -0.0093014983475193    1.0824324202505491
     0.5974435516318175    1.0049447694430031    1.0091051895978191
     0.8317340130417468   -0.3608001083350989    0.3775044422685762
     0.3431745942366349    0.0735023012949166    1.5158846525899130
     0.4029640886341875    0.1320116310429831    1.5228397329475059
     0.7409443688313045    0.9777191230205357    1.1462913054906738
     1.1296597196398719   -0.0467637784902122    1.2716732522668974
     0.8958613817542319    0.2383677646285070    1.2520566426956863
     0.6036952607116887    0.3615235599932398    1.4591675501582648
     1.1690058434110697    0.2924115492042787    1.0532656782605754
     0.5320452112375652    0.1221930937994545    1.4754435358413678
     0.7801972358007960    0.4250751351941479    0.9428100380160974
     0.6889513527085085    0.9823422148045552    0.7916923058732526
     0.5637555946399452   -0.4152232969203823    0.2859751458657195
     0.5096076578267958    0.5292778106019831   -0.2079901996139861
     0.7215755065198802    1.0353106085083157    0.6300166945823031
     0.3997256078132771    0.5706953725285514   -0.0655405025377993
     0.8729476312100727   -0.3296999470195507   -0.1307161980514286
     0.6897779336895151   -0.3214891278548775    0.2748253448446585
     1.2253258818237907    0.5026200275841253    0.4214875423964476
     0.3007546062381795    0.4081401869642257    0.2181227684976957
     0.3785723670838066    0.6237272266319545   -0.1877328279234673
     0.6732932174162134    0.2352854943338791    1.0718061694032002
     0.7378268863035324    0.3058844534893683    0.9609663881446745
     1.1389944633998128    0.6529951841866047    0.0161005999933915
     0.7484480099456847    0.3773848852805856    1.5515847557242683
     0.5656382541537496   -0.3436568217855351    0.3090034322728921
     1.2195214244606039    0.4715174379808565    0.6026496295258872
     1.0900841489143394    0.3676014231651324   -0.1423600863096499
     0.5341847495368152   -0.2990868412097942    0.1726646522941399
     0.8350378204230872    0.4338023722529334    1.5099630318138768
     0.9674422813553428    0.1081550967341484    1.5710760397848340
     0.2094431702935636    0.0863604252006272    1.5894784461574225
     0.7804159188835037   -0.3760594489469720    0.2617888523931584
     1.0783757189257526    0.0659559484303882    1.4485888210340956
     1.3179420719948993    0.4798451377044229    0.2090720338759409
     0.6485506156407557    0.9181645577183144    0.7698141677098985
     0.7594984036758765    0.2625976125146298    1.5887762353886576
     0.6045727449960691    0.1131971462238058    1.3286533623514338
     0.9054898438274226    0.4133698142198062    1.5241670368111948
     1.0118063692682402   -0.1255456152370361    1.3414044877903275
     1.1117554915889385   -0.0038424481102356    1.6381962863872042
     0.9980011649181648    0.0316846274675032    1.3093824674093779
     0.9689880778267663    0.1471275294788605    1.6439224031540141
     1.3369045478333252   -0.6243881766654633    0.2905348881103187
     0.7735333853894094    0.4669901451204166    1.0167736223311197
     0.7372187836178592    0.4363531639698079    0.8702483083063189
     0.9091773904504978    0.1911034698975638    1.3214980837646153
     1.2447679647242382   -0.0088227344795380    0.9482509875293169
     0.8947617080950517    0.0721621404998451    1.6970123380399957
     0.5755900022524635    0.4238026192687788    1.2464160907373718
     1.2625491700185485    0.0400503686316808    1.0970164252157506
     0.6349778665521260    0.3075673227075908    1.4670796944975282
     0.8754963284757947    0.4499360108199021    1.3525151573127230
     0.8806956819429088    0.4322172106159728    0.8290155061401117
     1.3956812423490741    0.7831364399490489   -0.2825738526178687
     1.8916822663660324   -0.4255902631229467    0.9770677511636474
     1.1096883830534512    0.7030727565079694   -0.0266558711571881
     1.1435281473586514    0.6039676985406249   -0.0410780919906016
     1.2415258357145835    0.5614307982256133    0.3863880829719955
     1.0277315608139028    0.4652153665720266    0.7804190780276933
     1.0939101935779283    0.4577893573671888    0.9090359318976808
     1.2794497299687251    0.4258952551558112    0.5764011966525102
     0.6128290961870454    0.8824236135237844    0.8831551944041739
     1.3701652771531347    0.5212517435280950    0.5343621734713907
     1.2755232179878309    0.5124099761493984    0.7781105303541216
     0.5077522321637186    0.9856978567106087    1.0737451218547551
     0.5416366027675439    0.8795679979835633    1.3841341854914071
     1.2347622726452834    0.5693504317964537    0.6518366583423155
     1.2479125759673766    0.3064755382568492    1.0374652551738717
     0.7996020062030135    0.2381170430951458    1.3070365354522457
     0.7655405117599933    0.9597686803308860    0.8022204710028955
     0.5879778163361222    1.0571483109650721    1.0196991102193707
     1.0144271542496246    0.3712491538768005    1.0053207244550146
     1.0477641162864610    0.2736780180773707    1.3826125904001048
     0.9083741278062727    0.3449869846809729    1.2188888665633872
     1.4065777212250015    0.4935248044791493    0.1677169064462375
     1.2136424510492745    0.7638780686398300    0.1002098857028761
     0.7963420709725528    1.0113523904263440    1.0105204223205397
     1.5488024984607227    0.7646096820061768   -0.3345190500759502
     1.0640482864963781    0.3524123619654752    0.2946088317913921
     1.2140229348811464    0.3860385449827654   -0.0902061145481893
     1.1017223496559057    0.6414967347234117    0.1625661285226340
     0.7159731509632790    1.0088019459621356    1.2477689261560256
     1.1497618911864156    0.3197689580675779   -0.3859037515380220
     1.2602767069677643    0.3238407648856819   -0.2491302662460838
     0.7365519418070621    0.8285827026661123    1.1418934038095603
     1.0029608525521172    0.2854600790391951   -0.1899883782346965
     0.4404228317292417    0.9175908731034037    1.3284322789757115
     1.4715533956452198    0.8364609589792958   -0.2223947016081260
     1.1181757344537235    0.2227685800217381   -0.0575055249977290
     0.6576855934444803    0.9103136504550585    1.0730678605272668
     0.8699781755533817    0.8255213247084586    1.1486128851955235
     1.0168865455770872    0.3577324862268307   -0.3182799648266763
     1.1500992257796074    0.1368959632622628    1.8463610221101232
     1.1327378767167564    0.4977356067388222    0.4285230878676541
     1.1539602563884555    0.0921726108360236    1.3071503199772607
     1.0339981110190792   -0.1525302615428167    1.0928012548255788
     0.9525902066455788    0.1291300171736698    1.4630518707744513
     0.8170913381940981    0.1951452629257003    1.0737216415791073
     0.5378381733017380    0.2677407628909347    0.9846608026827357
     0.6890922341638764    0.3360476720834552    0.9100439450632966
     0.9771992290153736   -0.3673408984657536    1.0058619361945926
     0.5299844229844571    0.3402967610664282    1.2908427976507419
     0.4921535974415886    0.1274306506665785    1.1736856058207852
     0.8254526829778919    0.2913582197457272    0.8481876415562309
     0.8306753594065447    0.1704220419928391    0.8478917617710184
     0.7414576752463021    0.1267967843984818    1.0732581039085456
     0.8928438964055677   -0.1707624686108260    0.7656555736631646
     0.6132441648128848    0.2079659576672241    0.8782459036835011
     0.4808577381482411    0.4371722678233547    1.5474837767459151
     0.7228255293818173   -0.2763564562328961    1.1655959011545662
     0.3432619907146940    0.6805773833758701    0.3329071745885859
     0.2762529657352236    0.7878889202840745    0.2443227954404464
     0.4318179293591532    0.8295591531926758    0.1179018847136210
     0.2784881018432876    0.7515814129370834    0.5938135165726992
     0.2419517647399239    0.6869725025924330    0.2250787749859617
     0.9785724743213502   -0.2530302509066519   -0.1323770711707704
     0.3857575301483816    0.8146960449298880    0.4132986147367844
     0.2350941390720622    0.0136359761389827    1.4154682830372032
     0.4353608491324214    0.7478030486819942    0.4832565866650689
     0.6253425517845828    0.2303555681945101    1.2315102230513606
     0.3210604748293305   -0.6094017612098012    0.0827341884802679
     0.5632660591661361   -0.3222190209057166    0.0340099583359384
     0.3389958518110793    0.1407865991940376    1.6801207954302344
     0.6512049468940950   -0.4181768076033829    0.1549210520143179
     0.1865618988646126    0.1337248994099891    1.5308342689339853
     0.4890666519947287   -0.4298879574457566    0.2834669761697612
     0.8747730756000452   -0.4091717037565921    0.3978656419802681
     0.7418238993625457   -0.4263661794060509    0.3415343091677325
     0.4864515522403582   -0.3396621896664302    0.4378766143984885
     0.8920622999635158   -0.3183285950988933    0.2884011414480833
     0.4364028731320393    0.2029847450389461    0.9244377578645285
     0.5754621652254439   -0.4666632177878094    0.3598875416527520
     0.5434503913516012    0.1642187691596595    1.5309812952131363
     0.5239797353105482    0.0767051569893536    1.5603118733747630
     0.6588359320152525   -0.3030909365702266    0.4100509808467528
     1.0433546581949498   -0.2873205140671471   -0.3519984852556453
     0.3435094531569345    0.0345844859524378    1.6189511740079607
     0.7781133113493118   -0.3137322563797045   -0.0545753495551569
     0.4581790787084070    0.3886689641548445    0.7650590865999334
     0.7801597944223023    0.3371803619690356    1.1408804929038268
     0.4328478066859954    0.2423492102058337    1.3852526491421471
     0.5915829058555050   -0.2496988448661486    0.0977684582321048
     0.6821696450019235    0.3701098164049846    1.7245531786277286
     0.3940648071043815    0.0667803716143438    1.3555421648654240
     0.3041784449235211    0.7123428100827415   -0.1943264273905471
     0.7365399122643804   -0.1465281477740903    1.3409390823852791
     1.1109214906113496   -0.1210369167096657    0.7873634454886735
     0.8877276271366779   -0.0769526837445712    0.9356253912666537
     1.8538882608012053   -0.3533134382558391    0.6354081918241353
     0.9683393792682656   -0.0254548534835843    1.5311568878123591
     0.9709320207930451   -0.0053468124438177    1.0460573324314828
     0.6525104527157407    0.4477241687754175    0.5363783020551712
     1.0420373557020817    0.1099290602074797    1.8238995459887370
     1.1355574089277902    0.0457862746765002    1.8927826808413317
     1.2122953884049470   -0.1373977109119873    0.8499108748950757
     1.1790033849845138   -0.0466574819779150    0.8000422521952379
     0.7557469985315987    0.4371600730710002    0.3194658485352709
     0.8611349171443815    0.3133424472049639    0.5911486208395287
     1.7700879068249877   -0.3411830498687605    0.5070517917681314
     0.7847197660744172    0.4711992943046458    0.6189987783933623
     0.4157057598712054    0.3519161603669709    0.6270605828306047
     1.1684192827693478   -0.1327007622537089    1.1488790455191273
     1.1555479444417283   -0.0695305776701282    1.3676708251127505
     0.9624701623050965    0.2306837351967482    1.0923131375998667
     1.3242172334019036   -0.0395883362983520    1.0338930688489676
     0.8937053884056815   -0.0576178060673995    1.2683196780290336
     0.4661695979023460    0.7010652358873696   -0.0593291260973907
     0.6211856898853523    1.0548892410064483    0.6671870849404526
     0.3184452011342241    0.2259985175125482    1.1717690479854572
     0.5678068097268325    0.9261558574370501    0.7630922417885565
     0.3669639680587477    0.6075828897217909   -0.2959467709206696
     0.2689728532185485    0.4985872987204993    0.0043685870623366
     0.7166431653620959    0.9020853574284856    0.6300406724859080
     0.4886697384433948    0.5093355167082793   -0.3028368687310887
     0.9146198684980871   -0.4149189086687191    0.7138362556860459
     0.8433726018413713   -0.2243987200153725    0.6664064179631130
     0.2999310521123574    0.2003187504561430    1.4320906828885314
     0.5091503322242376    0.4854871124761905   -0.1263521705523338
     1.2454826348377683    0.1898210827704250    0.9726975029134218
     0.9988103895614345   -0.1990022794361705    0.5263811091996154
     0.2024350676720546    0.4013665816948421    0.3149566744759966
     1.1013520269877628    0.1931055646311148    1.1753476989137099
     0.7446556208512896    1.0799016004480224    0.6568267548578951
     0.4111690188331735    0.5929475368491534    0.0367265590722807
     0.7712729384403331    1.0190446926422363    0.4818606334555073
     0.4717205763750417    0.6565902500328258   -0.2836612166315899
     1.0005237388309216   -0.3455592253609707    0.5463520681492191
     0.3389855671826375    0.1445495753139264    1.1065411810769472
     0.2039696617147836    0.5537304553525692    0.1662149041684111
     0.6025581773058764    0.5632357277832173   -0.2888345207512197
     0.4735367473376860    0.9565635590319806    1.4615337725358972
Lattice velocities and vectors
            1
 -0.12440705E-02  0.79102371E-05  0.22039080E-02
 -0.27210407E-03  0.21225290E-03 -0.54809591E-04
 -0.10459021E-02  0.24924170E-03 -0.49716579E-03
  0.11154022E+02 -0.18218163E-01  0.75434688E+01
  0.28434554E-09  0.20139516E+02  0.30702356E+01
 -0.30396309E-09  0.54981403E-10  0.83881399E+01
 
 -0.65736766E-02 -0.60653969E-02 -0.13531849E-02
  0.18599181E-02  0.53017654E-02  0.14732247E-01
 -0.28886765E-02  0.52206632E-03  0.52721092E-02
  0.20603778E-03 -0.34202114E-02  0.52457194E-02
 -0.67935598E-02  0.13851107E-01  0.19267830E-02
  0.87214905E-02 -0.38299615E-03 -0.32113570E-03
 -0.42515029E-02  0.17061017E-02  0.76920205E-02
  0.62258233E-02  0.83397489E-02 -0.94473405E-03
  0.73640602E-02 -0.70063936E-02  0.20804606E-02
  0.10024053E-01  0.68616291E-02  0.10166324E-01
  0.32069606E-02  0.17493520E-02 -0.13900130E-01
 -0.61805120E-02  0.75973107E-02  0.29748362E-02
  0.38663297E-02  0.13648639E-01  0.24519854E-02
 -0.14373631E-01  0.15284686E-02 -0.64633203E-02
 -0.84308248E-03 -0.87412756E-02  0.39568276E-02
 -0.80279907E-02  0.70980358E-02 -0.31018498E-02
  0.58295417E-02  0.40286731E-02 -0.37881125E-02
  0.71411163E-02  0.77803674E-02 -0.34953098E-02
  0.16718729E-02  0.22632136E-02 -0.40339559E-02
 -0.10840032E-01  0.97037525E-02  0.22900430E-02
  0.21622063E-02  0.55212593E-02 -0.24757011E-02
  0.13426546E-01 -0.77721797E-02 -0.89454754E-02
  0.11368865E-02  0.77904001E-02 -0.45796685E-02
  0.74780881E-02 -0.98293182E-02 -0.47260446E-02
  0.14556107E-01  0.15153668E-01 -0.24403693E-02
  0.70432971E-02  0.12956162E-01 -0.11288947E-01
 -0.22316507E-02 -0.31747637E-02 -0.14088526E-03
  0.74156210E-02 -0.73224803E-02 -0.10695542E-01
  0.36027701E-02 -0.13037218E-02 -0.30174692E-02
  0.31548366E-02  0.49247015E-02  0.76564609E-02
 -0.14412318E-01 -0.10880790E-01  0.75775794E-03
 -0.34542995E-02 -0.54949213E-02  0.83393526E-02
  0.26431531E-01  0.69102387E-02  0.17116198E-02
 -0.16303859E-02  0.55773793E-02 -0.53743156E-02
  0.40035136E-02  0.58995223E-02  0.57105987E-02
  0.75346945E-02  0.30577963E-02 -0.72774267E-02
  0.53965638E-02  0.81734929E-02 -0.24632296E-01
 -0.12990058E-01 -0.63007233E-02  0.93615621E-02
  0.53744989E-02 -0.24742617E-02  0.18701141E-02
 -0.50570440E-02 -0.12540456E-01  0.86568581E-03
 -0.29418196E-02 -0.13352117E-02  0.22758062E-02
  0.17313978E-01  0.33182851E-02 -0.22814087E-02
  0.28372832E-02  0.32433676E-02  0.39305230E-02
  0.60735114E-03 -0.26308860E-02 -0.71213566E-02
 -0.73530641E-02  0.77456973E-02  0.11011413E-01
 -0.17158851E-01  0.61425327E-02 -0.16279641E-01
 -0.10346159E-01 -0.26544443E-02 -0.63784750E-02
  0.52266470E-02 -0.10870742E-01  0.10855314E-01
 -0.60542191E-03 -0.75010417E-03 -0.27788232E-02
  0.12334124E-02  0.88260537E-02 -0.13519060E-02
 -0.81977785E-02 -0.85082801E-03  0.27836715E-02
  0.66703425E-02  0.32234931E-02 -0.29468442E-02
 -0.12965605E-02 -0.39441546E-02  0.18135652E-02
 -0.51914941E-02 -0.17357121E-01  0.29802514E-02
  0.18667323E-02 -0.56174259E-02 -0.76330206E-02
 -0.15979242E-01  0.86236867E-02 -0.33329105E-03
  0.97452032E-02  0.14894497E-02  0.15558856E-01
 -0.13456911E-02  0.26146617E-02  0.51401250E-02
 -0.58741595E-02 -0.13494187E-01 -0.20934442E-02
  0.54245460E-02 -0.46304189E-02  0.60989163E-03
  0.79515763E-02 -0.70581261E-02  0.50077634E-02
 -0.26724270E-03  0.18458393E-02 -0.80913087E-03
  0.11215238E-01 -0.60083210E-02 -0.51474591E-02
  0.75662469E-02  0.47971842E-02  0.52559864E-02
  0.94996325E-02  0.51057547E-02 -0.10062026E-01
  0.53764540E-03 -0.23926589E-02  0.76234635E-03
 -0.13009282E-01 -0.27648057E-04  0.36458747E-02
 -0.71285668E-02  0.31358738E-02 -0.25634560E-02
 -0.79599645E-03  0.17061292E-01 -0.20443149E-02
 -0.16576139E-01 -0.13207459E-02 -0.82102867E-02
  0.52719117E-02 -0.61914121E-02  0.50426100E-02
 -0.17071744E-01  0.11518581E-01  0.25462241E-03
  0.46501223E-02 -0.44516601E-02  0.47116180E-02
 -0.21037815E-03  0.11429968E-02  0.73909126E-02
  0.23564583E-02 -0.10931667E-01 -0.17179061E-02
 -0.27896793E-02  0.91539295E-02  0.14243139E-01
  0.12577396E-02 -0.35386703E-02 -0.11744249E-02
  0.14537215E-01  0.15342323E-01 -0.51099044E-01
  0.41001196E-02  0.36538828E-01  0.94430240E-02
  0.76830444E-02  0.12457571E-01 -0.38815493E-01
 -0.18215294E-01 -0.20279354E-01  0.34623048E-01
 -0.21994756E-01 -0.34872235E-01 -0.46270699E-01
 -0.17689340E-01  0.18908207E-01 -0.32795081E-02
  0.34735174E-01  0.84342375E-02 -0.19667596E-01
  0.34143773E-01 -0.21360112E-01  0.24458636E-01
  0.39637917E-01 -0.98672456E-02  0.12077246E-01
  0.14252837E-01  0.34525525E-01 -0.21866105E-01
 -0.28796154E-01 -0.38161971E-01 -0.46610520E-03
  0.63703713E-02  0.14155895E-01 -0.49203535E-02
  0.42665540E-01  0.45852928E-02 -0.23104091E-01
  0.11724873E-02  0.21879583E-01 -0.48230792E-01
 -0.23272240E-01 -0.31056753E-01  0.30190560E-01
 -0.16838154E-01  0.35928418E-01  0.42945689E-01
  0.22783241E-01 -0.24867344E-02 -0.10077032E-01
  0.28628255E-02 -0.12197314E-01  0.20808096E-01
 -0.35496784E-01  0.19753324E-01  0.15690687E-01
 -0.31625101E-01  0.12746214E-01 -0.19589685E-01
 -0.16478916E-01  0.18770101E-01  0.13810198E-01
 -0.65502541E-02 -0.37579396E-01  0.96170854E-02
  0.26834899E-01  0.19395961E-01  0.35789503E-01
 -0.31739563E-01  0.68157125E-02 -0.29464346E-02
  0.44216431E-01 -0.38362579E-02  0.78523341E-02
 -0.16792211E-01  0.98726550E-02  0.47132465E-01
  0.19806099E-02  0.16114839E-01  0.36970668E-01
 -0.14695791E-02  0.13129633E-01 -0.40414578E-01
  0.44365379E-03 -0.29197944E-01  0.22092859E-01
 -0.15016476E-01  0.23155246E-01 -0.85172532E-02
  0.34711831E-01  0.18443985E-01 -0.51091987E-02
 -0.21767884E-01  0.31381040E-01 -0.21311855E-01
  0.13271308E-01 -0.29663889E-01 -0.92363510E-02
  0.39860205E-01 -0.29791921E-01 -0.15913495E-01
 -0.31063898E-01 -0.94263229E-02 -0.19285386E-01
 -0.32934489E-01 -0.23114491E-01  0.43740740E-02
  0.47527222E-01  0.83692103E-02  0.15804907E-01
  0.62441518E-02  0.10432630E-01 -0.33410927E-01
  0.33708633E-01 -0.14819215E-01  0.84334999E-02
  0.14290981E-01 -0.42168099E-02  0.14157658E-02
 -0.38474244E-01  0.24805767E-01 -0.36315951E-01
 -0.87836172E-02 -0.15976154E-01  0.35399820E-02
 -0.18114868E-01  0.35495508E-01 -0.23065124E-01
 -0.17206363E-01  0.33481999E-01 -0.23092212E-01
  0.11214902E-01 -0.17858330E-01  0.35272330E-01
 -0.20506349E-02  0.11470936E-01  0.20925491E-01
  0.26150205E-01  0.25323562E-02 -0.44311203E-01
  0.11910040E-01  0.39859504E-01  0.19510574E-01
  0.39780059E-02  0.37161928E-01 -0.62968676E-02
  0.19588387E-01 -0.31467658E-01  0.27103163E-02
  0.17078179E-01  0.46157129E-02 -0.36146389E-01
 -0.31172239E-01  0.38666860E-01  0.73432488E-02
 -0.24149151E-02 -0.29433731E-01  0.60864936E-02
  0.37672506E-01  0.51833512E-03 -0.22783366E-02
  0.95734677E-02 -0.12073058E-01  0.78157937E-02
 -0.18494614E-02  0.22089458E-01 -0.26614051E-01
 -0.11691840E-01 -0.54086541E-02  0.14117925E-01
 -0.12846763E-01  0.31561126E-01 -0.19821398E-01
 -0.81061500E-02 -0.98867272E-02  0.18581428E-01
  0.25891132E-01  0.16995418E-01  0.24167576E-02
  0.89183098E-02 -0.16816455E-02  0.23180112E-02
  0.46277032E-01  0.15095519E-01  0.24852821E-01
  0.45837677E-02 -0.27604366E-01 -0.34035331E-01
  0.30617765E-02 -0.29712244E-01  0.11210368E-01
  0.24625368E-01 -0.12436622E-01 -0.56635916E-01
 -0.52777795E-01  0.24729892E-02 -0.20525372E-01
  0.14329060E-01  0.52662305E-02 -0.27599892E-01
  0.32062010E-01 -0.65730723E-01 -0.26757252E-01
  0.28440155E-01  0.24663985E-01 -0.32386979E-01
 -0.28700018E-01  0.11004996E-01  0.35790613E-02
 -0.18647141E-01  0.15238133E-01  0.31436139E-01
 -0.30266968E-01  0.33183181E-01 -0.35093447E-01
  0.20761541E-01  0.73574508E-03 -0.33344919E-02
 -0.22368504E-01 -0.26418378E-01  0.18331519E-01
 -0.13340524E-01  0.22908375E-01  0.20048745E-01
 -0.94300520E-03 -0.23750128E-01 -0.17512871E-01
  0.20838075E-01  0.15038289E-01  0.43749846E-01
 -0.57733031E-02  0.25923410E-02 -0.20560362E-01
 -0.49005321E-01  0.10114006E-01  0.10607901E-01
 -0.50724513E-02  0.90297289E-02 -0.70010786E-02
  0.19553589E-02 -0.23886609E-01  0.19505114E-01
  0.21642995E-01  0.14192201E-01 -0.13912078E-01
  0.11464697E-01  0.46712132E-01 -0.38029742E-01
  0.74670093E-02 -0.54294263E-01 -0.24070854E-01
 -0.27788196E-02  0.16459839E-01 -0.46235780E-01
 -0.16193243E-01 -0.41054352E-01 -0.34942635E-01
  0.21252886E-01 -0.25523649E-03 -0.99423370E-02
  0.26422100E-02 -0.42105774E-02  0.14565913E-03
  0.18244130E-01 -0.23772746E-01 -0.16719398E-02
 -0.21047760E-02  0.37513369E-02  0.31229127E-01
  0.10710972E-01 -0.25707246E-01 -0.13346360E-01
  0.13449131E-01  0.59088184E-02 -0.18544402E-01
 -0.56520835E-02  0.38887122E-01 -0.42700220E-01
  0.13017201E-01 -0.20599487E-01 -0.38532660E-02
 -0.10543773E-01 -0.44528185E-02  0.34264111E-01
 -0.26803957E-01 -0.43236543E-01 -0.39971533E-02
  0.77756114E-02  0.14781836E-01 -0.17750289E-01
 -0.93884952E-02  0.36826335E-01 -0.45324426E-01
 -0.18544296E-01  0.54991800E-02  0.21071508E-01
  0.15095412E-01 -0.14462823E-01 -0.94973046E-02
  0.67427597E-02 -0.17185862E-01  0.14176531E-01
 -0.30207212E-01  0.86692462E-02 -0.22767888E-02
  0.49909392E-01  0.21979847E-01  0.48737706E-02
 -0.39544369E-02 -0.74411819E-02  0.57074306E-02
 -0.52848391E-02  0.11598439E-01 -0.19829583E-01
  0.38767453E-01 -0.36821053E-01  0.87713630E-02
 -0.10571226E-01 -0.37661989E-01  0.22886176E-01
 -0.33285593E-03 -0.37827117E-01  0.24149835E-01
 -0.23122352E-01  0.20527253E-01  0.33503338E-02
 -0.31245870E-01 -0.10116535E-01 -0.11018686E-01
 -0.27796941E-02 -0.99754634E-02  0.21765178E-01
  0.76314787E-02  0.92494601E-02  0.22276447E-01
 -0.43491091E-01  0.58621570E-02  0.27315214E-01
 -0.67295537E-02 -0.14481317E-01  0.11188971E-01
  0.64846177E-01  0.72983294E-01 -0.22317376E-01
 -0.78181535E-02 -0.17394638E-01  0.41801916E-01
 -0.44155950E-01  0.15644756E-01  0.14846269E-01
  0.21413935E-01 -0.23519791E-01  0.46861909E-01
 -0.19508089E-01 -0.29563226E-01 -0.39215369E-01
  0.29697100E-01  0.95343007E-02  0.86499579E-02
  0.35455479E-02  0.59348839E-02 -0.25004835E-01
  0.20548170E-01 -0.40919541E-01 -0.18286982E-02
 -0.17924547E-01  0.63346882E-02  0.25991670E-01
 -0.44526629E-01  0.46074431E-01  0.40261447E-01
  0.19794142E-01  0.95385464E-02 -0.13724059E-01
  0.44520848E-02 -0.14470806E-01  0.44603736E-02
  0.16883538E-01 -0.34482272E-01 -0.18240454E-01
  0.28536350E-01 -0.14578413E-01 -0.11881122E-01
 -0.10069872E-01  0.72065178E-02  0.12859418E-01
  0.18325012E-01  0.51052693E-02 -0.42233114E-02
 -0.30530919E-01  0.36533482E-02 -0.31915836E-01
 -0.21984904E-01  0.42466736E-01 -0.17313814E-01
  0.36179387E-01  0.30371320E-01 -0.12374442E-01
  0.72618444E-02 -0.47720373E-01 -0.12251193E-01
 -0.32698868E-01  0.92054685E-02  0.31599949E-02
  0.21229840E-01  0.36544419E-01  0.25016773E-02
  0.33831530E-01 -0.14771928E-01  0.47015031E-02
 -0.13439080E-01  0.17824098E-01 -0.17413359E-01
 -0.31627522E-01  0.10670942E-01 -0.29965369E-02
 -0.89138459E-04 -0.29050566E-02  0.26946011E-01
 -0.32061818E-02  0.23222855E-01 -0.39665851E-01
 -0.42839161E-01  0.21170946E-02  0.35044662E-02
 -0.24347491E-02  0.44566345E-02  0.41822519E-01
  0.32283946E-01 -0.28944986E-02 -0.16484667E-01
  0.13559354E-01  0.13904535E-01  0.14237526E-01
  0.34464781E-01  0.31181172E-01 -0.68903989E-02
 -0.24430806E-01 -0.37574306E-01 -0.17795362E-01
  0.47781729E-01 -0.35425292E-01 -0.18014885E-01
 -0.26951256E-01 -0.15359663E-01  0.18721412E-01
 -0.90422328E-02  0.44599949E-01  0.21198175E-01
 -0.27645309E-01 -0.18915230E-01 -0.15611926E-01
  0.99084891E-04 -0.45484918E-01 -0.19527628E-01
 -0.41051482E-01  0.12903900E-01 -0.17930514E-01
 -0.12484487E-01  0.10857946E-01  0.27756871E-02
 -0.69854531E-02  0.26935511E-01  0.24372186E-01
 -0.30329380E-01  0.57487205E-01 -0.34768196E-01
 
            1
   0.4000000000000000     
  0.10000000E+01  0.00000000E+00  0.00000000E+00  0.00000000E+00
  0.68736663E+00  0.40471565E+00  0.46122149E+00
  0.83655228E+00  0.92079079E+00  0.99913183E-01
  0.51253356E+00  0.93012897E+00  0.35058498E+00
  0.38817501E+00  0.18702005E+00  0.92151670E-01
  0.39931723E+00  0.19330080E+00  0.39111931E+00
  0.51094302E-01  0.90086679E+00  0.60139143E-01
  0.16071603E+00  0.22249983E+00  0.28821957E-01
  0.45646482E+00  0.78580177E+00  0.77712677E+00
  0.50053281E-01  0.30697993E+00  0.25520116E+00
  0.82696361E+00  0.31447041E+00  0.50876837E+00
  0.10327686E+00  0.44718633E+00  0.78241559E+00
  0.60038039E+00  0.37189597E+00  0.27687801E+00
  0.46461364E+00  0.17596753E+00  0.17699574E+00
  0.90745937E+00  0.64014350E+00  0.68979600E+00
  0.88492833E+00  0.62412519E+00  0.32339034E-01
  0.29807271E+00  0.52578568E+00  0.69623134E-01
  0.92520847E+00  0.78556007E+00  0.67522897E+00
  0.13040927E+00  0.91152526E-01  0.80991559E+00
  0.15581164E+00  0.36649692E-01  0.52626239E+00
  0.18558079E+00  0.34095636E+00  0.88643308E+00
  0.27710415E+00  0.67254582E+00  0.92377940E+00
  0.92392354E+00  0.30252346E+00  0.29886467E+00
  0.38595841E+00  0.77767560E+00  0.14726922E+00
  0.62678698E+00  0.95500510E+00  0.14743905E+00
  0.94012130E-01  0.90166638E+00  0.20223991E+00
  0.27716241E+00  0.72077271E+00  0.60274359E-01
  0.40764405E+00  0.74536822E+00  0.97465651E+00
  0.77260275E+00  0.17751597E+00  0.24931739E-02
  0.41131763E-01  0.10857212E-01  0.38965697E+00
  0.48129095E+00  0.38647491E+00  0.61844708E+00
  0.60854983E-01  0.32946263E+00  0.74225374E+00
  0.95950551E+00  0.72934875E+00  0.77119537E+00
  0.94481196E+00  0.94345153E+00  0.10177355E+00
  0.36218280E+00  0.76151157E+00  0.46093551E+00
  0.79071948E+00  0.85477745E+00  0.18159619E+00
  0.40614065E+00  0.72727490E+00  0.28239081E+00
  0.15375324E+00  0.89989181E+00  0.84888770E+00
  0.27717355E+00  0.52147917E+00  0.64678795E+00
  0.72121506E+00  0.35815873E+00  0.83123282E-01
  0.57788005E+00  0.22596547E+00  0.16085935E-01
  0.23913453E+00  0.99067189E+00  0.82645561E-01
  0.59806446E+00  0.50112371E-02  0.84136878E-02
  0.83183576E+00  0.63926440E+00  0.37757676E+00
  0.34319637E+00  0.73450068E-01  0.51554459E+00
  0.40270040E+00  0.13216523E+00  0.52354574E+00
  0.74032903E+00  0.97784057E+00  0.14602392E+00
  0.12928869E+00  0.95318316E+00  0.27172217E+00
  0.89604882E+00  0.23815203E+00  0.25248470E+00
  0.60367355E+00  0.36150864E+00  0.45906002E+00
  0.16905008E+00  0.29258689E+00  0.53097255E-01
  0.53175123E+00  0.12217593E+00  0.47584694E+00
  0.78043644E+00  0.42513937E+00  0.94243088E+00
  0.68890486E+00  0.98226384E+00  0.79184929E+00
  0.56356942E+00  0.58443180E+00  0.28641093E+00
  0.50967460E+00  0.52916630E+00  0.79162642E+00
  0.72100247E+00  0.35481369E-01  0.63045363E+00
  0.40007509E+00  0.57072527E+00  0.93487621E+00
  0.87289937E+00  0.67035194E+00  0.86955332E+00
  0.68956728E+00  0.67824267E+00  0.27501313E+00
  0.22552041E+00  0.50252824E+00  0.42137528E+00
  0.30103976E+00  0.40800026E+00  0.21815635E+00
  0.37856278E+00  0.62376388E+00  0.81222379E+00
  0.67369541E+00  0.23516652E+00  0.71242556E-01
  0.73809822E+00  0.30597998E+00  0.96093805E+00
  0.13933513E+00  0.65309690E+00  0.15277182E-01
  0.74846729E+00  0.37733738E+00  0.55162116E+00
  0.56517172E+00  0.65634221E+00  0.30959720E+00
  0.21926578E+00  0.47157949E+00  0.60273457E+00
  0.90055603E-01  0.36794026E+00  0.85744408E+00
  0.53359030E+00  0.70088639E+00  0.17281752E+00
  0.83522688E+00  0.43367957E+00  0.51007842E+00
  0.96683006E+00  0.10838332E+00  0.57155522E+00
  0.20960993E+00  0.86272160E-01  0.58958547E+00
  0.78040837E+00  0.62396325E+00  0.26213978E+00
  0.78460225E-01  0.65738906E-01  0.44851035E+00
  0.31784203E+00  0.48002686E+00  0.20977469E+00
  0.64859572E+00  0.91809432E+00  0.76974331E+00
  0.76001973E+00  0.26290280E+00  0.58575897E+00
  0.60471978E+00  0.11392299E+00  0.32870576E+00
  0.90576537E+00  0.41361749E+00  0.52197763E+00
  0.11153141E-01  0.87405102E+00  0.34379063E+00
  0.11096673E+00  0.99546423E+00  0.63695291E+00
  0.99736680E+00  0.32059598E-01  0.30965932E+00
  0.97023373E+00  0.14729617E+00  0.64180258E+00
  0.33812899E+00  0.37518869E+00  0.29075496E+00
  0.77495486E+00  0.46679545E+00  0.16142469E-01
  0.73772991E+00  0.43703935E+00  0.86849477E+00
  0.90814472E+00  0.19034458E+00  0.32268231E+00
  0.24499642E+00  0.99145863E+00  0.94770792E+00
  0.89629176E+00  0.72254595E-01  0.69450077E+00
  0.57563205E+00  0.42423722E+00  0.24391925E+00
  0.26171459E+00  0.39432782E-01  0.99432691E-01
  0.63437403E+00  0.30828037E+00  0.46940967E+00
  0.87631337E+00  0.44988736E+00  0.35131766E+00
  0.88079835E+00  0.43197505E+00  0.83000408E+00
  0.39440827E+00  0.78352762E+00  0.71917598E+00
  0.89054814E+00  0.57466187E+00  0.97706122E+00
  0.10909742E+00  0.70344502E+00  0.97439788E+00
  0.14329325E+00  0.60322110E+00  0.95986503E+00
  0.24248818E+00  0.56181690E+00  0.38708800E+00
  0.26593332E-01  0.46534971E+00  0.78125301E+00
  0.95495861E-01  0.45771460E+00  0.90801175E+00
  0.27884754E+00  0.42609080E+00  0.57911876E+00
  0.61290012E+00  0.88274374E+00  0.88473714E+00
  0.37011258E+00  0.52151247E+00  0.53238691E+00
  0.27553913E+00  0.51183008E+00  0.77936201E+00
  0.50721372E+00  0.98615727E+00  0.73655097E-01
  0.54288142E+00  0.87993545E+00  0.38263658E+00
  0.23398164E+00  0.56997300E+00  0.65129452E+00
  0.24838851E+00  0.30588680E+00  0.36812293E-01
  0.80103145E+00  0.23752663E+00  0.30520828E+00
  0.76442651E+00  0.95958045E+00  0.80237154E+00
  0.58679674E+00  0.56688155E-01  0.21138268E-01
  0.16131552E-01  0.37141692E+00  0.44802295E-02
  0.47988041E-01  0.27388543E+00  0.38074205E+00
  0.90958297E+00  0.34469375E+00  0.21831125E+00
  0.40709022E+00  0.49344152E+00  0.16735402E+00
  0.21226271E+00  0.76436950E+00  0.99539042E-01
  0.79602708E+00  0.11034796E-01  0.11088752E-01
  0.54815287E+00  0.76531409E+00  0.66470744E+00
  0.63431240E-01  0.35307680E+00  0.29381936E+00
  0.21442512E+00  0.38568422E+00  0.91124390E+00
  0.10164881E+00  0.64172450E+00  0.16354676E+00
  0.71691094E+00  0.88530905E-02  0.24479381E+00
  0.15018900E+00  0.32056101E+00  0.61435263E+00
  0.26041936E+00  0.32457898E+00  0.75017096E+00
  0.73725441E+00  0.82795834E+00  0.14161945E+00
  0.35733017E-02  0.28555231E+00  0.80770340E+00
  0.43930495E+00  0.91835784E+00  0.32950704E+00
  0.47146679E+00  0.83587628E+00  0.77818743E+00
  0.11952673E+00  0.22278010E+00  0.94116666E+00
  0.65802891E+00  0.91007417E+00  0.73219474E-01
  0.86991185E+00  0.82595999E+00  0.14724284E+00
  0.16467259E-01  0.35762468E+00  0.68280979E+00
  0.14963852E+00  0.13752240E+00  0.84560084E+00
  0.13244718E+00  0.49753898E+00  0.42974256E+00
  0.15488875E+00  0.92511004E-01  0.30630671E+00
  0.34317935E-01  0.84743663E+00  0.92636293E-01
  0.95424977E+00  0.12943134E+00  0.46263427E+00
  0.81725572E+00  0.19459715E+00  0.72151413E-01
  0.53794797E+00  0.26715073E+00  0.98531260E+00
  0.68997534E+00  0.33580146E+00  0.90663913E+00
  0.97530654E+00  0.63270651E+00  0.65679046E-02
  0.53049828E+00  0.34040182E+00  0.28902609E+00
  0.49330339E+00  0.12612618E+00  0.17185310E+00
  0.82647259E+00  0.29184900E+00  0.84554638E+00
  0.82964613E+00  0.17063969E+00  0.84890836E+00
  0.74078896E+00  0.12709883E+00  0.75248000E-01
  0.89175848E+00  0.82989562E+00  0.76471734E+00
  0.61398870E+00  0.20798124E+00  0.87741173E+00
  0.48005557E+00  0.43664683E+00  0.54927165E+00
  0.72234712E+00  0.72409810E+00  0.16681581E+00
  0.34322817E+00  0.68010564E+00  0.33227513E+00
  0.27700025E+00  0.78818828E+00  0.24562746E+00
  0.43161089E+00  0.82961045E+00  0.11708885E+00
  0.27673070E+00  0.75178070E+00  0.59582686E+00
  0.24176986E+00  0.68715168E+00  0.22484292E+00
  0.97864260E+00  0.74649539E+00  0.86866362E+00
  0.38653368E+00  0.81497862E+00  0.41183377E+00
  0.23550528E+00  0.14564119E-01  0.41294532E+00
  0.43562863E+00  0.74672493E+00  0.48226254E+00
  0.62524290E+00  0.23068239E+00  0.22927540E+00
  0.32047976E+00  0.38978231E+00  0.81888783E-01
  0.56402822E+00  0.67777660E+00  0.32852035E-01
  0.33909061E+00  0.14070306E+00  0.68007311E+00
  0.65185921E+00  0.58135162E+00  0.15442555E+00
  0.18648642E+00  0.13379934E+00  0.53236411E+00
  0.48945076E+00  0.56960181E+00  0.28267186E+00
  0.87525538E+00  0.59094609E+00  0.39650447E+00
  0.74162121E+00  0.57440599E+00  0.33939774E+00
  0.48691837E+00  0.65992910E+00  0.43742266E+00
  0.89168418E+00  0.68158262E+00  0.29040761E+00
  0.43544164E+00  0.20212514E+00  0.92542622E+00
  0.57574101E+00  0.53363062E+00  0.35868278E+00
  0.54311371E+00  0.16494989E+00  0.52885511E+00
  0.52331471E+00  0.76813777E-01  0.56187500E+00
  0.65937728E+00  0.69662230E+00  0.40921622E+00
  0.43596464E-01  0.71233837E+00  0.64858494E+00
  0.34242618E+00  0.34755690E-01  0.61975413E+00
  0.77990314E+00  0.68670591E+00  0.94388709E+00
  0.45803727E+00  0.38852104E+00  0.76551293E+00
  0.77997027E+00  0.33741055E+00  0.14002108E+00
  0.43423807E+00  0.24161915E+00  0.38468788E+00
  0.59120381E+00  0.74955279E+00  0.99474660E-01
  0.68215771E+00  0.36935850E+00  0.72599053E+00
  0.39323560E+00  0.67187323E-01  0.35629868E+00
  0.30305792E+00  0.71214087E+00  0.80622974E+00
  0.73644023E+00  0.85327363E+00  0.34213918E+00
  0.11119517E+00  0.87914704E+00  0.78811228E+00
  0.88616797E+00  0.92316234E+00  0.93828846E+00
  0.85364693E+00  0.64639872E+00  0.63626414E+00
  0.97066486E+00  0.97599680E+00  0.52747001E+00
  0.97065165E+00  0.99430745E+00  0.48429399E-01
  0.65092695E+00  0.44803346E+00  0.53839710E+00
  0.42805292E-01  0.10946262E+00  0.82561434E+00
  0.13485782E+00  0.45198473E-01  0.89175693E+00
  0.21336037E+00  0.86279262E+00  0.84929596E+00
  0.17913053E+00  0.95346051E+00  0.79869233E+00
  0.75648389E+00  0.43634802E+00  0.31901319E+00
  0.86049212E+00  0.31346768E+00  0.59292030E+00
  0.76849112E+00  0.65973061E+00  0.51007329E+00
  0.78542961E+00  0.47138939E+00  0.61763638E+00
  0.41586542E+00  0.35162889E+00  0.62723485E+00
  0.16902475E+00  0.86661492E+00  0.14771520E+00
  0.15657130E+00  0.93018080E+00  0.36628959E+00
  0.96210904E+00  0.23082654E+00  0.93198843E-01
  0.32487440E+00  0.96051366E+00  0.33063356E-01
  0.89261050E+00  0.94245376E+00  0.26775616E+00
  0.46538119E+00  0.70190797E+00  0.94024580E+00
  0.62248314E+00  0.55493633E-01  0.66520898E+00
  0.31870562E+00  0.22505096E+00  0.17129746E+00
  0.56663418E+00  0.92633763E+00  0.76423095E+00
  0.36772530E+00  0.60830940E+00  0.70322194E+00
  0.27018610E+00  0.49829500E+00  0.36086932E-02
  0.71616122E+00  0.90243893E+00  0.62951429E+00
  0.48753553E+00  0.50954643E+00  0.69796304E+00
  0.91461667E+00  0.58502339E+00  0.71514521E+00
  0.84325762E+00  0.77606242E+00  0.66444951E+00
  0.29839478E+00  0.20035941E+00  0.43362449E+00
  0.50906302E+00  0.48557555E+00  0.87568835E+00
  0.24664039E+00  0.18976464E+00  0.97089090E+00
  0.99929665E+00  0.80127432E+00  0.52652151E+00
  0.20367103E+00  0.40198700E+00  0.31328951E+00
  0.10047590E+00  0.19235849E+00  0.17556045E+00
  0.74636915E+00  0.79199553E-01  0.65468368E+00
  0.41020251E+00  0.59264160E+00  0.38600482E-01
  0.77094867E+00  0.19930219E-01  0.48283899E+00
  0.47072917E+00  0.65621367E+00  0.71662371E+00
  0.52729216E-03  0.65353738E+00  0.54574833E+00
  0.33751340E+00  0.14480453E+00  0.10691674E+00
  0.20352195E+00  0.55394570E+00  0.16667111E+00
  0.60230767E+00  0.56377048E+00  0.71235725E+00
  0.47244909E+00  0.95770435E+00  0.46043638E+00
  0.00000000E+00  0.00000000E+00  0.00000000E+00
  0.00000000E+00  0.00000000E+00  0.00000000E+00
  0.00000000E+00  0.00000000E+00  0.00000000E+00
  0.00000000E+00  0.00000000E+00  0.00000000E+00
  0.00000000E+00  0.00000000E+00  0.00000000E+00
  0.00000000E+00  0.00000000E+00  0.00000000E+00
  0.00000000E+00  0.00000000E+00  0.00000000E+00
  0.00000000E+00  0.00000000E+00  0.00000000E+00
  0.00000000E+00  0.00000000E+00  0.00000000E+00
  0.00000000E+00  0.00000000E+00  0.00000000E+00
  0.00000000E+00  0.00000000E+00  0.00000000E+00
  0.00000000E+00  0.00000000E+00  0.00000000E+00
  0.00000000E+00  0.00000000E+00  0.00000000E+00
  0.00000000E+00  0.00000000E+00  0.00000000E+00
  0.00000000E+00  0.00000000E+00  0.00000000E+00
  0.00000000E+00  0.00000000E+00  0.00000000E+00
  0.00000000E+00  0.00000000E+00  0.00000000E+00
  0.00000000E+00  0.00000000E+00  0.00000000E+00
  0.00000000E+00  0.00000000E+00  0.00000000E+00
  0.00000000E+00  0.00000000E+00  0.00000000E+00
  0.00000000E+00  0.00000000E+00  0.00000000E+00
  0.00000000E+00  0.00000000E+00  0.00000000E+00
  0.00000000E+00  0.00000000E+00  0.00000000E+00
  0.00000000E+00  0.00000000E+00  0.00000000E+00
  0.00000000E+00  0.00000000E+00  0.00000000E+00
  0.00000000E+00  0.00000000E+00  0.00000000E+00
  0.00000000E+00  0.00000000E+00  0.00000000E+00
  0.00000000E+00  0.00000000E+00  0.00000000E+00
  0.00000000E+00  0.00000000E+00  0.00000000E+00
  0.00000000E+00  0.00000000E+00  0.00000000E+00
  0.00000000E+00  0.00000000E+00  0.00000000E+00
  0.00000000E+00  0.00000000E+00  0.00000000E+00
  0.00000000E+00  0.00000000E+00  0.00000000E+00
  0.00000000E+00  0.00000000E+00  0.00000000E+00
  0.00000000E+00  0.00000000E+00  0.00000000E+00
  0.00000000E+00  0.00000000E+00  0.00000000E+00
  0.00000000E+00  0.00000000E+00  0.00000000E+00
  0.00000000E+00  0.00000000E+00  0.00000000E+00
  0.00000000E+00  0.00000000E+00  0.00000000E+00
  0.00000000E+00  0.00000000E+00  0.00000000E+00
  0.00000000E+00  0.00000000E+00  0.00000000E+00
  0.00000000E+00  0.00000000E+00  0.00000000E+00
  0.00000000E+00  0.00000000E+00  0.00000000E+00
  0.00000000E+00  0.00000000E+00  0.00000000E+00
  0.00000000E+00  0.00000000E+00  0.00000000E+00
  0.00000000E+00  0.00000000E+00  0.00000000E+00
  0.00000000E+00  0.00000000E+00  0.00000000E+00
  0.00000000E+00  0.00000000E+00  0.00000000E+00
  0.00000000E+00  0.00000000E+00  0.00000000E+00
  0.00000000E+00  0.00000000E+00  0.00000000E+00
  0.00000000E+00  0.00000000E+00  0.00000000E+00
  0.00000000E+00  0.00000000E+00  0.00000000E+00
  0.00000000E+00  0.00000000E+00  0.00000000E+00
  0.00000000E+00  0.00000000E+00  0.00000000E+00
  0.00000000E+00  0.00000000E+00  0.00000000E+00
  0.00000000E+00  0.00000000E+00  0.00000000E+00
  0.00000000E+00  0.00000000E+00  0.00000000E+00
  0.00000000E+00  0.00000000E+00  0.00000000E+00
  0.00000000E+00  0.00000000E+00  0.00000000E+00
  0.00000000E+00  0.00000000E+00  0.00000000E+00
  0.00000000E+00  0.00000000E+00  0.00000000E+00
  0.00000000E+00  0.00000000E+00  0.00000000E+00
  0.00000000E+00  0.00000000E+00  0.00000000E+00
  0.00000000E+00  0.00000000E+00  0.00000000E+00
  0.00000000E+00  0.00000000E+00  0.00000000E+00
  0.00000000E+00  0.00000000E+00  0.00000000E+00
  0.00000000E+00  0.00000000E+00  0.00000000E+00
  0.00000000E+00  0.00000000E+00  0.00000000E+00
  0.00000000E+00  0.00000000E+00  0.00000000E+00
  0.00000000E+00  0.00000000E+00  0.00000000E+00
  0.00000000E+00  0.00000000E+00  0.00000000E+00
  0.00000000E+00  0.00000000E+00  0.00000000E+00
  0.00000000E+00  0.00000000E+00  0.00000000E+00
  0.00000000E+00  0.00000000E+00  0.00000000E+00
  0.00000000E+00  0.00000000E+00  0.00000000E+00
  0.00000000E+00  0.00000000E+00  0.00000000E+00
  0.00000000E+00  0.00000000E+00  0.00000000E+00
  0.00000000E+00  0.00000000E+00  0.00000000E+00
  0.00000000E+00  0.00000000E+00  0.00000000E+00
  0.00000000E+00  0.00000000E+00  0.00000000E+00
  0.00000000E+00  0.00000000E+00  0.00000000E+00
  0.00000000E+00  0.00000000E+00  0.00000000E+00
  0.00000000E+00  0.00000000E+00  0.00000000E+00
  0.00000000E+00  0.00000000E+00  0.00000000E+00
  0.00000000E+00  0.00000000E+00  0.00000000E+00
  0.00000000E+00  0.00000000E+00  0.00000000E+00
  0.00000000E+00  0.00000000E+00  0.00000000E+00
  0.00000000E+00  0.00000000E+00  0.00000000E+00
  0.00000000E+00  0.00000000E+00  0.00000000E+00
  0.00000000E+00  0.00000000E+00  0.00000000E+00
  0.00000000E+00  0.00000000E+00  0.00000000E+00
  0.00000000E+00  0.00000000E+00  0.00000000E+00
  0.00000000E+00  0.00000000E+00  0.00000000E+00
  0.00000000E+00  0.00000000E+00  0.00000000E+00
  0.00000000E+00  0.00000000E+00  0.00000000E+00
  0.00000000E+00  0.00000000E+00  0.00000000E+00
  0.00000000E+00  0.00000000E+00  0.00000000E+00
  0.00000000E+00  0.00000000E+00  0.00000000E+00
  0.00000000E+00  0.00000000E+00  0.00000000E+00
  0.00000000E+00  0.00000000E+00  0.00000000E+00
  0.00000000E+00  0.00000000E+00  0.00000000E+00
  0.00000000E+00  0.00000000E+00  0.00000000E+00
  0.00000000E+00  0.00000000E+00  0.00000000E+00
  0.00000000E+00  0.00000000E+00  0.00000000E+00
  0.00000000E+00  0.00000000E+00  0.00000000E+00
  0.00000000E+00  0.00000000E+00  0.00000000E+00
  0.00000000E+00  0.00000000E+00  0.00000000E+00
  0.00000000E+00  0.00000000E+00  0.00000000E+00
  0.00000000E+00  0.00000000E+00  0.00000000E+00
  0.00000000E+00  0.00000000E+00  0.00000000E+00
  0.00000000E+00  0.00000000E+00  0.00000000E+00
  0.00000000E+00  0.00000000E+00  0.00000000E+00
  0.00000000E+00  0.00000000E+00  0.00000000E+00
  0.00000000E+00  0.00000000E+00  0.00000000E+00
  0.00000000E+00  0.00000000E+00  0.00000000E+00
  0.00000000E+00  0.00000000E+00  0.00000000E+00
  0.00000000E+00  0.00000000E+00  0.00000000E+00
  0.00000000E+00  0.00000000E+00  0.00000000E+00
  0.00000000E+00  0.00000000E+00  0.00000000E+00
  0.00000000E+00  0.00000000E+00  0.00000000E+00
  0.00000000E+00  0.00000000E+00  0.00000000E+00
  0.00000000E+00  0.00000000E+00  0.00000000E+00
  0.00000000E+00  0.00000000E+00  0.00000000E+00
  0.00000000E+00  0.00000000E+00  0.00000000E+00
  0.00000000E+00  0.00000000E+00  0.00000000E+00
  0.00000000E+00  0.00000000E+00  0.00000000E+00
  0.00000000E+00  0.00000000E+00  0.00000000E+00
  0.00000000E+00  0.00000000E+00  0.00000000E+00
  0.00000000E+00  0.00000000E+00  0.00000000E+00
  0.00000000E+00  0.00000000E+00  0.00000000E+00
  0.00000000E+00  0.00000000E+00  0.00000000E+00
  0.00000000E+00  0.00000000E+00  0.00000000E+00
  0.00000000E+00  0.00000000E+00  0.00000000E+00
  0.00000000E+00  0.00000000E+00  0.00000000E+00
  0.00000000E+00  0.00000000E+00  0.00000000E+00
  0.00000000E+00  0.00000000E+00  0.00000000E+00
  0.00000000E+00  0.00000000E+00  0.00000000E+00
  0.00000000E+00  0.00000000E+00  0.00000000E+00
  0.00000000E+00  0.00000000E+00  0.00000000E+00
  0.00000000E+00  0.00000000E+00  0.00000000E+00
  0.00000000E+00  0.00000000E+00  0.00000000E+00
  0.00000000E+00  0.00000000E+00  0.00000000E+00
  0.00000000E+00  0.00000000E+00  0.00000000E+00
  0.00000000E+00  0.00000000E+00  0.00000000E+00
  0.00000000E+00  0.00000000E+00  0.00000000E+00
  0.00000000E+00  0.00000000E+00  0.00000000E+00
  0.00000000E+00  0.00000000E+00  0.00000000E+00
  0.00000000E+00  0.00000000E+00  0.00000000E+00
  0.00000000E+00  0.00000000E+00  0.00000000E+00
  0.00000000E+00  0.00000000E+00  0.00000000E+00
  0.00000000E+00  0.00000000E+00  0.00000000E+00
  0.00000000E+00  0.00000000E+00  0.00000000E+00
  0.00000000E+00  0.00000000E+00  0.00000000E+00
  0.00000000E+00  0.00000000E+00  0.00000000E+00
  0.00000000E+00  0.00000000E+00  0.00000000E+00
  0.00000000E+00  0.00000000E+00  0.00000000E+00
  0.00000000E+00  0.00000000E+00  0.00000000E+00
  0.00000000E+00  0.00000000E+00  0.00000000E+00
  0.00000000E+00  0.00000000E+00  0.00000000E+00
  0.00000000E+00  0.00000000E+00  0.00000000E+00
  0.00000000E+00  0.00000000E+00  0.00000000E+00
  0.00000000E+00  0.00000000E+00  0.00000000E+00
  0.00000000E+00  0.00000000E+00  0.00000000E+00
  0.00000000E+00  0.00000000E+00  0.00000000E+00
  0.00000000E+00  0.00000000E+00  0.00000000E+00
  0.00000000E+00  0.00000000E+00  0.00000000E+00
  0.00000000E+00  0.00000000E+00  0.00000000E+00
  0.00000000E+00  0.00000000E+00  0.00000000E+00
  0.00000000E+00  0.00000000E+00  0.00000000E+00
  0.00000000E+00  0.00000000E+00  0.00000000E+00
  0.00000000E+00  0.00000000E+00  0.00000000E+00
  0.00000000E+00  0.00000000E+00  0.00000000E+00
  0.00000000E+00  0.00000000E+00  0.00000000E+00
  0.00000000E+00  0.00000000E+00  0.00000000E+00
  0.00000000E+00  0.00000000E+00  0.00000000E+00
  0.00000000E+00  0.00000000E+00  0.00000000E+00
  0.00000000E+00  0.00000000E+00  0.00000000E+00
  0.00000000E+00  0.00000000E+00  0.00000000E+00
  0.00000000E+00  0.00000000E+00  0.00000000E+00
  0.00000000E+00  0.00000000E+00  0.00000000E+00
  0.00000000E+00  0.00000000E+00  0.00000000E+00
  0.00000000E+00  0.00000000E+00  0.00000000E+00
  0.00000000E+00  0.00000000E+00  0.00000000E+00
  0.00000000E+00  0.00000000E+00  0.00000000E+00
  0.00000000E+00  0.00000000E+00  0.00000000E+00
  0.00000000E+00  0.00000000E+00  0.00000000E+00
  0.00000000E+00  0.00000000E+00  0.00000000E+00
  0.00000000E+00  0.00000000E+00  0.00000000E+00
  0.00000000E+00  0.00000000E+00  0.00000000E+00
  0.00000000E+00  0.00000000E+00  0.00000000E+00
  0.00000000E+00  0.00000000E+00  0.00000000E+00
  0.00000000E+00  0.00000000E+00  0.00000000E+00
  0.00000000E+00  0.00000000E+00  0.00000000E+00
  0.00000000E+00  0.00000000E+00  0.00000000E+00
  0.00000000E+00  0.00000000E+00  0.00000000E+00
  0.00000000E+00  0.00000000E+00  0.00000000E+00
  0.00000000E+00  0.00000000E+00  0.00000000E+00
  0.00000000E+00  0.00000000E+00  0.00000000E+00
  0.00000000E+00  0.00000000E+00  0.00000000E+00
  0.00000000E+00  0.00000000E+00  0.00000000E+00
  0.00000000E+00  0.00000000E+00  0.00000000E+00
  0.00000000E+00  0.00000000E+00  0.00000000E+00
  0.00000000E+00  0.00000000E+00  0.00000000E+00
  0.00000000E+00  0.00000000E+00  0.00000000E+00
  0.00000000E+00  0.00000000E+00  0.00000000E+00
  0.00000000E+00  0.00000000E+00  0.00000000E+00
  0.00000000E+00  0.00000000E+00  0.00000000E+00
  0.00000000E+00  0.00000000E+00  0.00000000E+00
  0.00000000E+00  0.00000000E+00  0.00000000E+00
  0.00000000E+00  0.00000000E+00  0.00000000E+00
  0.00000000E+00  0.00000000E+00  0.00000000E+00
  0.00000000E+00  0.00000000E+00  0.00000000E+00
  0.00000000E+00  0.00000000E+00  0.00000000E+00
  0.00000000E+00  0.00000000E+00  0.00000000E+00
  0.00000000E+00  0.00000000E+00  0.00000000E+00
  0.00000000E+00  0.00000000E+00  0.00000000E+00
  0.00000000E+00  0.00000000E+00  0.00000000E+00
  0.00000000E+00  0.00000000E+00  0.00000000E+00
  0.00000000E+00  0.00000000E+00  0.00000000E+00
  0.00000000E+00  0.00000000E+00  0.00000000E+00
  0.00000000E+00  0.00000000E+00  0.00000000E+00
  0.00000000E+00  0.00000000E+00  0.00000000E+00
  0.00000000E+00  0.00000000E+00  0.00000000E+00
  0.00000000E+00  0.00000000E+00  0.00000000E+00
  0.00000000E+00  0.00000000E+00  0.00000000E+00
  0.00000000E+00  0.00000000E+00  0.00000000E+00
  0.00000000E+00  0.00000000E+00  0.00000000E+00
  0.00000000E+00  0.00000000E+00  0.00000000E+00
  0.00000000E+00  0.00000000E+00  0.00000000E+00
  0.00000000E+00  0.00000000E+00  0.00000000E+00
  0.00000000E+00  0.00000000E+00  0.00000000E+00
  0.00000000E+00  0.00000000E+00  0.00000000E+00
  0.00000000E+00  0.00000000E+00  0.00000000E+00
  0.00000000E+00  0.00000000E+00  0.00000000E+00
  0.00000000E+00  0.00000000E+00  0.00000000E+00
  0.00000000E+00  0.00000000E+00  0.00000000E+00
  0.00000000E+00  0.00000000E+00  0.00000000E+00
  0.00000000E+00  0.00000000E+00  0.00000000E+00
  0.00000000E+00  0.00000000E+00  0.00000000E+00
  0.00000000E+00  0.00000000E+00  0.00000000E+00
  0.00000000E+00  0.00000000E+00  0.00000000E+00
  0.00000000E+00  0.00000000E+00  0.00000000E+00
  0.00000000E+00  0.00000000E+00  0.00000000E+00
  0.00000000E+00  0.00000000E+00  0.00000000E+00
  0.00000000E+00  0.00000000E+00  0.00000000E+00
  0.00000000E+00  0.00000000E+00  0.00000000E+00
  0.00000000E+00  0.00000000E+00  0.00000000E+00
  0.00000000E+00  0.00000000E+00  0.00000000E+00
  0.00000000E+00  0.00000000E+00  0.00000000E+00
  0.00000000E+00  0.00000000E+00  0.00000000E+00
  0.00000000E+00  0.00000000E+00  0.00000000E+00
  0.00000000E+00  0.00000000E+00  0.00000000E+00
  0.00000000E+00  0.00000000E+00  0.00000000E+00
  0.00000000E+00  0.00000000E+00  0.00000000E+00
  0.00000000E+00  0.00000000E+00  0.00000000E+00
  0.00000000E+00  0.00000000E+00  0.00000000E+00
  0.00000000E+00  0.00000000E+00  0.00000000E+00
  0.00000000E+00  0.00000000E+00  0.00000000E+00
  0.00000000E+00  0.00000000E+00  0.00000000E+00
  0.00000000E+00  0.00000000E+00  0.00000000E+00
  0.00000000E+00  0.00000000E+00  0.00000000E+00
  0.00000000E+00  0.00000000E+00  0.00000000E+00
  0.00000000E+00  0.00000000E+00  0.00000000E+00
  0.00000000E+00  0.00000000E+00  0.00000000E+00
  0.00000000E+00  0.00000000E+00  0.00000000E+00
  0.00000000E+00  0.00000000E+00  0.00000000E+00
  0.00000000E+00  0.00000000E+00  0.00000000E+00
  0.00000000E+00  0.00000000E+00  0.00000000E+00
  0.00000000E+00  0.00000000E+00  0.00000000E+00
  0.00000000E+00  0.00000000E+00  0.00000000E+00
  0.00000000E+00  0.00000000E+00  0.00000000E+00
  0.00000000E+00  0.00000000E+00  0.00000000E+00
  0.00000000E+00  0.00000000E+00  0.00000000E+00
  0.00000000E+00  0.00000000E+00  0.00000000E+00
  0.00000000E+00  0.00000000E+00  0.00000000E+00
  0.00000000E+00  0.00000000E+00  0.00000000E+00
  0.00000000E+00  0.00000000E+00  0.00000000E+00
  0.00000000E+00  0.00000000E+00  0.00000000E+00
  0.00000000E+00  0.00000000E+00  0.00000000E+00
  0.00000000E+00  0.00000000E+00  0.00000000E+00
  0.00000000E+00  0.00000000E+00  0.00000000E+00
  0.00000000E+00  0.00000000E+00  0.00000000E+00
  0.00000000E+00  0.00000000E+00  0.00000000E+00
  0.00000000E+00  0.00000000E+00  0.00000000E+00
  0.00000000E+00  0.00000000E+00  0.00000000E+00
  0.00000000E+00  0.00000000E+00  0.00000000E+00
  0.00000000E+00  0.00000000E+00  0.00000000E+00
  0.00000000E+00  0.00000000E+00  0.00000000E+00
  0.00000000E+00  0.00000000E+00  0.00000000E+00
  0.00000000E+00  0.00000000E+00  0.00000000E+00
  0.00000000E+00  0.00000000E+00  0.00000000E+00
  0.00000000E+00  0.00000000E+00  0.00000000E+00
  0.00000000E+00  0.00000000E+00  0.00000000E+00
  0.00000000E+00  0.00000000E+00  0.00000000E+00
  0.00000000E+00  0.00000000E+00  0.00000000E+00
  0.00000000E+00  0.00000000E+00  0.00000000E+00
  0.00000000E+00  0.00000000E+00  0.00000000E+00
  0.00000000E+00  0.00000000E+00  0.00000000E+00
  0.00000000E+00  0.00000000E+00  0.00000000E+00
  0.00000000E+00  0.00000000E+00  0.00000000E+00
  0.00000000E+00  0.00000000E+00  0.00000000E+00
  0.00000000E+00  0.00000000E+00  0.00000000E+00
  0.00000000E+00  0.00000000E+00  0.00000000E+00
  0.00000000E+00  0.00000000E+00  0.00000000E+00
  0.00000000E+00  0.00000000E+00  0.00000000E+00
  0.00000000E+00  0.00000000E+00  0.00000000E+00
  0.00000000E+00  0.00000000E+00  0.00000000E+00
  0.00000000E+00  0.00000000E+00  0.00000000E+00
  0.00000000E+00  0.00000000E+00  0.00000000E+00
  0.00000000E+00  0.00000000E+00  0.00000000E+00
  0.00000000E+00  0.00000000E+00  0.00000000E+00
  0.00000000E+00  0.00000000E+00  0.00000000E+00
  0.00000000E+00  0.00000000E+00  0.00000000E+00
  0.00000000E+00  0.00000000E+00  0.00000000E+00
  0.00000000E+00  0.00000000E+00  0.00000000E+00
  0.00000000E+00  0.00000000E+00  0.00000000E+00
  0.00000000E+00  0.00000000E+00  0.00000000E+00
  0.00000000E+00  0.00000000E+00  0.00000000E+00
  0.00000000E+00  0.00000000E+00  0.00000000E+00
  0.00000000E+00  0.00000000E+00  0.00000000E+00
  0.00000000E+00  0.00000000E+00  0.00000000E+00
  0.00000000E+00  0.00000000E+00  0.00000000E+00
  0.00000000E+00  0.00000000E+00  0.00000000E+00
  0.00000000E+00  0.00000000E+00  0.00000000E+00
  0.00000000E+00  0.00000000E+00  0.00000000E+00
  0.00000000E+00  0.00000000E+00  0.00000000E+00
  0.00000000E+00  0.00000000E+00  0.00000000E+00
  0.00000000E+00  0.00000000E+00  0.00000000E+00
  0.00000000E+00  0.00000000E+00  0.00000000E+00
  0.00000000E+00  0.00000000E+00  0.00000000E+00
  0.00000000E+00  0.00000000E+00  0.00000000E+00
  0.00000000E+00  0.00000000E+00  0.00000000E+00
  0.00000000E+00  0.00000000E+00  0.00000000E+00
  0.00000000E+00  0.00000000E+00  0.00000000E+00
  0.00000000E+00  0.00000000E+00  0.00000000E+00
  0.00000000E+00  0.00000000E+00  0.00000000E+00
  0.00000000E+00  0.00000000E+00  0.00000000E+00
  0.00000000E+00  0.00000000E+00  0.00000000E+00
  0.00000000E+00  0.00000000E+00  0.00000000E+00
  0.00000000E+00  0.00000000E+00  0.00000000E+00
  0.00000000E+00  0.00000000E+00  0.00000000E+00
  0.00000000E+00  0.00000000E+00  0.00000000E+00
  0.00000000E+00  0.00000000E+00  0.00000000E+00
  0.00000000E+00  0.00000000E+00  0.00000000E+00
  0.00000000E+00  0.00000000E+00  0.00000000E+00
  0.00000000E+00  0.00000000E+00  0.00000000E+00
  0.00000000E+00  0.00000000E+00  0.00000000E+00
  0.00000000E+00  0.00000000E+00  0.00000000E+00
  0.00000000E+00  0.00000000E+00  0.00000000E+00
  0.00000000E+00  0.00000000E+00  0.00000000E+00
  0.00000000E+00  0.00000000E+00  0.00000000E+00
  0.00000000E+00  0.00000000E+00  0.00000000E+00
  0.00000000E+00  0.00000000E+00  0.00000000E+00
  0.00000000E+00  0.00000000E+00  0.00000000E+00
  0.00000000E+00  0.00000000E+00  0.00000000E+00
  0.00000000E+00  0.00000000E+00  0.00000000E+00
  0.00000000E+00  0.00000000E+00  0.00000000E+00
  0.00000000E+00  0.00000000E+00  0.00000000E+00
  0.00000000E+00  0.00000000E+00  0.00000000E+00
  0.00000000E+00  0.00000000E+00  0.00000000E+00
  0.00000000E+00  0.00000000E+00  0.00000000E+00
  0.00000000E+00  0.00000000E+00  0.00000000E+00
  0.00000000E+00  0.00000000E+00  0.00000000E+00
  0.00000000E+00  0.00000000E+00  0.00000000E+00
  0.00000000E+00  0.00000000E+00  0.00000000E+00
  0.00000000E+00  0.00000000E+00  0.00000000E+00
  0.00000000E+00  0.00000000E+00  0.00000000E+00
  0.00000000E+00  0.00000000E+00  0.00000000E+00
  0.00000000E+00  0.00000000E+00  0.00000000E+00
  0.00000000E+00  0.00000000E+00  0.00000000E+00
  0.00000000E+00  0.00000000E+00  0.00000000E+00
  0.00000000E+00  0.00000000E+00  0.00000000E+00
  0.00000000E+00  0.00000000E+00  0.00000000E+00
  0.00000000E+00  0.00000000E+00  0.00000000E+00
  0.00000000E+00  0.00000000E+00  0.00000000E+00
  0.00000000E+00  0.00000000E+00  0.00000000E+00
  0.00000000E+00  0.00000000E+00  0.00000000E+00
  0.00000000E+00  0.00000000E+00  0.00000000E+00
  0.00000000E+00  0.00000000E+00  0.00000000E+00
  0.00000000E+00  0.00000000E+00  0.00000000E+00
  0.00000000E+00  0.00000000E+00  0.00000000E+00
  0.00000000E+00  0.00000000E+00  0.00000000E+00
  0.00000000E+00  0.00000000E+00  0.00000000E+00
  0.00000000E+00  0.00000000E+00  0.00000000E+00
  0.00000000E+00  0.00000000E+00  0.00000000E+00
  0.00000000E+00  0.00000000E+00  0.00000000E+00
  0.00000000E+00  0.00000000E+00  0.00000000E+00
  0.00000000E+00  0.00000000E+00  0.00000000E+00
  0.00000000E+00  0.00000000E+00  0.00000000E+00
  0.00000000E+00  0.00000000E+00  0.00000000E+00
  0.00000000E+00  0.00000000E+00  0.00000000E+00
  0.00000000E+00  0.00000000E+00  0.00000000E+00
  0.00000000E+00  0.00000000E+00  0.00000000E+00
  0.00000000E+00  0.00000000E+00  0.00000000E+00
  0.00000000E+00  0.00000000E+00  0.00000000E+00
  0.00000000E+00  0.00000000E+00  0.00000000E+00
  0.00000000E+00  0.00000000E+00  0.00000000E+00
  0.00000000E+00  0.00000000E+00  0.00000000E+00
  0.00000000E+00  0.00000000E+00  0.00000000E+00
  0.00000000E+00  0.00000000E+00  0.00000000E+00
  0.00000000E+00  0.00000000E+00  0.00000000E+00
  0.00000000E+00  0.00000000E+00  0.00000000E+00
  0.00000000E+00  0.00000000E+00  0.00000000E+00
  0.00000000E+00  0.00000000E+00  0.00000000E+00
  0.00000000E+00  0.00000000E+00  0.00000000E+00
  0.00000000E+00  0.00000000E+00  0.00000000E+00
  0.00000000E+00  0.00000000E+00  0.00000000E+00
  0.00000000E+00  0.00000000E+00  0.00000000E+00
  0.00000000E+00  0.00000000E+00  0.00000000E+00
  0.00000000E+00  0.00000000E+00  0.00000000E+00
  0.00000000E+00  0.00000000E+00  0.00000000E+00
  0.00000000E+00  0.00000000E+00  0.00000000E+00
  0.00000000E+00  0.00000000E+00  0.00000000E+00
  0.00000000E+00  0.00000000E+00  0.00000000E+00
  0.00000000E+00  0.00000000E+00  0.00000000E+00
  0.00000000E+00  0.00000000E+00  0.00000000E+00
  0.00000000E+00  0.00000000E+00  0.00000000E+00
  0.00000000E+00  0.00000000E+00  0.00000000E+00
  0.00000000E+00  0.00000000E+00  0.00000000E+00
  0.00000000E+00  0.00000000E+00  0.00000000E+00
  0.00000000E+00  0.00000000E+00  0.00000000E+00
  0.00000000E+00  0.00000000E+00  0.00000000E+00
  0.00000000E+00  0.00000000E+00  0.00000000E+00
  0.00000000E+00  0.00000000E+00  0.00000000E+00
  0.00000000E+00  0.00000000E+00  0.00000000E+00
  0.00000000E+00  0.00000000E+00  0.00000000E+00
  0.00000000E+00  0.00000000E+00  0.00000000E+00
  0.00000000E+00  0.00000000E+00  0.00000000E+00
  0.00000000E+00  0.00000000E+00  0.00000000E+00
  0.00000000E+00  0.00000000E+00  0.00000000E+00
  0.00000000E+00  0.00000000E+00  0.00000000E+00
  0.00000000E+00  0.00000000E+00  0.00000000E+00
  0.00000000E+00  0.00000000E+00  0.00000000E+00
  0.00000000E+00  0.00000000E+00  0.00000000E+00
  0.00000000E+00  0.00000000E+00  0.00000000E+00
  0.00000000E+00  0.00000000E+00  0.00000000E+00
  0.00000000E+00  0.00000000E+00  0.00000000E+00
  0.00000000E+00  0.00000000E+00  0.00000000E+00
  0.00000000E+00  0.00000000E+00  0.00000000E+00
  0.00000000E+00  0.00000000E+00  0.00000000E+00
  0.00000000E+00  0.00000000E+00  0.00000000E+00
  0.00000000E+00  0.00000000E+00  0.00000000E+00
  0.00000000E+00  0.00000000E+00  0.00000000E+00
  0.00000000E+00  0.00000000E+00  0.00000000E+00
  0.00000000E+00  0.00000000E+00  0.00000000E+00
  0.00000000E+00  0.00000000E+00  0.00000000E+00
  0.00000000E+00  0.00000000E+00  0.00000000E+00
  0.00000000E+00  0.00000000E+00  0.00000000E+00
  0.00000000E+00  0.00000000E+00  0.00000000E+00
  0.00000000E+00  0.00000000E+00  0.00000000E+00
  0.00000000E+00  0.00000000E+00  0.00000000E+00
  0.00000000E+00  0.00000000E+00  0.00000000E+00
  0.00000000E+00  0.00000000E+00  0.00000000E+00
  0.00000000E+00  0.00000000E+00  0.00000000E+00
  0.00000000E+00  0.00000000E+00  0.00000000E+00
  0.00000000E+00  0.00000000E+00  0.00000000E+00
  0.00000000E+00  0.00000000E+00  0.00000000E+00
  0.00000000E+00  0.00000000E+00  0.00000000E+00
  0.00000000E+00  0.00000000E+00  0.00000000E+00
  0.00000000E+00  0.00000000E+00  0.00000000E+00
  0.00000000E+00  0.00000000E+00  0.00000000E+00
  0.00000000E+00  0.00000000E+00  0.00000000E+00
  0.00000000E+00  0.00000000E+00  0.00000000E+00
  0.00000000E+00  0.00000000E+00  0.00000000E+00
  0.00000000E+00  0.00000000E+00  0.00000000E+00
  0.00000000E+00  0.00000000E+00  0.00000000E+00
