# Amorphous model
1.000000
13.8161090604263670  0.0000000000000000  0.0000000000000000
 0.0000000000000000 13.8161090604263670  0.0000000000000000
 0.0000000000000000  0.0000000000000000 13.8161090604263670
C H
77 156
Cartesian
 8.8178413255428829  2.9258676642910775 13.4649711781861861
 8.9287071541288441 13.3844186539218448  5.2934142040910110
 9.4187612457650260  9.7626558927969924  6.8991278554201898
 5.0850986058151708  6.5141082810204161  9.4823653836579496
 3.3300181860794407  6.4533679217634727  7.6366652577625977
10.3413901595088440  1.7879682745622567  5.6695720039979420
 7.1791478186257081  8.2783280396803782  0.0384356231204084
13.4551266811041685 10.8364667642453938  4.0462064045140629
 9.6184588427848539  7.4298558611190053  0.0110813859325241
10.3520232773866816  5.0284106601402918 13.3736449222220841
 9.9987499301806864 11.5298916493361254 12.7518824488788276
 7.1409595568397499  2.7586538089411174 11.5424285607022732
 4.2980615175925152  5.5918449192726598  8.5106389271392615
 0.3320369646179877  7.2247037525488480 12.5808373061031098
 0.7589927148408186  4.9864379122198574 13.7439697699278121
 0.5815105441859956 11.3599186087172512 10.4371010860498927
 3.3825674226559190  6.7114015177628588 13.4037178425175263
12.8313349245877255  6.5173152388137758  5.4249729192341327
13.7643186650577043  5.6102400629446620  7.6442665962370100
 9.0710868615024793  9.8622365058279584  0.6836074043689244
 0.6997737680866436 10.6192510923464951  6.9937428715775631
 9.3338533469607121  6.1497741761240672 12.9741318656171494
 1.0809427325483849 12.9423921559464894  3.7628271983310988
 8.6499543358024020 11.0742704030892725  6.5864794947855181
10.9202692409406232  1.3257413998995329  7.0451245020454394
 0.8146979851407803 11.8981386053679508  6.0951702369641279
 0.8852215571981308 11.6103910194879099  4.5603217059512531
 3.4233752014112078  2.5466859575299434 10.9411592776763058
12.5018852116564467  3.3428727549670771  7.5954299488842345
 7.2771879950314187  0.8915568256055444 13.3120709022627572
10.8891631864497249 11.5142253773784411  1.3481513863586390
 2.2061436812715414  7.0868674724904182  0.5231937294298987
10.0063157526195816  0.5701954613716680  4.7433030085834620
 3.1808832995009784 12.3418915223375265  2.3578556610692019
 7.8836121531706667 13.0562622299421847  4.1923882684006557
 1.6824611463272401 12.7631389719059136  2.3300660892699767
 9.1259213123757981  2.7448075912429406  5.8191072175484084
11.0763556958658924 10.1106830051073402 10.9001574651764166
 6.4664399840993596  1.9512198998967900 10.3860603526695812
 3.5189918735207275  4.4630776825232132  9.2717764187543104
11.6492035550354025  1.7264664013480235  9.4064032926511452
 8.0296591821869931 11.6977156442838037  7.8805325534460238
 0.3165098336082988  4.4820028163809358  2.4191627343133977
 1.5334011581091502  6.4763104836298204  5.7802123059458292
 2.8105489507056749  5.7584005650499890  6.3317946589533634
 9.5994841063910989 12.0816468453008845  5.8529612721370601
11.3070311247335908  2.4419505443311280  8.0728959733504269
 9.3853936448315487  6.4632776340365972 11.4509941575730281
 8.0728349157004438  1.9494161993606554 12.5033013861384461
 8.6631679219849609  8.6515313357186407 13.5975680172713425
 3.9204552355955880  5.7247817931002896  5.2461231681468181
 7.5252650984538896  1.2757857836887005  9.4748498897410762
 7.0906351371396781 10.7697769232026452  8.7140996948772909
 3.0237654399441922  1.9107183154594143  2.4649728809420903
 2.9146126782843371 12.2139297530598263  9.7718736489403781
 5.8592215501417506 10.2941529697959488  7.8986524413351020
 1.5170648316143698 11.7779383052769724  9.2449812218456699
 0.8134092760745997  6.5427364437407292  0.0739291148373962
 1.1608209312217159  2.6315621230113102  0.8260437420889204
12.4539574043502341 11.9877207886281845 12.0547399267836113
 0.3291764068994283 13.7645383674879476 11.3511146995321788
 1.7047044593579255 10.6312689011660240  8.1916170776890169
 4.3585217403372383  3.5703690432247654 10.2426664739864037
 5.5484282421868425  2.8638601956601413  9.5078674866464645
13.0568662154819535 10.3722468655712809  7.4510281939445271
10.0630995054091379  3.6024256744880283 12.8036519305662821
 1.5881079469264332  1.6227035075378584  1.9462603742259397
11.0434586824998000 11.4989946243215364 11.5916265843808830
10.3300926867686407 10.6454778494747586  0.1890680340622310
 1.4219502920275779  0.1682458412249961  1.3838642006987030
11.3061736113767317  2.6941807757956369 12.9868914751474804
12.3319871069464391  4.9807088324499578  9.6234388569607390
 0.1849754172649991  5.7575848801897873  6.1064245499036129
 1.1932712331726858  4.1546765220315613  1.1794314276274811
12.4794127017694656  4.8358107648645738  8.0859847893257708
13.4008965130625022 12.4741934471865434 10.9041607798274285
 6.6287019482180263 11.4984255269012579  9.9999440809703088
11.3470278588214022  5.3488859643136202 13.0421949603782394
 4.2408478678882453  6.7397658773203197  4.9784676881656313
11.1259702631366295  1.6904340689981048 12.5825218528971483
10.1746190671016024  0.6809685527415308  7.5267621453790561
13.7422945205731075  6.6177352535247636  8.0809848457799092
13.4501307053557611  2.8737637178068152  7.8898729067682893
13.1340049493507003  4.4478601962115221 10.1504222873714625
13.4409300404062755  0.7027201365729567 11.7239257261638805
 7.0459566487046104  0.8172166658339020  8.6022864577640554
 8.0664419886104213  0.4838032958739884 10.0055941102276194
 9.1845915022913580  5.5726136192116442 10.8461521176741336
11.9142748409072219  2.4261411353313864 10.2008756279489923
11.3644471852561288  4.5980686099287595  9.9664415335754128
 7.7075860623842019  3.5824844400719194 11.0922221682951267
10.8012909309226508  1.1291134767037772  9.7651069327858373
 8.8294033413482040  1.4133905596558289 11.9178293968013200
12.1754452315266342  3.1109998102743592 12.4643457267255613
 8.2548920207511394  2.0091606920015916  9.1106236088789601
13.3711740930528755  9.8508417495132292  4.5187555225801077
13.5500809147678112  4.7030760778677365 13.4814121043257487
12.9886521793035250  9.4557006715058591  8.0507181721121732
12.6809072982579956 11.2112597742786306  8.0488621353611549
12.9509876290556853 11.2137560393782785 12.6542488428337556
 9.0278827685996461 11.2352528455405469 12.3359290461480811
 9.8552310464692212 12.5716470104629749 13.0677933101682733
10.6747984695256903 12.2154666837393151 10.8452861862278347
 7.4908714739370446 11.8267534736008422 10.5931944365782300
10.0610763268006664  9.7668568935924398 10.6669222737790612
11.5583839048719703  9.3543925083309780 11.5318472841432502
 8.8464047501152123 12.0459666160632111  8.5270628651700413
10.1634706228705127  9.9222467354080308  7.6884450043122214
11.6189597226975323 10.1613352375369530  9.9523110357552831
 8.7392270712814586  8.9699960255465463 12.5525825239019859
 8.6284196245216478  7.2044935373488670 11.1695892238992549
 7.6530079292169617  9.8847043212957395  9.0357317379584323
 7.4518734119798360 12.5860549516646607  7.6053017812114838
11.1099544688567065  9.9210175729500136 13.7474328151318872
10.6536903325551968  7.7389665883788439 13.6389195286166149
 8.3245820157015338  5.7972977456414014 13.2131716937327042
12.7784881694074990 12.7421601407308600 10.0425947067021113
13.8005521098974739 12.5850078715056028  6.3077544039358280
10.4108262737684925 12.3532573741868283  6.5400114994939358
13.5111120506018629 10.6619988103332624  2.9659654315656674
 9.5746049905063018  7.1552689307983925  1.0730795522142724
 8.2356625857929515 10.5715392640720864  0.7566305132089326
12.3875679418761706 10.2536990130453241  6.5918206838927844
10.0818200374956533 11.5628883480663447  5.0142487600536878
11.1078509571879387 10.8925298580004721  2.2247700728464324
 9.2380012828790150  9.4948651386065315  1.7048383303331534
 8.3439850272420308 12.5075280043028556  3.3613000162921001
11.8199572608461203 12.0164221736986505  1.0596857093341505
 9.9382268543600958  9.3903272900877930  6.0070622206212256
12.5350203685920896 11.3976798334621741  4.2522319156571751
 7.0388512755779118  7.8989920904574653  1.0584051043210625
 7.8379641949307661 10.8090003611360821  5.9002245805748395
 7.0594358748812560 12.4526303385039263  4.5895058955051393
10.1663885781081724 12.2817361279522643  1.6521538078127929
12.6710301814000665  7.4942044045098086  5.8988975149498692
12.2885261155844105 12.8289444708352143 12.7393080123837379
11.6030487135551077  5.3243435274141557  7.6430211033192208
11.1209585845856935  2.3527504188304604  5.1444156926414824
12.3805379904507085  6.0358912116269376  9.9201788780738305
 2.5537576638222728  3.0503178435462157 11.3815814799915032
 3.0294285736144797  3.8068189207161840  8.5420252197256801
 6.1880114922654155  3.6213630180574281  9.0396823027925848
 1.3769969865823715  4.6904223079226544 12.8866198717859675
 6.3654210622803156  3.2289749322553263 12.1577736265323679
 5.0318027069282003  5.1256200430609269  7.8436112089577961
 5.1348629641240908  2.2639363398411856  8.6863277002019643
 3.9400405923162793  2.0224083725845556 11.7543362506230125
 3.0554410808818986  1.7995233416317546 10.2266800982596457
 3.5148008800441879  5.6241132310731796 13.3396823693883313
 2.7100489090572868  4.9317571086617562  9.8487465799589415
 6.8124780259124194  0.1510915542073192 12.6500730870510623
 1.8022805631442775  2.4656250735927738 13.7670843443809758
 1.1573744093920819 11.9275165510751755  1.8524282494837117
 1.7336086829293791 13.6160520026463452  4.3322505009551406
 0.1099917775010351 13.4499971548144863  3.6928234656175203
 3.5970111326553624 12.3074640604547128  1.3431650985554580
 1.7282758523318407 12.4411813300598659  6.3699488842685721
 2.1536727425562674  8.1804267470456011  0.6000119990418362
 3.3000148363640509 11.3397951452411760  2.7865325649675761
 0.8052713893104837  5.1003438046005805  8.0980219566398191
 3.7940114920078560 13.0266937757980799  2.9527581859867791
 4.7554146147942689  4.2241180259725013 11.0271067723615523
 0.8701606519465788  0.4084257749632716 10.5159571230717148
 2.0458990120277871  0.0591796090883623  0.4874958398302915
 2.5493562950676161  4.7155390752363200  6.5473359457338454
 3.2584518648912741  1.2967643328817378  3.3399378071126531
 0.2418768622009377  4.7575389677309765  5.6605211468462517
 3.1326779303848671  2.9502854649015244  2.7931061127444821
 0.6413500347572132  3.9178240345228161  3.3006796474258984
 2.2290580602729708  4.4251940169700816  1.4128142860337078
 0.8942900159037954  1.7365812170451296  2.7875923314349738
 0.3927116202316672  5.5420648834465691  2.6825010727954908
 5.8456535740003872  5.9569714889890015 10.0420566894570342
 3.7731549042284858  1.7147582454306960  1.6872975734873634
 4.8006674755157945  5.1683022211608023  5.5893486185068344
 3.5569787153044103  5.2321066141665789  4.3352542061567849
 0.1433364645830650  2.3770415174990855  0.5041668582090963
 2.4306181747609035  6.7314322982872596  1.5366189258490213
 1.6100417552783117  6.5579524660425896  4.6881066964603146
 0.0913529611885266  6.8337322584415077  0.8468759697698740
 6.4879787995875837  1.3648761893512269  0.0942491706353490
 5.8475713888063368  1.1540565129933036 10.8140636612270313
 2.4836619091776235  6.7632084572152209  8.2620846248181685
 0.3872220966267541  0.0745921191624355  1.0279856430754002
 9.8975441620596669  3.6877456413700429 11.7247534242492719
 1.5002814936068170  7.5092561394651973  6.1477363065632016
 0.9914603373106541  9.7572082941263183  6.3822158581802775
 7.4421917818472636  0.1614659801322347  3.7912313911634268
 9.4343641428523455  3.7054778936932955  6.2495138021100178
 8.3857548243775533  0.0634123438009571  6.1043105387133014
13.1150715922512262  6.9352903088876623 12.3506512092988388
12.5144866365885008  3.3588505870855574  6.5015601880358744
10.9337248185842775  0.0262143921895781  4.5189582626953815
 9.1464993354457036  2.3882733233548858  0.5484064570312128
13.0396107511687589  6.6924510923743590  4.3628612893853074
11.8963793292051463  5.9469795339713478  5.4814904612468140
 8.3502609512902595  2.3172787704965856  6.4663608685865057
 8.6753326528301500  2.9569777738036986  4.8412423700629983
 8.1060771188531469  3.6774422538018463  0.0102371191450707
10.4061421817306154  4.9559293863052378  0.6519224702328934
13.0771507182560143  4.2488557736126360  2.2292385792472800
11.5632555557865153  2.5918147788430783  0.2326486902690643
 7.9413731717835496  0.3454244204608141  0.1782732366566488
11.7975847608958055  0.6913147414123237  6.8624302027646742
10.4287289267928465  3.0756727680244964  8.2464586405839668
10.3691060990524200  6.8574851894804709 11.1667369412735979
12.5023655216873912  1.0551790119463789  9.2614319072444111
 9.6763234080887521  0.9711945520154881  3.7760995581012846
 1.7629001652788929 10.9731599989838529  4.3991569863891389
 6.1590343920004251  9.6459486150962022  7.0660249326414331
 4.4110452469617218  6.9970407580470741 10.2003937889391523
 6.0274218131274342 12.3833603265396448  9.7566322761181965
 1.6845578402373018  9.6575359878327269  8.6986936632295411
 1.1944164342827932 11.0379110833557235 11.2893590429073818
 6.0222449496119737 10.8338317650917269 10.6284570295709955
 3.5345273290265364 12.5996096944430569  8.9522479270513458
 0.9587780331611881  6.9415845508481162 11.7253732915105431
 4.3183896871059346  7.1382445878085861 13.7845527747311500
 3.8307640556172071  7.3870273861143545  7.3479133261700440
 3.4421185473768716 11.3657417528827303 10.2263181899982918
 6.5299173410332401  9.1533581459346536 13.7237956265151020
 3.2257494590850655  7.1018935845157962 12.3911702946377247
 1.0448198969639968 13.5449734200109759 12.1524899827700956
 6.8315405452994256  7.5140392498354203 13.1493234266138508
 5.1704649344438725  9.7202510454062860  8.5322057655483086
 1.0740928123492619 12.6420913291208628  8.7337408566694776
 5.3066961018373764 11.1486009968744924  7.4870634202984618
 2.7106218270122930 10.7031178453845044  7.7573522718091610
 0.3564948886779504  8.3177590320767898 12.6784799536204638
 5.6123743379474806  7.3000108009641451  8.9274765266307874
 0.0063596429189055 10.4734742972728156 10.1525583047286254
 2.8421374947076217 13.0042379787000613 10.5267004079031281
 8.7358352928150431  8.9702321960778875  7.2285657893845290
