# Amorphous model
1.000000
13.6521321679526615  0.0000000000000000  0.0000000000000000
 0.0000000000000000 13.6521321679526615  0.0000000000000000
 0.0000000000000000  0.0000000000000000 13.6521321679526615
C H
86 150
Cartesian
 3.8543805083692853  8.3743134552829979 13.2760182029831100
 8.9300369777713264  5.3256642239863830 12.9622958253643858
 4.6820863766023475 13.4123696665482584  4.4784677479449222
 2.6531367579683955 13.4354433520725891  6.0286709707003325
 4.2218337273188062 13.4478273102999886  5.9890683918130883
 6.3856580878197491 12.8090528285900902  2.8055950125995963
12.3572647257072568  3.5272174859506951  7.4203770228297934
 1.7272109023737876  9.4223263908893884  2.9700307093865277
 1.9096535298280362  8.1077223525632789  3.7619810740984541
 0.7216213254967148  9.1257765712259129  1.8343144487721847
 4.1460385791404128 12.2065063714337967  3.6662838884350268
 0.0781948719357750  7.7622306005892128  2.1789745720133862
12.3228146842982227  4.3856904589955121  8.6993199836002475
 8.0016362183197813  0.7606207255236050  7.4585091458943715
13.3184372351733629  3.7428335760513978  9.6863223122783602
 6.8445106070333921  0.1351805471612053  8.2726614859718985
 6.2088401153631985 13.3552736329982871  4.2340069300103220
11.8856150700648193  7.8443361226639325  0.4069314600761231
11.4090891327316655 12.7512832673881960  1.0493139048197158
12.6827239720203977 13.1928849293184030  1.7941043337478426
 0.1887315421975604  2.4544814301429305  9.0147102433561059
 5.5007886009505036  6.6237271068312822 12.1546770964013398
 4.4638226106072434  0.7893478379414951 11.4514032108516304
 5.5338205976902302  2.2421408471984048  8.8911876561641776
 1.1786747449360906  7.0105224267913719  2.9610284148239412
 5.4821195752062319  5.5559974580832208 13.3024406482161339
 4.8249054676523357 10.4487815890109523 12.3136965465820118
 0.8525904386766978 10.8174241222859635  9.7665066243598275
13.2041260754071814  2.9870302424546562  2.8617144463732451
 4.6608613523290892  6.8383082499054737  7.8191543039261902
10.7934193054219882  0.4829318737904806  3.0258400420635851
13.2112416619015001  0.6560315821834983  4.1418784393968462
 0.3825306659165957 13.5471254993063788  7.2240874912585049
12.5374796845962067  1.0935008580048819  5.4905166349212724
13.5285828805333317  1.2921609939059113  6.6947048565882277
 1.4807017312922870  9.8556690733463164  8.7489427677456639
 1.9392492895930697 13.4071441089060457  7.4227969344454081
 9.9124056487872565  6.2079262691067285  0.1639335815085943
 7.8668551933891706  4.6620226441800767  0.2555296858024896
 8.8081819317341470  3.5724287160502239 11.0062402108620923
10.4568108826609816  1.9289426881867584 11.8543897969336456
12.8741853853079355  2.1331749259582224  7.8502875791383744
 9.6882566384343107  4.2759021966343180 12.0678394802562927
 9.5473779957168858  2.2680104871596001 10.6538813594903594
 2.3291307033567747 12.1277755328956438  8.2614810311901579
 5.4976425330663314  9.2221528300410256 11.6821025318905214
10.3960300812167219  3.1265885878755153 12.8294096440641496
 5.4669560460498978  8.0311694576291188  7.2531159951048139
 1.9681658750745026 10.7626157718483384  7.6047022673883475
 1.7229595870744845 12.0847344548724465  9.6951475496040622
 5.2619992598681975  8.0816826030817666 12.7012956589927377
 3.6181208758563326  9.8951738512548104 13.0988756210321107
 2.8825480050960675  1.6390190892551288 13.1242167724535932
 5.1115154786408752 12.0060287528461274  2.4808619495789621
 3.9833188386214928  0.5845970932949509 12.8965358680921227
 6.1907925809777460  5.0934363194228869  2.1259732416275376
 9.4540678904956081 10.4899017277789106 11.9321446267519846
 0.4166023083991242  6.5977708936179518 13.5022678121890003
 3.9353354796334781  4.2148477283971602  9.4338035750031182
 4.6862362477408421  3.6718705375114986  3.4701283792930600
10.8610416781209160 10.4279917742445605 11.3167036709920694
 4.2851032838635383  2.2959010072854298 11.1756077095036410
 8.4495178070007100 12.0028399427975536  7.8758200856999281
 5.0362550759357561  5.2388670797979042  9.9216815546222143
 3.0095637452238932  2.6663730213563870 11.9759304765043240
 9.0934556060678311 13.3199588840495906  7.3784645663095318
 4.8237764143915047  1.0484280575186293  6.7367970569655569
 5.6512687523752305  5.9908692398558046  8.6734354028193437
10.9264424585933746  7.1241075170336821 13.0407780805141265
 6.6618898689910289  5.5712199742293169  0.7023573559110119
 9.3588490534044304  9.2333895461346813 12.8130721440121604
 4.5804515443482785  5.1334248678605565  3.9645824310181705
11.1717220971528981  8.9272356985096977 11.1405944262302583
 5.1988326375394109  6.0187347133176310  2.8635416112970038
 5.5321985813044634  3.6923813706706952  2.1783366645422841
10.2099690263966281  8.1530394583483883 12.0903381157552339
 0.3714292958473298  1.8126627358274554  3.4514163480968563
10.2233431756169502 13.4428810000577492  1.7657573793157066
 4.4747774856015106  6.2108280712875015 11.0328225068058892
 4.2420996468954613  2.6916732194460220  9.6566935724550369
12.2018202471317991 13.5268077144174761  3.2232398056133800
 5.4349456420351689  0.8425907292964876  8.1780247088701934
13.0667680786371712  6.9919641463024362  0.9784225384397107
 6.9368290839686004 12.2747997882664492  7.9833462688072991
 6.9297919669296455  7.8169704366669173  7.6886704283749587
 6.8482788984500083  6.9298899767134614  8.9402308371843517
 7.4421582627715885  8.7668725403315833  7.8905343663718561
11.7961001859753942  0.3409950033205913  5.7894516766125452
 7.0770384805407680  5.0515869232553232  2.7743249074790928
 8.8401864380372359  1.4546749892742046 10.4518288342215335
 9.7326996727268345  0.5219551695094609  1.1112995378119219
11.9623780012644474  2.0055833546424697  5.3029739358129167
11.5361763610942489  6.4863187513574090 12.3947497786761538
 8.7012660370823767 10.4452065644322829 11.1350699104663029
13.5091699348975567 13.3206564101372571  8.1583614059268044
11.5857478887406273 10.8721983670766562 12.0114832048848292
11.3139070510783881  4.3771637775107592  9.1297292855312051
11.3985388035877158  3.4259914421276942 13.1615658797505404
10.8431223097263043  1.5639657333837089  2.8589368765142495
 7.7795544334413584  6.3781668638540800  9.1200040659180104
 9.9554463413008456 13.5832186916078648  8.0052621087123583
13.0517380386944666  3.9784802462177904  6.6992633674963784
12.5484148056589646  3.4409504961268365  3.6137229290184028
 9.5360443839491715  7.6017833248414988 11.4242993409553861
 8.6617424094017430 11.1653451825899666  7.1983169063959984
12.3140752325641749  8.7415830375398578 13.5972461743104525
 9.8276240239471981  2.8278568094110703  0.0653291112318435
10.4613440341930435  4.8021502988114069 11.4956375775494770
11.4851951651990731  1.7507258961694152 11.5160514978148427
 7.2812317332415155 12.1805110378953962  2.7298321550449121
13.4538862032832434 12.4127270796426430  1.7901004381401862
12.0337901557415243 12.5595507373538666  3.7177529094288015
11.2847071001475818  8.2124933325024294  1.2485336277703354
13.6199092281192407  9.9183003219048125  1.7482767296420718
11.2970279337145669 11.6610124241477138  1.1207436731713223
12.9345445388485665  7.9683902923979950  2.9082251944378665
 9.3212172454729831  6.8485530739885476  0.8300873885363789
 9.4769681474390381 12.6911233058949442  2.0499820601855756
 9.7658024843751292  9.4717373862555014  0.1498576986968754
 9.4467391376579108 13.2112727781131838  6.3448323827951576
10.1500225015964531  0.3098005818522847  3.8981718789128053
11.3645096182334093  3.4734927872029946  6.9557366513097492
12.8168040842717836  3.5111237920860461 10.6336192591144894
 7.1453330982158363  0.2097181087593167  9.3259271291188774
10.1073618959409082  1.0151467515636394 12.3507791278692878
13.6143083758020289  5.8855632997952938 12.8037045643046028
10.9735342706463221  8.6308169427499983 10.1020500096097159
10.1577933432496614  2.4129487442901549  9.7545876499874602
 8.3975955450720825  5.9823886276468272 12.2761481055189883
 7.8172282309847567  3.3226983064290092 11.4003352978850003
 8.6610182071697572  4.2038860791247803 10.1207608915764204
 8.8495585372688623 11.7481622076113794  8.8658033269869918
13.4776213893177221 11.0571607687182123  9.4620885217660522
 8.3811791018221200  1.6764262542917834  7.9287504178748129
12.2305368307309124  8.7171333074813404 11.3370151990070340
 7.4630016409163957  3.7437804096728904 13.4697391960004573
 9.2958794923543984 11.4108912368562798 12.5079065103739460
12.5856629685972692  5.4290905787216399  8.4841686241139342
12.0218365434786776  1.5741974731344364  8.2593006781459763
10.9183048015430799 10.9744163080363677 10.3667629905247267
 8.3225724043684508  8.9048037832572220 12.9538876683546320
 8.4057660518499695  4.3155208446803890  1.1467455283770960
 0.7598805835961198  6.2375421614625957  3.6182572094351020
10.4770995340028250  5.5411755216253766  0.8274607274772912
 3.3961162147076411  2.1552596288596462  9.2146716156047006
 4.7395655517711681  0.2219337453473624  8.7475015093049997
 5.8503022742039015  4.6607110718925213 10.3755121583733114
 5.4528199323150179  4.5625519022775318 12.8494119122691792
 2.1229419163354724  2.5966521440917614 11.3336128472840727
 4.2443643667715385  6.2350258958339317  7.0025528439839313
 3.8211982882788167  0.2096430765881916 10.7802259983409527
 2.2747874210437082  0.6256677270585200  7.9941667918908372
 6.0426903357974133  5.2193066033669755  7.9983604790267400
 1.1916836596248608  2.6510662426039993  8.6172381833908958
 6.3718537902191166  2.2630898851751944  9.5982959276882660
 3.6170965500019214  5.7471899812470415 11.5323959546084360
 3.7573759590533502  4.3445755948918858  8.3592172994229514
 5.1390810091208579  2.7971406703650210 11.6423600746468026
 5.5020771888986335  0.4604070569286538 11.3163390898075633
 6.4958808689860312  6.6148761786138444 11.7120982081792455
 1.8905749482604008  1.1684914946902332 13.0990064043937338
 0.2602632031187948  1.6253826294544496  9.7298108978892230
 4.8149757141742313  0.7630672580614632 13.5909676265128923
 0.4953788620846566  4.4265980507115898  9.9074030515563152
 2.9659548162029132  4.4546394304657007  9.8856802853956403
 3.0613955946494933  3.6880501691143568 12.3694549522119885
 5.7973294760390868  2.9847119952161396  8.1295235802499164
 5.5709780874971546  1.5450987796967866  6.1117357960535657
 2.3182779726173752  0.6611792513485160  5.4676976430563027
 5.1535394321272481  5.2464474274601614  4.8942698756031469
 3.6918303043189500  3.2504542515812425  3.2719583915254482
 1.0830684912443260  2.2332235659990030  4.1709165073065790
 0.9981504180902903  1.3890100364274662  2.6565630081237881
 0.2300130382474848  3.7690186242702719  2.4978342817332866
 0.7293248413337459  1.8790755179697189  6.3403835044220891
 3.5399361806394314  5.4138437214701653  4.1712514624931583
 1.2592433165676464  9.0674248850979282  0.8819935358191202
 4.5174137917391626  5.6469661535128175  0.1601579719167781
 1.3146826972450381  6.1101364683863864  0.2439760258932289
 4.8703865296089379  3.5342892067877436  1.3188571873649479
 4.4039397213264557  6.3689733228393308  2.1979834854322995
 3.0029137356483933  2.1199634326049566  0.4512830675497099
 5.1696193261000385  3.0516677574948083  4.2349246829181446
 6.6869853469160390  0.6846629833182227  4.3355320980785343
 1.8959958311779239  6.5326672110985449  2.2851955754278208
 6.2826585457486601  2.8915655824187798  2.1747772543263171
 4.0248031049582433  1.7976945144022167  6.8098467239151645
 4.3120189380978111  0.6701794886886390  3.9870575139605258
13.0872473670128642  0.4271580221242122  1.2922633966006760
 2.2848335367366257 12.5696819033030316  5.4669381320286963
 1.3466044144910772 10.2137855074596366  3.6291316550450414
11.4542209486722584 13.0178358881575562 13.6379969955739320
 2.6896168452052116 10.0670240166776743 12.5389584451650649
 3.0823056677773781  7.8258919627035404 12.7249825887180776
 5.0118710626836531  9.0167172017652213 10.7213356383416283
 0.7659538766869733  9.0987135238740251  8.4012329054693673
 2.5345874655822165 11.9880459067667005 10.4259414696163510
 5.5246899855092195 10.9368163517331567 13.0052934820528030
 3.6104880287413188 13.2179659938887220 13.0592535698092682
 1.1582673015657825 12.9869036972378744  9.9596815012239333
 0.7277766811366035  7.4756429104088156 12.9229428725995419
 6.4658243254753387 11.6724951491815574  8.7709169562263831
 4.0481150604808604  7.0956060361159103 10.5559469926600293
 6.6602605143452713  7.5810620509047872  9.7954651463473787
 1.1621078895513772 10.8687619566173908  6.8699108088056278
 2.8311237692440443 10.3235388082898396  7.0871705593459673
 7.0277475927517337  6.5958328193552163  0.8268023264737199
12.5962663741665537  2.6657574901159933  2.0085943645195155
12.6550586589818295  6.0621152532881766  1.3897839344508220
 7.6828419842441633  1.0152337484611014  6.4433235141257725
 5.0868915844508695  8.9686935433983308  7.6798681743989690
 2.3360865339627619  9.3414202824799588  9.2068117488570032
 3.4161419451368182 12.1287064973583973  8.3974753768694761
 6.5623214525304050  9.3946658192710863 11.4904279879677951
 5.3393494314716285 10.9413620425248403  2.3425716175079128
 6.6842605714700269 12.6630128325097111  4.9367524342542399
 4.5586444080342137 12.5257612402835328  6.4655693305013742
 1.4524941581010040  8.2100885252409306  4.7548158769084843
 0.3134903854045969 13.5556647005422271  4.3957118378063136
 6.4905075278243807 13.6411381817234663  2.0966801380241140
 4.1450800530593597 11.3030540703308873  4.2904511175412114
 2.6851160803666083  9.7610129131830696  2.5567292766811214
 4.6600275620131146 12.3782232207116607  1.5531946803876160
 5.3813647583744544  8.0960794997684573  6.1605922439415330
 2.9708926510845437  7.8669617942418313  3.9021608955298994
 5.6996780189746943  6.8994049309868615  3.2854674993419337
 3.7839968463392655  8.0819865856290178  0.6786192467903369
 3.5252777060955154 10.4001165279448990  0.4155450192459877
 0.0517002774288642 12.7590642005360095  6.5379541985120362
 4.5236155679595864 11.1829394146873682 11.5562889820755288
 6.4822443099311791 12.0092641680352230  7.0289342814594846
 0.8223008515255987 10.3911376255476817 10.7773809623668519
 5.9740395163150346  8.2624489923938604 13.5148804229364963
 3.8151834275768497  7.2123590411083853  8.4070970396651603
 3.1215781607613167 12.3785695293957723  3.3109534382480650
 7.4783817667975221  7.2903607266944057  6.8967353706933494
