# Amorphous model
1.000000
14.4884096797436257  0.0000000000000000  0.0000000000000000
 0.0000000000000000 14.4884096797436257  0.0000000000000000
 0.0000000000000000  0.0000000000000000 14.4884096797436257
C H
90 160
Cartesian
10.2329057084247488  2.6685014519868986  5.4104585783300223
12.8025178789341076  9.6345144223728916  6.0110635817682958
11.0077076338199973  8.5922430124897815  4.3619641535346858
 2.1458326546638276 11.4862847615375507 12.1899770862444115
 5.8289518125510540 13.1057795037849800 10.5793164667150421
 3.5036386790345375 11.0335442805860637 12.7728086467420390
 9.3721911555794879  7.7686911029291466  0.9290608261610771
 7.0323194712700872  8.2932111878358352 13.5321524882839519
 0.9035661934596666 10.3772279286478408 14.1396425986187708
 9.0531579698423528  8.3559218663045627  3.9597158667022185
 0.1322068691518004 11.3823371260950488  1.9128577664662156
 0.9782876501621427 10.9408627651168828  7.1949379973425547
13.7958132091043773  7.1207219972659654 13.1126285858679417
12.3103190515587144  1.3708677683022152  2.0391643500538166
12.4187141441395852  8.5157929603081914  0.3913026996785645
 5.9214886205731201 13.8166686545352029  4.9022008895847442
11.2887262296056790  9.2340773810223116  5.7836799381126891
 5.2714081189717792 12.4956385423561258  2.7675151993780922
 5.8749171910969000 12.4595304988426889  5.6822711471698337
 4.9580447060757056 13.7148381245862900  3.6709948109686472
12.0208337332494573 13.3192709932407212  1.8210736310344426
13.5507965872605389 11.6331841917874179  3.0508909264263817
 5.2568874376776282 11.1703383852910640  3.5600273215591951
14.2025943404769386 10.4874678001056942  0.6954009802191123
14.2064803341658674 11.2124900691274085  4.4136138725017862
13.6801746048952175  9.0755162526521058  1.1526910904674645
 3.3571626135997850  9.7693785542949776 13.6505341591828646
 1.8495228687807383 12.9971482753003933  8.4416146309561046
14.1741755527990598  6.9958665137349207 11.6152243750058375
11.9300897477157903  1.9086935896080401  7.1921920073249659
 8.3750690905173482  6.6510897340051685  3.1423109930967428
10.7097442304009682  1.5076732078925712  6.3243623627912520
 8.0534191732334275  5.6971932537907399  6.3778021814186587
11.3049104013630313  0.2029602796418359  1.8957904747465015
 9.7069492678774161  5.1936709182171477  2.6433890318813926
11.2159172534369560  4.3633220431539925  7.0689134219403922
12.2615342114961621  7.1312556424380453  3.9113036280687261
11.6049429528962236  5.4026106296206748  3.1199969598938662
 9.1750950631625816  5.1093809592538229  5.4156329541264370
10.1169690404912664  6.3388462736225719  4.7425039534153495
 9.9549149443761422  3.9613444543837453  6.2342252840786152
 8.7368370817563736  6.6248008624846992  0.0179443719631518
11.8146417968094681  7.2297692761551886  1.1460545817018062
 5.5737464615595513 14.4804793487477141  8.3844993703787924
12.9299449004980502  6.7850669872787570 10.7197985091882373
 7.3382515818508640  0.6532182127603710 10.2097699143723695
11.6711080171388524  3.2081450264740781  7.9934020139945527
 6.8270472276304410 12.5579280248962704 11.6311009373421079
 1.6766154974893315 11.4609245433930518  8.4708301133497130
 0.4971675690939836 13.7152984970458327  8.2188108271812919
 1.0707167975627616 11.6692437311202966 13.2892899574100873
 8.0097017791376945  7.1430631078010780 13.2358903200685241
 8.3296804264753934  0.1082432588380327 11.2672048952755119
 6.5454177897996022 13.9910872562685107  9.5165044505575782
 6.1968356459007694 11.2413731919758106  4.7828412271669283
13.3049282183404678 11.1137856053309569  5.7035998545555255
 8.4099209034781079  9.0228428550624464  1.0498132381255472
 2.2824274485169589  9.9603856318898210  0.2584659437069616
 5.7637576704194089  5.2148111371223109 10.4818625927059870
14.0969963155846791 11.6575418096706116  6.9581579900978809
 4.5089338211935477  1.0140620690789426  8.8825618627069289
 6.6582050817990872  4.8309133556732604  9.2804552925515935
 6.3733661436786715  0.5750013534110643  7.1735649076072434
 7.6218685734921010 13.6979324202013757 12.3091339092797760
 1.2117359876718901  3.9968969575875377  5.1680633657780213
10.3908341625860245 10.9130249737923180  7.5929104228665256
 7.7699985376328193  9.4624360566902919 14.2018448976369385
 2.6330143587867596  4.0081156944722167  5.7844745411874907
 5.9927571171396163  5.2402423892254362  7.9372999890013016
 1.2170334478210849  4.5083247898585856  3.7079181964951875
 5.8723468497824207  4.5000872653010582  5.4725273194038628
 5.5991095968320703  0.5886383372882324  5.8039462290834454
 5.0705753552638235  3.1524479152164666  5.5903174819668582
 3.6498708728792000  3.2057038665237716  4.9178165014143431
 3.6544519993170983  3.7431929603170602  3.4525215820664403
 6.8249333722844554  4.7488419365778967  6.6947825359985131
 5.9190798282233885  1.9410354479659837  5.0677551116293511
11.8636741281402784  7.8785007146830672 10.9623714998760100
 2.2334959078580816  3.7327831202077437  2.8344395537172939
11.4960639143477401  7.9952083264552272 12.4619256443327089
12.7426945655043227  8.2507204964990795 13.3520825369355833
14.2810387353838735 13.2043896445972671  6.9396502736360084
13.2862639112969454  1.1493154565254882  3.2201547366403869
 4.7787145791588443  7.1595359038777868  9.1415863946839355
10.4971027398104546  7.4257212646412150  2.2158824955639496
13.9895268365689809 14.2619679780349422  3.1329502841032113
10.2645060290912404 10.3675722929164777  6.1504364247806542
 5.4314584031354549  6.7261847648379050 10.4756466571826401
 5.6567747766069338  6.7647030737264657  7.9292509010355108
12.9520767045521694 13.0936171111225406  3.0456410679582575
 9.9755011922032075  8.2102947364572607  0.1454846443023055
 7.3203605897496828  0.0367465211926215  7.0411632883994795
10.6921394146046786  0.3499489542674556  0.9974481707611593
13.1484571199727753  9.1845505387918003 12.9521011292669677
10.7756178975585932  8.8133418548881792 12.5863946457624820
11.3335979103947473  9.4530985832625376  3.7661059224815325
10.9628556874641028  7.6527374557454912 10.3776897186094352
13.3978713956110909  6.1594873265534975 13.4615790917698419
11.2707610242891576 11.5513892130308342  7.7107109766293025
 9.5155001246615569  5.9389753195090069 14.1552633398431134
12.2423112160715561  8.8441839800701398 10.6033934903843878
 9.8854673831994084  1.2040746571386913  6.9831441262262341
12.8066138607476461  2.0502250353941260  6.5462972274186342
11.2681595658205573 12.5222057249394041  1.7701377743162183
 7.6348028638960574  6.2474477984533969  3.8298693866580340
 9.2661729967101767  3.6129655832005803  7.0077341756583049
10.3245546019516681 11.1921355285891480  5.4298065374812392
12.3088414050571124 13.1809902667122678  3.9289674764472942
 8.6920357431808988  9.2644881651351003  3.4816686156055390
12.0593923687211593  4.6046579846895739  6.4099240500319556
10.9609879919512920  0.6311739052480272  5.7132253120001195
12.4412297865687584 11.7693582854581500  5.5778062963302446
 7.6252160245184069  6.8348176813268786  2.3767416537920951
11.7664397662915192  2.3140223610361907  2.1774349972209581
12.7393980309229704  1.2162001993193687  4.1670397753855379
13.4615703449883846  8.9134216764980998  5.5177166615799376
 8.8246852962046649  0.9450745418397100 11.7763260827151264
13.1374445756182361  7.5152278981219425  3.3927412100023524
13.4047960884998005  9.1499603477852194  2.2007247169315161
 9.2438373308760546  9.9875970695362035  6.0743503728450268
 8.4867237718514641  8.4396757150044550  4.8934994258726565
11.6924497222383970  9.3368278695540621  0.4195309180591869
10.6690801845788599  8.4971635150827165  2.2001259343919681
12.6931375989507025 10.9747385672342510  2.8974724642518233
13.3662725204148742 10.9982115549481954  0.2016036624267308
12.9769009264308615  9.4355063160703647  7.0759844450031331
13.3051675260455653 13.6941104128709910  6.8339797838177496
13.2266510359397529  6.7854097671163718  9.6630358451821969
11.0069857280339782  7.0645532732373244 12.7660736295316468
 8.5428207097546078  9.8510027469616155 13.5252825398458931
 7.2867457535064766 13.3401086059687159  9.0332210945922036
 7.6371911110377013  5.3155911841343357  9.3836853711571351
10.4513205427194826 10.0937828687821671  8.3207746042391761
13.4865153053239375 11.4518864151072108  7.8457627814997384
12.6057205052060013 13.2663615564717752  0.8936085639735083
 8.5385735307130197  5.9872653531008826  7.3183305293527354
 7.5730397215533056  8.8416939607094438  1.7306036783529599
 7.8962347089055296  1.2363255647602207  9.4666262537823602
11.0019994663725704  5.2540571449017062  7.6740280331068504
 8.7398839164009878  7.4813510314401963 12.4925031945646339
11.1115130171875691  8.4384848946637820  6.5168781163112968
 8.9727043258269301  9.8836985061625846  1.4325451279480577
10.9013448838438833  3.0220291300532320  8.7539268065683604
12.1742476916155660  1.0945479846252342  7.8862088786616695
 8.3625051897959164 13.2744054699087641 12.9991757413584210
12.4942750466533141  5.7993719933091192 10.9295981201441776
 7.4669190450078347  6.3110551558994494 12.7750867852656356
 9.5126300977299270 11.5220127454506454  7.8431588978814375
12.5836359516921803  3.5003188881438980  8.5292174434041090
 7.5254425857017129 11.8642812810509035 11.1447951047523013
 5.7872705463282053  1.8575776834817841  3.9863412539649534
 8.0108669798366972  6.0047444339372955  0.5508306135721401
 6.2624576236147984  4.9382466631228361 11.4178953162460353
 3.9482262829362007  0.6266539722177393  9.7403577430517707
 3.7921049357040886  6.6876908958327466  9.0472658674610607
 0.6594447711282001  0.3099049397569571  8.1454143692354073
 6.6432534834886940  1.3439313927419034 10.7034447090304319
 4.7653591659868368  6.9667406819639961 11.3141009235744363
 6.6789673549342563  1.5915295843562181  7.4455079578932910
 0.3985015754037322 13.5089615873841140  6.0818661379377428
 1.6539221586769060 11.0967252250704504  6.3451976033362243
 2.6475325474762990 10.7323813701574373  0.9468042360619462
 4.2337242923219875 10.9583750523502985  3.8975056918404185
 0.5415997355917694 11.9135705119704163  4.5799570429031338
 1.0134171051120937 10.9213454455543229  2.3715053779509461
 0.1490898957724509 14.2812927730693957  2.2496196423966452
 6.2580267524689965 12.6308834323285737  2.3053851340895815
 6.1106952451666441 10.3173356018127826  5.3692617919714198
 4.8760051628862033 12.3228449773786366  6.1167794845270205
 3.9214764400783473 13.6408666237632161  4.0256261639175648
 5.5587013447602924 10.3418887206179981  2.9059119232199890
 4.5412180298276059 12.4434475049497912  1.9497754745099503
 6.9446152738066349 13.9367806162419470  4.5212045339468805
 6.8340545080561057  3.7477335175504081  9.2970948465720493
 6.5908956152310161 12.4575239907763340  6.5119026419537160
 3.7786968853042868  1.2334687004398450  8.0944145331355095
 5.0271946855508745  4.7207670255500176  7.9209227807269844
 6.4281684516239235  4.4766282041540357  4.5300670525435649
 1.8975978340121795  2.6942021350886769  2.7188778196526115
 4.5225499657295121  0.5610706301554806  6.0123657970756277
 4.3206409495868137  3.1399592587618343  2.8242361266690299
 0.8124404466206165  2.9744458943505414  5.1953133196917332
 5.1888229880656933  5.3517424624188568  5.3858252949445813
 0.2113907546420455  4.4154559381897940  3.2788924846055174
 4.0384171243206897  4.7706747163500527  3.4253516236406476
 3.2710697819524341  2.1760358117544243  4.8781433571008055
 0.5383810981699009  4.6168339030327914  5.7740997564891643
 4.8914416467062889  2.9635140309851966  6.6538524444126779
 2.2643755850723366  4.1704532850257312  1.8284970157153566
 2.9661368029301922  5.0479590482407684  5.8921236476291945
 1.4682412857968794  5.5767148765372667  3.6981756450451755
 2.5875620676866138  3.5841182672054277  6.7958282646049852
 6.9880792996630188  2.1528925746818288  5.1930724259406418
 5.1359645033162415  7.0356586929273277  7.0026371420267211
 7.2142807819405643  3.7651597302195494  6.9650012543937994
 5.0086510223490137  0.1248157371695831  3.0476705711900589
 4.9700597786666094  1.9642898500984050  9.1793695265255177
 4.8311815298736320  4.6369827150435832 10.4407291413776910
 0.3845118674002883  6.1606512605811190 11.4791770473404213
10.6191608029300433  0.2086900978671444  2.7531530437588909
 2.1849012902062679  9.0321505419536017  0.8343726542856906
 0.1585140001638115 14.1383569695999540  3.9979866990627606
 6.3559146615931201  7.2987016193900320 10.6221685871158193
 6.5786022866558085  7.3584654435667094  7.9636819792769575
 6.9372894690730078 14.3086752466024230 12.9119879600432554
 0.8318519786825673  9.8575171368885215  7.2848530738628714
 7.0660577137964911 10.2847623912175479 14.3850870436182774
 9.8726071831509401  7.0137444508729612  5.5691001927721775
12.7330469404598574  6.7808218987229392  1.5184347166045491
14.3346879296250158 13.5465134861993768  9.0865186774748175
11.5177035589150698  6.4851840743558551  0.4016500265144822
 9.7167826909588335  5.0205734631006251  1.5712985824803081
11.8344055038583349  4.6401597855200798  3.8715561732342749
 9.3673439028832952  4.1916858875907579  2.9217507038737818
 8.5799090764830090  4.5541846011413725  4.7008607964131848
12.2369319070262925  5.0026932308667327  2.3181759033071021
 9.3236310385619205  2.3518991471452662  4.8854505248296487
12.7798707414567048  6.8580437696433982  4.8410912274097004
 7.6502096129628132  6.6277345302560740  5.9661844731448728
10.9826024873139474  6.0316538054555622  5.3126362814294410
12.8853598529221074  1.4693084444052351  1.1090129407241465
14.0365277111575431  1.9484031763202534  3.2303369769561971
10.9896774750123853  2.8499746073207177  4.6428507894096231
 6.2267304776137582  7.9349366022168351 14.1856885461423623
 0.2143641952065680 10.2422807754291121  4.2847253980589048
 0.2115003314275494  7.9058444592516715 11.2975015691926117
 4.3209971475138929  9.5343160898993187 14.1185374313229239
 0.4999729994574098 12.3331787354826048  1.5229506875844505
 7.2383285699523281 11.3058492387119571  4.4419192309328910
 0.0078848170197112  8.3447177799348999  1.1430899862743074
 1.8003242217823772 10.7319745164584930 11.4724651423766488
 4.2052694803424515 10.8319662881644447 11.9540030670263917
 2.5442627478797384 13.2701322442202283  7.6365845220979871
 6.2901914633121265 11.9830760243414574 12.3952827673625734
 3.0897133948139661  8.9126599653282970 13.0183157309868136
 5.0275415235523706 13.5961935645232224  8.0382097143090263
 2.2758787062923904 12.4248055509286637 11.6371570566488955
 2.6549543743687423 10.9766948928840335  8.5857561361967552
 0.1154048608804255 11.9333425338674743 12.8175540994927744
 4.6146171512757235  8.2448448281069684  9.1437755505414700
 3.9312394386683032 11.8473229286891168 13.3730616870343439
 5.0540579796473750 13.6840524015460758 11.0975983332352968
 5.3240031773493222 12.2656021117877252 10.0853577581407627
 1.0730501983968423 11.1805973731915884  9.3421117047155526
 2.2993341609323483 13.3365567632038484  9.3821719528337972
 6.5656603274015808  8.6388639278214558 12.6015800161239326
 0.2220933525284225  7.3058358752135106 13.6861080484864175
 0.6590905904088418  9.5893676540370159 13.4246576198009890
 1.3569960655261921 12.5130952490923377 13.9285487678215318
 9.1161550485026428 14.0191451735285320 10.7638449281896627
