# Amorphous model
1.000000
14.1514886725909932  0.0000000000000000  0.0000000000000000
 0.0000000000000000 14.1514886725909932  0.0000000000000000
 0.0000000000000000  0.0000000000000000 14.1514886725909932
C H O
72 146 7
Cartesian
 9.4654869830268868  5.3991265989203310  4.6771082811012885
 3.6655236865593164 10.5049311811903792  7.8569400705178847
 4.1218090693846534 12.2187124306710295 12.8096079602374218
 0.8129132782799271 10.9258873090159412 10.5554106087120161
11.0434574614409726 13.2858950299684473  1.1783945095822475
 8.6059097766172457 13.1548984136156690  0.2719166035728513
 5.2317450031660151  7.1011618209378060  4.6028404059054129
 1.9483673089252136 14.0868431890351751  6.7109195214809017
 6.0296965640813855  9.5175315790182626  5.0899602251863705
 5.4208376702443690  8.1912673851588416  1.6571070936249264
 8.5827847347201089  5.3581537398570376  0.8043441380158880
13.3202386613442982  7.8095009572725722  3.2297456889891460
 0.6638841760373815  8.1204651804370691  2.9556910981107727
11.0719125602333470 13.6232034495800391  5.7140904811645470
 5.9400966300435680  8.3727177401338011  4.0367398023692491
 4.8530654652975009 10.1994836974981098  0.1247069980812725
13.5790604799106980 13.8533389424292963  6.2470923591177332
 8.2592571172032869 10.9571395698601997  8.9569469617214033
 6.8653421509810322 12.0678105098685151  3.6676374368625275
 4.4772042317996803  8.7659076966672522  0.5759379778647791
10.8190551495001408  9.7206045765499294  5.6870411307138600
 6.9813803621696469  2.9338287030692545  7.1575533746476694
 3.0038351604903468 10.8363060731874654  9.2111692942658188
 7.5929614671173553 12.9820605062946726  2.6562370707796568
12.2865346774625372  0.4226598518241040  5.7885180223247961
 8.3231501972640114  5.3008054286243347  2.3334493943005210
 7.1590267687085305  2.6382994734951613  0.0097988673698133
 9.6025840335931196  5.6277421532625187  3.1466110885856651
13.3134049945756381  6.1389929740406508 12.0421892337995828
 7.3002884178161960  5.2284904155821401 14.0864801104513298
12.2489167821223752  0.0758485349313203  1.4168288628827641
11.9497091150467973  6.5094357016182212 11.4187319987052582
 8.3424553727113775  2.2352777220642750  7.4157028908691807
 5.5716455694606353 13.9531609952340290 11.5985698519159399
 8.0722000550581150 12.2237926642724979  1.3911572976997455
 7.4491806652120491 10.1536124368116454  5.1508696073306890
 7.7286682219219731 10.9910613426292016  6.4280919856395862
13.4813096648691086 13.4795022817341348  1.9675515254860958
 3.8823699331748340 10.7331660279076253 13.1905015671190036
12.6015522958224331 10.2473766051804311  3.8830959247251648
 5.3953284343964345 12.4567415246323030 11.9567924138279409
 1.4724542815612365 10.6084082609723680  9.1900766210092488
 9.8003811660329880 14.0634558500724296  0.6738949859637504
12.3783793361717116  9.0149779222254161  2.9605071703331838
12.7804567533944073 10.9357774159514314 11.9195326965799673
12.3118846963968807 10.0122065096488733  5.3930085570318678
 8.0402868443954087 10.1096341018880729  7.6733560191345163
 8.6364404034176818 10.1274974419637687 10.2196315960878721
 7.4555595430569070  9.2595114043963438 10.7368226362167078
11.2818904919197287 10.5390258339260114 11.9609514345102248
 2.3183456332038510  6.2497067822574444 12.4396706787682838
13.4295464494517631 10.7112750030223296 10.5274370663949277
 5.7832483566290254  0.8734556413966441  6.6090446133755485
 7.7998830193575426  8.4760427775216289 12.0241165750671470
 6.8487045300603508  4.2003629485714846  8.0497078778258579
 1.5640397883489232  6.8856839301568300  3.1696636084756573
 6.4221757609180088  3.9803163641746373  0.2211640342667982
 4.5014220247329781  0.0868930862165831  6.9637982722717933
10.5057086994719562  9.7394366443553562  7.2043509503795171
 3.2054416359399376  0.8285408942128667  6.5498655481255419
14.1047188727189656  7.3931059587945196 12.4891887353292752
 0.6548006885437703  0.6480894398418418  6.2426162870145436
 5.9843258424153536  6.3768149980081876  5.7683528017468682
 5.0624390955102339  5.3428893178588908  6.4869677706375626
 3.9557879403693388  6.1553290353970755 10.4652485474583941
 8.4002834146861129  6.2930441380675148  5.3510102671826001
 1.2736918892534570  7.0752120872895734 13.2410902354604687
10.3653796861657383 11.5539215146235712 11.2351597106241741
 2.8207428999174269  6.9541346231412025 11.1525293943206556
 5.5004120835373751  4.9669133060606647  7.9413122838436117
 6.8330218931751272  0.0656130409984357 10.7486056376611820
 4.4747701430872961  6.8638255943265065  9.1920662108298359
10.6220936653544520 10.7550022702135770  7.6006261518745859
 7.5913494923293001  5.2251437215791370 13.0281264692608474
 7.5237185435105349  2.5482414546942973 13.1299906942021707
11.3143845934699812  7.0273693212126496 12.1484255742761889
12.9802318730245787 11.3924694932123316  9.7934902723129671
11.4208913055270109  5.6068556408845662 11.0878642074976526
13.1482827469253074  5.4794329814686318 12.9038417957019860
13.4690854699293183  7.9902657466639795 13.1552040802734531
 8.6614699523708705  7.8166263692366247 11.8605792613027923
 9.0216436260272168 11.7195263831145411  8.7616981691434894
 9.1673144543471441  2.9529327070276885  7.3249340237909220
13.8965503751487880  5.5712906839272751 11.3062912780023517
 9.4802881562262229  9.4644080883323820  9.9888504607196467
 7.7841154975579379 13.7883328505350065 14.0674963717817469
 8.3769626895267901  1.8016382434917899  8.4230477490946924
12.0817371003768237  7.1651917990048783 10.5488216148681211
 7.6706638471882762  4.8866739904322092  7.8153816831548575
11.2325572797983035  9.0965926181310603  7.7170331892809596
 8.0372423822648518  9.1572690528284610 12.8511096805292482
12.5198590105113006  0.5686275851835774  0.4742217580769887
11.9648852577779081  0.8673204190837653  2.1223535857629621
 7.9673481244807558  4.3009668126702643  2.6124223705303518
 7.7352627826946652 13.8625647158478174 11.2631230253529253
 9.8914942487884439  6.6700329121317097  2.9608782900190924
10.4285049014378508  5.0055603829772846  2.7783393509480501
10.0843104559955847  0.5099056216176354 13.9498268203556144
13.7804409350584471 12.6660177555432085  1.2941269537784672
10.4174597235712696 12.5183733480869464 11.7558633285260861
10.8939193055069445 13.1354708446186130  6.6810360540809519
12.6076467385513773 10.9132494416186390  5.9439694692653973
12.9374838927537681  9.1989915652047483  5.7809487029718820
13.7786583211881677 13.0046313127037116  5.5803144631686816
 8.4132743379854027  7.2824649767286189  4.8882625944213167
13.2680987305116567 13.0528671983121995  2.9549839544047245
12.5058043753622137  9.3322588507482607  1.9172757233799480
10.8008734111300448 12.7675372537438818  2.1145449064916662
 8.9004554341111337 12.5347576214214804 13.5695422196006703
10.7056303865770701 11.7073995343859956 10.2042817982873366
 8.8441443683836685 11.4924482146211098  1.6621117111653767
 7.2345373880989339 11.6460769468449392  0.9856818222955663
11.3367611437134030  8.6824251733148312  3.0453272611394127
10.5481912721364743  8.7408874989370045  5.2740933436605513
 7.3360634494169474 11.5103685720520303  9.1677535806055257
 8.5643278548396484 11.6786908010675816  6.2496851513078298
13.2142688665616639  9.6901444811072999 10.1869468301684840
13.6292704645855380 10.6124797925871484  3.7681342545865366
11.9565915126049127 11.0595149129803296  3.5262999229516705
 8.4507129584648162 13.4489562086654360  3.1562570999721444
11.2324421970063533 12.8465468141060732  4.9571724598680422
11.1584952589029989  9.5372958370768011 11.5322598843096067
13.3186455789781242 10.3372371524473756 12.6649585779252938
 7.1580502525715453  9.4829052923132870  7.8533408844326420
10.9613926243740849 10.4700122647463090 13.0084928057594311
13.1945301462370850  7.4554157823409799  4.2603606000410661
11.3196403031685584 12.5177318415000123  0.4444447807479435
 8.1673961829182602  9.3294165052833531  5.1553401795476468
10.2120194455381004 10.4722410701206137  5.1724714700561982
12.8964415999466873 11.9844992289811358 12.2230365833210044
 6.0296336303846587  4.0250878612056002  1.2448958017434881
 9.2498606689986360  4.3428030471219436  4.8827022117634513
 3.5929165310607694  5.1516278014813306 10.2113644753364348
 5.6308741024050661  0.3926640265179193 12.5208553296926688
 3.1769995287656663  6.0560507568837867 13.0959327936386636
 3.0945084710054900  1.7409985111303463  7.1504141232757146
 3.4482648657949841  8.7540916128836752  0.9573145228306679
 5.7849921108989548  9.1270409756446877  6.0826635014516715
 5.2638510251429249 10.2788444227439761  4.8976474909003098
 5.9264283354807361 11.7074008554583209  3.2273008120598980
 6.9477415633957769  1.1401916455808720 10.5579305218295083
 6.6312310267578560 12.6475580791498778  4.5686472828000468
 6.4665736613158753  8.3172746665975126  1.3466430702951628
 1.0119474792328615  8.9241820727265839  3.6157384833780135
 0.7816269091947676  8.4776270729900816  1.9245929272124656
 4.8377012906874626 10.8700782626196819  0.9935353362145154
 4.5405473605729476 13.2716767565477909  6.4461319681586371
 6.9136504786965727 13.7923281569717950  2.3622591935247428
 4.2360913145734003  7.4031747015511336  4.9512302187902701
12.0599914986513994  1.2432278892493809  6.4815318680508263
 5.2185504533736200  7.1186588921187290  1.7616835409980069
 6.9919893586812680  3.9080951491493785  9.0979597239500016
 5.5478585783724661  4.0086244529263819 13.7094283715978520
 1.9032707159440623  5.2665715489951488 12.1850161623743638
 1.5255007141035728  6.5530019471882390  4.2148858555822510
 4.0445481123644136  5.7461540669830953  6.5405704632699244
 6.4803341139479578  1.7993561029959952  0.2063401751049767
 4.9755804195899085  4.4370974040121851  5.8741610665038699
 6.6852339957579598  6.1249136231360453  0.0760557472441938
 5.7476922837967699  1.1877094098884973  5.5575121018343356
 1.2469124407937322  6.0527318139440549  2.5297602008701858
 3.2896153992324759  1.1432366096573148  5.5014474496860810
 0.8008379976124766  1.0371566729900268  5.2261990710474553
 6.9278602092843489  3.2289855271325294  6.1018573938088725
 0.4587655919952525  1.5118516764070202  6.8918019093661194
 5.0651128381811592  6.3710135335380311  3.8026042778734492
 6.6457944646925800  0.2088166238839486  6.7429521651946089
 0.1792671773093257  0.0145649895439846  2.0729236901672028
 1.0324570084997928  6.5345093890852688  0.0134305216376909
 3.6936762116332620  6.8927662515375854  8.4229455676180471
 4.7234244973710453  4.3303165454818320  8.3841494186318695
 4.7886818155949857  6.0301682268799457 11.1698676942920940
 4.6903651111021318  0.1559568015021098 11.0479970736171715
 6.8567805754120918 11.6207047136821586  6.6455756232826282
 6.9479895453956804  8.1068912068056918  3.6994238299111277
 2.0828051174942974 13.1683880791772516  6.1251195498315543
 2.6061724201113563  7.1250512901679830  2.9249419734487532
 1.7315618998648770  8.0226148563649833 13.5518573776385765
 6.7628365394938772 13.7101152562486703  9.7789727237429762
 1.8427953023593293 13.7854778021925171  7.7613326679044192
 4.5012260515131892  8.1017985742482139 13.8543236278617670
 0.1664740759225873  8.0213834125335843 11.6166681297671204
 1.9897329163418505  7.0802433963361100 10.4471680410365693
 2.8531751734302855 10.6352491755731258 13.5598093910190798
 4.1683240284254168 12.8267897763839507 13.7225257016967781
 9.4813093606781091  0.6271779918001776  1.4423285329557674
 6.3218365953853617  7.1100851659017170  6.5100525622712198
13.0093932044752165  6.9802057818991585  2.5805093457824864
 7.5292487928780254  6.0115611030004814  2.5923549760089291
 9.0663805372598745  6.3126057609089106  0.5591196499544742
 8.0135197771624789  2.5418696585509544  0.6902369585548769
10.1660242838557373  0.0250731202281882  5.4375484475958071
 9.2973408991479900  4.5726830387269572  0.5269906468053485
 8.6461881166871013  6.4129893408138638  6.4141058298539271
12.4471077483592971  0.8731902011395691  4.8004664942977264
 8.5251329996084628  1.4373186576551431  6.6865744016147275
10.4366213634297651  5.6129635793634289  5.1412081703836368
 7.1658655184015210  8.5393038375133159  9.9614661359175116
 4.4841398129609011 14.0211362121253664  8.0397257034370586
13.4330828059428775 13.4439790127867198  7.2554494605411080
 6.5794237166159544  9.8909278397754647 10.9247025836410145
 3.2518990832247656 12.5751810472626424 12.2426561554808906
 3.1838836276415616  7.9581193765820295 11.4058546903554685
 1.2652729136127716  9.5642122167216943  8.9210690519619451
 3.2172907937573854 11.8813935193839235  9.4708751190233844
 4.7366735240396363  7.8984741494819506  9.4465853532543651
 4.7464297364399037 10.6861938284729625  7.9053468585526474
 1.0203470940616963 11.2368497474000577  8.4114345897994287
 3.5067055056344660  9.4522850049533673  7.5905707837363696
 1.0301612690263271 11.9643141056421172 10.8370129910711661
 5.8769418180084259 10.1957325872888909 13.8828671311409124
 3.2498220993657352 11.1281039352877222  7.0556299824663053
 3.9541858041162197 10.1063543351028073 12.2937116338668311
 6.2822197925930521 12.1051499885314939 12.4991902100705126
 6.9473812749775306  7.8572207686128248 12.3305650694267683
 1.2580310017909113 10.2855295463789638 11.3280471667286200
 3.4581628746652608 10.2112631753052696  9.9895200350099564
 5.3288457863142167 11.8726167828158182 11.0308392459942226
 7.1111263134708835  5.6576618172605659  5.2185780249634366
 9.1722591941946057  9.2165441549015465  7.4467324284216119
 5.1827999445693820  8.8723099266693009  2.9082917390253016
 5.9009246690633272  2.0220062117555475  7.4778275577768394
 5.6589944436428592  6.1844640206368382  8.7180736029918506
 7.7283234537906988 10.9514984454345168  3.9755170480966910
 9.0065829158652750 11.0594925155391373 11.2629646045533107
