Generated by VASPKIT code
 1.000000
   42.1110829514121718  -18.5414387958791806   13.4632440290325697
    0.0000000006504174   34.0770016872552191    7.0459628098124281
   -0.0000000008383230   -0.0000000005714358   39.8777950498041633
   C    H 
  2133  3942
Direct
    0.1805270858198584    0.0358968192460883    0.0879581537878867     C001
    0.1805270858198584    0.0358968192460883    0.4212914871212201     C002
    0.1805270858198584    0.0358968192460883    0.7546248204545534     C003
    0.1805270858198584    0.3692301525794217    0.0879581537878867     C004
    0.1805270858198584    0.3692301525794217    0.4212914871212201     C005
    0.1805270858198584    0.3692301525794217    0.7546248204545534     C006
    0.1805270858198584    0.7025634859127550    0.0879581537878867     C007
    0.1805270858198584    0.7025634859127550    0.4212914871212201     C008
    0.1805270858198584    0.7025634859127550    0.7546248204545534     C009
    0.5138604191531917    0.0358968192460883    0.0879581537878867     C010
    0.5138604191531917    0.0358968192460883    0.4212914871212201     C011
    0.5138604191531917    0.0358968192460883    0.7546248204545534     C012
    0.5138604191531917    0.3692301525794217    0.0879581537878867     C013
    0.5138604191531917    0.3692301525794217    0.4212914871212201     C014
    0.5138604191531917    0.3692301525794217    0.7546248204545534     C015
    0.5138604191531917    0.7025634859127550    0.0879581537878867     C016
    0.5138604191531917    0.7025634859127550    0.4212914871212201     C017
    0.5138604191531917    0.7025634859127550    0.7546248204545534     C018
    0.8471937524865251    0.0358968192460883    0.0879581537878867     C019
    0.8471937524865251    0.0358968192460883    0.4212914871212201     C020
    0.8471937524865251    0.0358968192460883    0.7546248204545534     C021
    0.8471937524865251    0.3692301525794217    0.0879581537878867     C022
    0.8471937524865251    0.3692301525794217    0.4212914871212201     C023
    0.8471937524865251    0.3692301525794217    0.7546248204545534     C024
    0.8471937524865251    0.7025634859127550    0.0879581537878867     C025
    0.8471937524865251    0.7025634859127550    0.4212914871212201     C026
    0.8471937524865251    0.7025634859127550    0.7546248204545534     C027
    0.1449209456442135    0.0173719070565918    0.1083470147761423     C028
    0.1449209456442135    0.0173719070565918    0.4416803481094755     C029
    0.1449209456442135    0.0173719070565918    0.7750136814428089     C030
    0.1449209456442135    0.3507052403899251    0.1083470147761423     C031
    0.1449209456442135    0.3507052403899251    0.4416803481094755     C032
    0.1449209456442135    0.3507052403899251    0.7750136814428089     C033
    0.1449209456442135    0.6840385737232584    0.1083470147761423     C034
    0.1449209456442135    0.6840385737232584    0.4416803481094755     C035
    0.1449209456442135    0.6840385737232584    0.7750136814428089     C036
    0.4782542789775468    0.0173719070565918    0.1083470147761423     C037
    0.4782542789775468    0.0173719070565918    0.4416803481094755     C038
    0.4782542789775468    0.0173719070565918    0.7750136814428089     C039
    0.4782542789775468    0.3507052403899251    0.1083470147761423     C040
    0.4782542789775468    0.3507052403899251    0.4416803481094755     C041
    0.4782542789775468    0.3507052403899251    0.7750136814428089     C042
    0.4782542789775468    0.6840385737232584    0.1083470147761423     C043
    0.4782542789775468    0.6840385737232584    0.4416803481094755     C044
    0.4782542789775468    0.6840385737232584    0.7750136814428089     C045
    0.8115876123108802    0.0173719070565918    0.1083470147761423     C046
    0.8115876123108802    0.0173719070565918    0.4416803481094755     C047
    0.8115876123108802    0.0173719070565918    0.7750136814428089     C048
    0.8115876123108802    0.3507052403899251    0.1083470147761423     C049
    0.8115876123108802    0.3507052403899251    0.4416803481094755     C050
    0.8115876123108802    0.3507052403899251    0.7750136814428089     C051
    0.8115876123108802    0.6840385737232584    0.1083470147761423     C052
    0.8115876123108802    0.6840385737232584    0.4416803481094755     C053
    0.8115876123108802    0.6840385737232584    0.7750136814428089     C054
    0.0173936212345590    0.0527940550044662    0.1883898237669372     C055
    0.0173936212345590    0.0527940550044662    0.5217231571002706     C056
    0.0173936212345590    0.0527940550044662    0.8550564904336040     C057
    0.0173936212345590    0.3861273883377996    0.1883898237669372     C058
    0.0173936212345590    0.3861273883377996    0.5217231571002706     C059
    0.0173936212345590    0.3861273883377996    0.8550564904336040     C060
    0.0173936212345590    0.7194607216711328    0.1883898237669372     C061
    0.0173936212345590    0.7194607216711328    0.5217231571002706     C062
    0.0173936212345590    0.7194607216711328    0.8550564904336040     C063
    0.3507269545678923    0.0527940550044662    0.1883898237669372     C064
    0.3507269545678923    0.0527940550044662    0.5217231571002706     C065
    0.3507269545678923    0.0527940550044662    0.8550564904336040     C066
    0.3507269545678923    0.3861273883377996    0.1883898237669372     C067
    0.3507269545678923    0.3861273883377996    0.5217231571002706     C068
    0.3507269545678923    0.3861273883377996    0.8550564904336040     C069
    0.3507269545678923    0.7194607216711328    0.1883898237669372     C070
    0.3507269545678923    0.7194607216711328    0.5217231571002706     C071
    0.3507269545678923    0.7194607216711328    0.8550564904336040     C072
    0.6840602879012256    0.0527940550044662    0.1883898237669372     C073
    0.6840602879012256    0.0527940550044662    0.5217231571002706     C074
    0.6840602879012256    0.0527940550044662    0.8550564904336040     C075
    0.6840602879012256    0.3861273883377996    0.1883898237669372     C076
    0.6840602879012256    0.3861273883377996    0.5217231571002706     C077
    0.6840602879012256    0.3861273883377996    0.8550564904336040     C078
    0.6840602879012256    0.7194607216711328    0.1883898237669372     C079
    0.6840602879012256    0.7194607216711328    0.5217231571002706     C080
    0.6840602879012256    0.7194607216711328    0.8550564904336040     C081
    0.9937610030426713    0.0502111100041069    0.2569518057520437     C082
    0.9937610030426713    0.0502111100041069    0.5902851390853771     C083
    0.9937610030426713    0.0502111100041069    0.9236184724187104     C084
    0.9937610030426713    0.3835444433374402    0.2569518057520437     C085
    0.9937610030426713    0.3835444433374402    0.5902851390853771     C086
    0.9937610030426713    0.3835444433374402    0.9236184724187104     C087
    0.9937610030426713    0.7168777766707735    0.2569518057520437     C088
    0.9937610030426713    0.7168777766707735    0.5902851390853771     C089
    0.9937610030426713    0.7168777766707735    0.9236184724187104     C090
    0.3270943363760046    0.0502111100041069    0.2569518057520437     C091
    0.3270943363760046    0.0502111100041069    0.5902851390853771     C092
    0.3270943363760046    0.0502111100041069    0.9236184724187104     C093
    0.3270943363760046    0.3835444433374402    0.2569518057520437     C094
    0.3270943363760046    0.3835444433374402    0.5902851390853771     C095
    0.3270943363760046    0.3835444433374402    0.9236184724187104     C096
    0.3270943363760046    0.7168777766707735    0.2569518057520437     C097
    0.3270943363760046    0.7168777766707735    0.5902851390853771     C098
    0.3270943363760046    0.7168777766707735    0.9236184724187104     C099
    0.6604276697093380    0.0502111100041069    0.2569518057520437     C100
    0.6604276697093380    0.0502111100041069    0.5902851390853771     C101
    0.6604276697093380    0.0502111100041069    0.9236184724187104     C102
    0.6604276697093380    0.3835444433374402    0.2569518057520437     C103
    0.6604276697093380    0.3835444433374402    0.5902851390853771     C104
    0.6604276697093380    0.3835444433374402    0.9236184724187104     C105
    0.6604276697093380    0.7168777766707735    0.2569518057520437     C106
    0.6604276697093380    0.7168777766707735    0.5902851390853771     C107
    0.6604276697093380    0.7168777766707735    0.9236184724187104     C108
    0.9845570805258141    0.0270647911107982    0.1481588901482617     C109
    0.9845570805258141    0.0270647911107982    0.4814922234815950     C110
    0.9845570805258141    0.0270647911107982    0.8148255568149283     C111
    0.9845570805258141    0.3603981244441316    0.1481588901482617     C112
    0.9845570805258141    0.3603981244441316    0.4814922234815950     C113
    0.9845570805258141    0.3603981244441316    0.8148255568149283     C114
    0.9845570805258141    0.6937314577774649    0.1481588901482617     C115
    0.9845570805258141    0.6937314577774649    0.4814922234815950     C116
    0.9845570805258141    0.6937314577774649    0.8148255568149283     C117
    0.3178904138591474    0.0270647911107982    0.1481588901482617     C118
    0.3178904138591474    0.0270647911107982    0.4814922234815950     C119
    0.3178904138591474    0.0270647911107982    0.8148255568149283     C120
    0.3178904138591474    0.3603981244441316    0.1481588901482617     C121
    0.3178904138591474    0.3603981244441316    0.4814922234815950     C122
    0.3178904138591474    0.3603981244441316    0.8148255568149283     C123
    0.3178904138591474    0.6937314577774649    0.1481588901482617     C124
    0.3178904138591474    0.6937314577774649    0.4814922234815950     C125
    0.3178904138591474    0.6937314577774649    0.8148255568149283     C126
    0.6512237471924807    0.0270647911107982    0.1481588901482617     C127
    0.6512237471924807    0.0270647911107982    0.4814922234815950     C128
    0.6512237471924807    0.0270647911107982    0.8148255568149283     C129
    0.6512237471924807    0.3603981244441316    0.1481588901482617     C130
    0.6512237471924807    0.3603981244441316    0.4814922234815950     C131
    0.6512237471924807    0.3603981244441316    0.8148255568149283     C132
    0.6512237471924807    0.6937314577774649    0.1481588901482617     C133
    0.6512237471924807    0.6937314577774649    0.4814922234815950     C134
    0.6512237471924807    0.6937314577774649    0.8148255568149283     C135
    0.9648984393607047    0.0504898996298118    0.1493322522005580     C136
    0.9648984393607047    0.0504898996298118    0.4826655855338913     C137
    0.9648984393607047    0.0504898996298118    0.8159989188672246     C138
    0.9648984393607047    0.3838232329631450    0.1493322522005580     C139
    0.9648984393607047    0.3838232329631450    0.4826655855338913     C140
    0.9648984393607047    0.3838232329631450    0.8159989188672246     C141
    0.9648984393607047    0.7171565662964784    0.1493322522005580     C142
    0.9648984393607047    0.7171565662964784    0.4826655855338913     C143
    0.9648984393607047    0.7171565662964784    0.8159989188672246     C144
    0.2982317726940380    0.0504898996298118    0.1493322522005580     C145
    0.2982317726940380    0.0504898996298118    0.4826655855338913     C146
    0.2982317726940380    0.0504898996298118    0.8159989188672246     C147
    0.2982317726940380    0.3838232329631450    0.1493322522005580     C148
    0.2982317726940380    0.3838232329631450    0.4826655855338913     C149
    0.2982317726940380    0.3838232329631450    0.8159989188672246     C150
    0.2982317726940380    0.7171565662964784    0.1493322522005580     C151
    0.2982317726940380    0.7171565662964784    0.4826655855338913     C152
    0.2982317726940380    0.7171565662964784    0.8159989188672246     C153
    0.6315651060273714    0.0504898996298118    0.1493322522005580     C154
    0.6315651060273714    0.0504898996298118    0.4826655855338913     C155
    0.6315651060273714    0.0504898996298118    0.8159989188672246     C156
    0.6315651060273714    0.3838232329631450    0.1493322522005580     C157
    0.6315651060273714    0.3838232329631450    0.4826655855338913     C158
    0.6315651060273714    0.3838232329631450    0.8159989188672246     C159
    0.6315651060273714    0.7171565662964784    0.1493322522005580     C160
    0.6315651060273714    0.7171565662964784    0.4826655855338913     C161
    0.6315651060273714    0.7171565662964784    0.8159989188672246     C162
    0.1238076670321666    0.9790548819812703    0.2188811936012101     C163
    0.1238076670321666    0.9790548819812703    0.5522145269345433     C164
    0.1238076670321666    0.9790548819812703    0.8855478602678767     C165
    0.1238076670321666    0.3123882153146036    0.2188811936012101     C166
    0.1238076670321666    0.3123882153146036    0.5522145269345433     C167
    0.1238076670321666    0.3123882153146036    0.8855478602678767     C168
    0.1238076670321666    0.6457215486479368    0.2188811936012101     C169
    0.1238076670321666    0.6457215486479368    0.5522145269345433     C170
    0.1238076670321666    0.6457215486479368    0.8855478602678767     C171
    0.4571410003655000    0.9790548819812703    0.2188811936012101     C172
    0.4571410003655000    0.9790548819812703    0.5522145269345433     C173
    0.4571410003655000    0.9790548819812703    0.8855478602678767     C174
    0.4571410003655000    0.3123882153146036    0.2188811936012101     C175
    0.4571410003655000    0.3123882153146036    0.5522145269345433     C176
    0.4571410003655000    0.3123882153146036    0.8855478602678767     C177
    0.4571410003655000    0.6457215486479368    0.2188811936012101     C178
    0.4571410003655000    0.6457215486479368    0.5522145269345433     C179
    0.4571410003655000    0.6457215486479368    0.8855478602678767     C180
    0.7904743336988332    0.9790548819812703    0.2188811936012101     C181
    0.7904743336988332    0.9790548819812703    0.5522145269345433     C182
    0.7904743336988332    0.9790548819812703    0.8855478602678767     C183
    0.7904743336988332    0.3123882153146036    0.2188811936012101     C184
    0.7904743336988332    0.3123882153146036    0.5522145269345433     C185
    0.7904743336988332    0.3123882153146036    0.8855478602678767     C186
    0.7904743336988332    0.6457215486479368    0.2188811936012101     C187
    0.7904743336988332    0.6457215486479368    0.5522145269345433     C188
    0.7904743336988332    0.6457215486479368    0.8855478602678767     C189
    0.8846947750539309    0.0200568014300155    0.1848628311536510     C190
    0.8846947750539309    0.0200568014300155    0.5181961644869844     C191
    0.8846947750539309    0.0200568014300155    0.8515294978203176     C192
    0.8846947750539309    0.3533901347633488    0.1848628311536510     C193
    0.8846947750539309    0.3533901347633488    0.5181961644869844     C194
    0.8846947750539309    0.3533901347633488    0.8515294978203176     C195
    0.8846947750539309    0.6867234680966822    0.1848628311536510     C196
    0.8846947750539309    0.6867234680966822    0.5181961644869844     C197
    0.8846947750539309    0.6867234680966822    0.8515294978203176     C198
    0.2180281083872643    0.0200568014300155    0.1848628311536510     C199
    0.2180281083872643    0.0200568014300155    0.5181961644869844     C200
    0.2180281083872643    0.0200568014300155    0.8515294978203176     C201
    0.2180281083872643    0.3533901347633488    0.1848628311536510     C202
    0.2180281083872643    0.3533901347633488    0.5181961644869844     C203
    0.2180281083872643    0.3533901347633488    0.8515294978203176     C204
    0.2180281083872643    0.6867234680966822    0.1848628311536510     C205
    0.2180281083872643    0.6867234680966822    0.5181961644869844     C206
    0.2180281083872643    0.6867234680966822    0.8515294978203176     C207
    0.5513614417205976    0.0200568014300155    0.1848628311536510     C208
    0.5513614417205976    0.0200568014300155    0.5181961644869844     C209
    0.5513614417205976    0.0200568014300155    0.8515294978203176     C210
    0.5513614417205976    0.3533901347633488    0.1848628311536510     C211
    0.5513614417205976    0.3533901347633488    0.5181961644869844     C212
    0.5513614417205976    0.3533901347633488    0.8515294978203176     C213
    0.5513614417205976    0.6867234680966822    0.1848628311536510     C214
    0.5513614417205976    0.6867234680966822    0.5181961644869844     C215
    0.5513614417205976    0.6867234680966822    0.8515294978203176     C216
    0.9916597540230911    0.0460321479217582    0.2187745756182018     C217
    0.9916597540230911    0.0460321479217582    0.5521079089515352     C218
    0.9916597540230911    0.0460321479217582    0.8854412422848684     C219
    0.9916597540230911    0.3793654812550915    0.2187745756182018     C220
    0.9916597540230911    0.3793654812550915    0.5521079089515352     C221
    0.9916597540230911    0.3793654812550915    0.8854412422848684     C222
    0.9916597540230911    0.7126988145884249    0.2187745756182018     C223
    0.9916597540230911    0.7126988145884249    0.5521079089515352     C224
    0.9916597540230911    0.7126988145884249    0.8854412422848684     C225
    0.3249930873564244    0.0460321479217582    0.2187745756182018     C226
    0.3249930873564244    0.0460321479217582    0.5521079089515352     C227
    0.3249930873564244    0.0460321479217582    0.8854412422848684     C228
    0.3249930873564244    0.3793654812550915    0.2187745756182018     C229
    0.3249930873564244    0.3793654812550915    0.5521079089515352     C230
    0.3249930873564244    0.3793654812550915    0.8854412422848684     C231
    0.3249930873564244    0.7126988145884249    0.2187745756182018     C232
    0.3249930873564244    0.7126988145884249    0.5521079089515352     C233
    0.3249930873564244    0.7126988145884249    0.8854412422848684     C234
    0.6583264206897578    0.0460321479217582    0.2187745756182018     C235
    0.6583264206897578    0.0460321479217582    0.5521079089515352     C236
    0.6583264206897578    0.0460321479217582    0.8854412422848684     C237
    0.6583264206897578    0.3793654812550915    0.2187745756182018     C238
    0.6583264206897578    0.3793654812550915    0.5521079089515352     C239
    0.6583264206897578    0.3793654812550915    0.8854412422848684     C240
    0.6583264206897578    0.7126988145884249    0.2187745756182018     C241
    0.6583264206897578    0.7126988145884249    0.5521079089515352     C242
    0.6583264206897578    0.7126988145884249    0.8854412422848684     C243
    0.1207795081763174    0.8700478552270912    0.3827218073772183     C244
    0.1207795081763174    0.8700478552270912    0.7160551407105515     C245
    0.1207795081763174    0.8700478552270912    0.0493884740438849     C246
    0.1207795081763174    0.2033811885604244    0.3827218073772183     C247
    0.1207795081763174    0.2033811885604244    0.7160551407105515     C248
    0.1207795081763174    0.2033811885604244    0.0493884740438849     C249
    0.1207795081763174    0.5367145218937579    0.3827218073772183     C250
    0.1207795081763174    0.5367145218937579    0.7160551407105515     C251
    0.1207795081763174    0.5367145218937579    0.0493884740438849     C252
    0.4541128415096507    0.8700478552270912    0.3827218073772183     C253
    0.4541128415096507    0.8700478552270912    0.7160551407105515     C254
    0.4541128415096507    0.8700478552270912    0.0493884740438849     C255
    0.4541128415096507    0.2033811885604244    0.3827218073772183     C256
    0.4541128415096507    0.2033811885604244    0.7160551407105515     C257
    0.4541128415096507    0.2033811885604244    0.0493884740438849     C258
    0.4541128415096507    0.5367145218937579    0.3827218073772183     C259
    0.4541128415096507    0.5367145218937579    0.7160551407105515     C260
    0.4541128415096507    0.5367145218937579    0.0493884740438849     C261
    0.7874461748429841    0.8700478552270912    0.3827218073772183     C262
    0.7874461748429841    0.8700478552270912    0.7160551407105515     C263
    0.7874461748429841    0.8700478552270912    0.0493884740438849     C264
    0.7874461748429841    0.2033811885604244    0.3827218073772183     C265
    0.7874461748429841    0.2033811885604244    0.7160551407105515     C266
    0.7874461748429841    0.2033811885604244    0.0493884740438849     C267
    0.7874461748429841    0.5367145218937579    0.3827218073772183     C268
    0.7874461748429841    0.5367145218937579    0.7160551407105515     C269
    0.7874461748429841    0.5367145218937579    0.0493884740438849     C270
    0.0733507997620257    0.2987057466462637    0.4305106139458063     C271
    0.0733507997620257    0.2987057466462637    0.7638439472791396     C272
    0.0733507997620257    0.2987057466462637    0.0971772806124729     C273
    0.0733507997620257    0.6320390799795970    0.4305106139458063     C274
    0.0733507997620257    0.6320390799795970    0.7638439472791396     C275
    0.0733507997620257    0.6320390799795970    0.0971772806124729     C276
    0.0733507997620257    0.9653724133129302    0.4305106139458063     C277
    0.0733507997620257    0.9653724133129302    0.7638439472791396     C278
    0.0733507997620257    0.9653724133129302    0.0971772806124729     C279
    0.4066841330953590    0.2987057466462637    0.4305106139458063     C280
    0.4066841330953590    0.2987057466462637    0.7638439472791396     C281
    0.4066841330953590    0.2987057466462637    0.0971772806124729     C282
    0.4066841330953590    0.6320390799795970    0.4305106139458063     C283
    0.4066841330953590    0.6320390799795970    0.7638439472791396     C284
    0.4066841330953590    0.6320390799795970    0.0971772806124729     C285
    0.4066841330953590    0.9653724133129302    0.4305106139458063     C286
    0.4066841330953590    0.9653724133129302    0.7638439472791396     C287
    0.4066841330953590    0.9653724133129302    0.0971772806124729     C288
    0.7400174664286924    0.2987057466462637    0.4305106139458063     C289
    0.7400174664286924    0.2987057466462637    0.7638439472791396     C290
    0.7400174664286924    0.2987057466462637    0.0971772806124729     C291
    0.7400174664286924    0.6320390799795970    0.4305106139458063     C292
    0.7400174664286924    0.6320390799795970    0.7638439472791396     C293
    0.7400174664286924    0.6320390799795970    0.0971772806124729     C294
    0.7400174664286924    0.9653724133129302    0.4305106139458063     C295
    0.7400174664286924    0.9653724133129302    0.7638439472791396     C296
    0.7400174664286924    0.9653724133129302    0.0971772806124729     C297
    0.9546589885899679    0.0616036147795898    0.1228777696144494     C298
    0.9546589885899679    0.0616036147795898    0.4562111029477828     C299
    0.9546589885899679    0.0616036147795898    0.7895444362811161     C300
    0.9546589885899679    0.3949369481129231    0.1228777696144494     C301
    0.9546589885899679    0.3949369481129231    0.4562111029477828     C302
    0.9546589885899679    0.3949369481129231    0.7895444362811161     C303
    0.9546589885899679    0.7282702814462565    0.1228777696144494     C304
    0.9546589885899679    0.7282702814462565    0.4562111029477828     C305
    0.9546589885899679    0.7282702814462565    0.7895444362811161     C306
    0.2879923219233013    0.0616036147795898    0.1228777696144494     C307
    0.2879923219233013    0.0616036147795898    0.4562111029477828     C308
    0.2879923219233013    0.0616036147795898    0.7895444362811161     C309
    0.2879923219233013    0.3949369481129231    0.1228777696144494     C310
    0.2879923219233013    0.3949369481129231    0.4562111029477828     C311
    0.2879923219233013    0.3949369481129231    0.7895444362811161     C312
    0.2879923219233013    0.7282702814462565    0.1228777696144494     C313
    0.2879923219233013    0.7282702814462565    0.4562111029477828     C314
    0.2879923219233013    0.7282702814462565    0.7895444362811161     C315
    0.6213256552566346    0.0616036147795898    0.1228777696144494     C316
    0.6213256552566346    0.0616036147795898    0.4562111029477828     C317
    0.6213256552566346    0.0616036147795898    0.7895444362811161     C318
    0.6213256552566346    0.3949369481129231    0.1228777696144494     C319
    0.6213256552566346    0.3949369481129231    0.4562111029477828     C320
    0.6213256552566346    0.3949369481129231    0.7895444362811161     C321
    0.6213256552566346    0.7282702814462565    0.1228777696144494     C322
    0.6213256552566346    0.7282702814462565    0.4562111029477828     C323
    0.6213256552566346    0.7282702814462565    0.7895444362811161     C324
    0.0488388377076319    0.0160693290591633    0.3705492660579133     C325
    0.0488388377076319    0.0160693290591633    0.7038825993912466     C326
    0.0488388377076319    0.0160693290591633    0.0372159327245799     C327
    0.0488388377076319    0.3494026623924966    0.3705492660579133     C328
    0.0488388377076319    0.3494026623924966    0.7038825993912466     C329
    0.0488388377076319    0.3494026623924966    0.0372159327245799     C330
    0.0488388377076319    0.6827359957258299    0.3705492660579133     C331
    0.0488388377076319    0.6827359957258299    0.7038825993912466     C332
    0.0488388377076319    0.6827359957258299    0.0372159327245799     C333
    0.3821721710409652    0.0160693290591633    0.3705492660579133     C334
    0.3821721710409652    0.0160693290591633    0.7038825993912466     C335
    0.3821721710409652    0.0160693290591633    0.0372159327245799     C336
    0.3821721710409652    0.3494026623924966    0.3705492660579133     C337
    0.3821721710409652    0.3494026623924966    0.7038825993912466     C338
    0.3821721710409652    0.3494026623924966    0.0372159327245799     C339
    0.3821721710409652    0.6827359957258299    0.3705492660579133     C340
    0.3821721710409652    0.6827359957258299    0.7038825993912466     C341
    0.3821721710409652    0.6827359957258299    0.0372159327245799     C342
    0.7155055043742986    0.0160693290591633    0.3705492660579133     C343
    0.7155055043742986    0.0160693290591633    0.7038825993912466     C344
    0.7155055043742986    0.0160693290591633    0.0372159327245799     C345
    0.7155055043742986    0.3494026623924966    0.3705492660579133     C346
    0.7155055043742986    0.3494026623924966    0.7038825993912466     C347
    0.7155055043742986    0.3494026623924966    0.0372159327245799     C348
    0.7155055043742986    0.6827359957258299    0.3705492660579133     C349
    0.7155055043742986    0.6827359957258299    0.7038825993912466     C350
    0.7155055043742986    0.6827359957258299    0.0372159327245799     C351
    0.1150165433384982    0.1979082878838583    0.2417199170273070     C352
    0.1150165433384982    0.1979082878838583    0.5750532503606403     C353
    0.1150165433384982    0.1979082878838583    0.9083865836939735     C354
    0.1150165433384982    0.5312416212171915    0.2417199170273070     C355
    0.1150165433384982    0.5312416212171915    0.5750532503606403     C356
    0.1150165433384982    0.5312416212171915    0.9083865836939735     C357
    0.1150165433384982    0.8645749545505248    0.2417199170273070     C358
    0.1150165433384982    0.8645749545505248    0.5750532503606403     C359
    0.1150165433384982    0.8645749545505248    0.9083865836939735     C360
    0.4483498766718315    0.1979082878838583    0.2417199170273070     C361
    0.4483498766718315    0.1979082878838583    0.5750532503606403     C362
    0.4483498766718315    0.1979082878838583    0.9083865836939735     C363
    0.4483498766718315    0.5312416212171915    0.2417199170273070     C364
    0.4483498766718315    0.5312416212171915    0.5750532503606403     C365
    0.4483498766718315    0.5312416212171915    0.9083865836939735     C366
    0.4483498766718315    0.8645749545505248    0.2417199170273070     C367
    0.4483498766718315    0.8645749545505248    0.5750532503606403     C368
    0.4483498766718315    0.8645749545505248    0.9083865836939735     C369
    0.7816832100051648    0.1979082878838583    0.2417199170273070     C370
    0.7816832100051648    0.1979082878838583    0.5750532503606403     C371
    0.7816832100051648    0.1979082878838583    0.9083865836939735     C372
    0.7816832100051648    0.5312416212171915    0.2417199170273070     C373
    0.7816832100051648    0.5312416212171915    0.5750532503606403     C374
    0.7816832100051648    0.5312416212171915    0.9083865836939735     C375
    0.7816832100051648    0.8645749545505248    0.2417199170273070     C376
    0.7816832100051648    0.8645749545505248    0.5750532503606403     C377
    0.7816832100051648    0.8645749545505248    0.9083865836939735     C378
    0.1389136005911102    0.7882671071858229    0.3710138925347510     C379
    0.1389136005911102    0.7882671071858229    0.7043472258680843     C380
    0.1389136005911102    0.7882671071858229    0.0376805592014176     C381
    0.1389136005911102    0.1216004405191562    0.3710138925347510     C382
    0.1389136005911102    0.1216004405191562    0.7043472258680843     C383
    0.1389136005911102    0.1216004405191562    0.0376805592014176     C384
    0.1389136005911102    0.4549337738524896    0.3710138925347510     C385
    0.1389136005911102    0.4549337738524896    0.7043472258680843     C386
    0.1389136005911102    0.4549337738524896    0.0376805592014176     C387
    0.4722469339244436    0.7882671071858229    0.3710138925347510     C388
    0.4722469339244436    0.7882671071858229    0.7043472258680843     C389
    0.4722469339244436    0.7882671071858229    0.0376805592014176     C390
    0.4722469339244436    0.1216004405191562    0.3710138925347510     C391
    0.4722469339244436    0.1216004405191562    0.7043472258680843     C392
    0.4722469339244436    0.1216004405191562    0.0376805592014176     C393
    0.4722469339244436    0.4549337738524896    0.3710138925347510     C394
    0.4722469339244436    0.4549337738524896    0.7043472258680843     C395
    0.4722469339244436    0.4549337738524896    0.0376805592014176     C396
    0.8055802672577770    0.7882671071858229    0.3710138925347510     C397
    0.8055802672577770    0.7882671071858229    0.7043472258680843     C398
    0.8055802672577770    0.7882671071858229    0.0376805592014176     C399
    0.8055802672577770    0.1216004405191562    0.3710138925347510     C400
    0.8055802672577770    0.1216004405191562    0.7043472258680843     C401
    0.8055802672577770    0.1216004405191562    0.0376805592014176     C402
    0.8055802672577770    0.4549337738524896    0.3710138925347510     C403
    0.8055802672577770    0.4549337738524896    0.7043472258680843     C404
    0.8055802672577770    0.4549337738524896    0.0376805592014176     C405
    0.9899395111846763    0.8326380281456234    0.2949701132873650     C406
    0.9899395111846763    0.8326380281456234    0.6283034466206984     C407
    0.9899395111846763    0.8326380281456234    0.9616367799540317     C408
    0.9899395111846763    0.1659713614789567    0.2949701132873650     C409
    0.9899395111846763    0.1659713614789567    0.6283034466206984     C410
    0.9899395111846763    0.1659713614789567    0.9616367799540317     C411
    0.9899395111846763    0.4993046948122901    0.2949701132873650     C412
    0.9899395111846763    0.4993046948122901    0.6283034466206984     C413
    0.9899395111846763    0.4993046948122901    0.9616367799540317     C414
    0.3232728445180095    0.8326380281456234    0.2949701132873650     C415
    0.3232728445180095    0.8326380281456234    0.6283034466206984     C416
    0.3232728445180095    0.8326380281456234    0.9616367799540317     C417
    0.3232728445180095    0.1659713614789567    0.2949701132873650     C418
    0.3232728445180095    0.1659713614789567    0.6283034466206984     C419
    0.3232728445180095    0.1659713614789567    0.9616367799540317     C420
    0.3232728445180095    0.4993046948122901    0.2949701132873650     C421
    0.3232728445180095    0.4993046948122901    0.6283034466206984     C422
    0.3232728445180095    0.4993046948122901    0.9616367799540317     C423
    0.6566061778513428    0.8326380281456234    0.2949701132873650     C424
    0.6566061778513428    0.8326380281456234    0.6283034466206984     C425
    0.6566061778513428    0.8326380281456234    0.9616367799540317     C426
    0.6566061778513428    0.1659713614789567    0.2949701132873650     C427
    0.6566061778513428    0.1659713614789567    0.6283034466206984     C428
    0.6566061778513428    0.1659713614789567    0.9616367799540317     C429
    0.6566061778513428    0.4993046948122901    0.2949701132873650     C430
    0.6566061778513428    0.4993046948122901    0.6283034466206984     C431
    0.6566061778513428    0.4993046948122901    0.9616367799540317     C432
    0.9148753984224018    0.8673370628676140    0.0253584310342498     C433
    0.9148753984224018    0.8673370628676140    0.3586917643675831     C434
    0.9148753984224018    0.8673370628676140    0.6920250977009165     C435
    0.9148753984224018    0.2006703962009473    0.0253584310342498     C436
    0.9148753984224018    0.2006703962009473    0.3586917643675831     C437
    0.9148753984224018    0.2006703962009473    0.6920250977009165     C438
    0.9148753984224018    0.5340037295342808    0.0253584310342498     C439
    0.9148753984224018    0.5340037295342808    0.3586917643675831     C440
    0.9148753984224018    0.5340037295342808    0.6920250977009165     C441
    0.2482087317557351    0.8673370628676140    0.0253584310342498     C442
    0.2482087317557351    0.8673370628676140    0.3586917643675831     C443
    0.2482087317557351    0.8673370628676140    0.6920250977009165     C444
    0.2482087317557351    0.2006703962009473    0.0253584310342498     C445
    0.2482087317557351    0.2006703962009473    0.3586917643675831     C446
    0.2482087317557351    0.2006703962009473    0.6920250977009165     C447
    0.2482087317557351    0.5340037295342808    0.0253584310342498     C448
    0.2482087317557351    0.5340037295342808    0.3586917643675831     C449
    0.2482087317557351    0.5340037295342808    0.6920250977009165     C450
    0.5815420650890685    0.8673370628676140    0.0253584310342498     C451
    0.5815420650890685    0.8673370628676140    0.3586917643675831     C452
    0.5815420650890685    0.8673370628676140    0.6920250977009165     C453
    0.5815420650890685    0.2006703962009473    0.0253584310342498     C454
    0.5815420650890685    0.2006703962009473    0.3586917643675831     C455
    0.5815420650890685    0.2006703962009473    0.6920250977009165     C456
    0.5815420650890685    0.5340037295342808    0.0253584310342498     C457
    0.5815420650890685    0.5340037295342808    0.3586917643675831     C458
    0.5815420650890685    0.5340037295342808    0.6920250977009165     C459
    0.9087582033667330    0.2774410591315165    0.0079951672233721     C460
    0.9087582033667330    0.2774410591315165    0.3413285005567054     C461
    0.9087582033667330    0.2774410591315165    0.6746618338900388     C462
    0.9087582033667330    0.6107743924648499    0.0079951672233721     C463
    0.9087582033667330    0.6107743924648499    0.3413285005567054     C464
    0.9087582033667330    0.6107743924648499    0.6746618338900388     C465
    0.9087582033667330    0.9441077257981833    0.0079951672233721     C466
    0.9087582033667330    0.9441077257981833    0.3413285005567054     C467
    0.9087582033667330    0.9441077257981833    0.6746618338900388     C468
    0.2420915367000662    0.2774410591315165    0.0079951672233721     C469
    0.2420915367000662    0.2774410591315165    0.3413285005567054     C470
    0.2420915367000662    0.2774410591315165    0.6746618338900388     C471
    0.2420915367000662    0.6107743924648499    0.0079951672233721     C472
    0.2420915367000662    0.6107743924648499    0.3413285005567054     C473
    0.2420915367000662    0.6107743924648499    0.6746618338900388     C474
    0.2420915367000662    0.9441077257981833    0.0079951672233721     C475
    0.2420915367000662    0.9441077257981833    0.3413285005567054     C476
    0.2420915367000662    0.9441077257981833    0.6746618338900388     C477
    0.5754248700333996    0.2774410591315165    0.0079951672233721     C478
    0.5754248700333996    0.2774410591315165    0.3413285005567054     C479
    0.5754248700333996    0.2774410591315165    0.6746618338900388     C480
    0.5754248700333996    0.6107743924648499    0.0079951672233721     C481
    0.5754248700333996    0.6107743924648499    0.3413285005567054     C482
    0.5754248700333996    0.6107743924648499    0.6746618338900388     C483
    0.5754248700333996    0.9441077257981833    0.0079951672233721     C484
    0.5754248700333996    0.9441077257981833    0.3413285005567054     C485
    0.5754248700333996    0.9441077257981833    0.6746618338900388     C486
    0.0165562443150020    0.0627503101457205    0.1518571497287361     C487
    0.0165562443150020    0.0627503101457205    0.4851904830620694     C488
    0.0165562443150020    0.0627503101457205    0.8185238163954027     C489
    0.0165562443150020    0.3960836434790539    0.1518571497287361     C490
    0.0165562443150020    0.3960836434790539    0.4851904830620694     C491
    0.0165562443150020    0.3960836434790539    0.8185238163954027     C492
    0.0165562443150020    0.7294169768123873    0.1518571497287361     C493
    0.0165562443150020    0.7294169768123873    0.4851904830620694     C494
    0.0165562443150020    0.7294169768123873    0.8185238163954027     C495
    0.3498895776483355    0.0627503101457205    0.1518571497287361     C496
    0.3498895776483355    0.0627503101457205    0.4851904830620694     C497
    0.3498895776483355    0.0627503101457205    0.8185238163954027     C498
    0.3498895776483355    0.3960836434790539    0.1518571497287361     C499
    0.3498895776483355    0.3960836434790539    0.4851904830620694     C500
    0.3498895776483355    0.3960836434790539    0.8185238163954027     C501
    0.3498895776483355    0.7294169768123873    0.1518571497287361     C502
    0.3498895776483355    0.7294169768123873    0.4851904830620694     C503
    0.3498895776483355    0.7294169768123873    0.8185238163954027     C504
    0.6832229109816688    0.0627503101457205    0.1518571497287361     C505
    0.6832229109816688    0.0627503101457205    0.4851904830620694     C506
    0.6832229109816688    0.0627503101457205    0.8185238163954027     C507
    0.6832229109816688    0.3960836434790539    0.1518571497287361     C508
    0.6832229109816688    0.3960836434790539    0.4851904830620694     C509
    0.6832229109816688    0.3960836434790539    0.8185238163954027     C510
    0.6832229109816688    0.7294169768123873    0.1518571497287361     C511
    0.6832229109816688    0.7294169768123873    0.4851904830620694     C512
    0.6832229109816688    0.7294169768123873    0.8185238163954027     C513
    0.1386618683148739    0.7728863268536827    0.3150580216423402     C514
    0.1386618683148739    0.7728863268536827    0.6483913549756735     C515
    0.1386618683148739    0.7728863268536827    0.9817246883090068     C516
    0.1386618683148739    0.1062196601870160    0.3150580216423402     C517
    0.1386618683148739    0.1062196601870160    0.6483913549756735     C518
    0.1386618683148739    0.1062196601870160    0.9817246883090068     C519
    0.1386618683148739    0.4395529935203494    0.3150580216423402     C520
    0.1386618683148739    0.4395529935203494    0.6483913549756735     C521
    0.1386618683148739    0.4395529935203494    0.9817246883090068     C522
    0.4719952016482072    0.7728863268536827    0.3150580216423402     C523
    0.4719952016482072    0.7728863268536827    0.6483913549756735     C524
    0.4719952016482072    0.7728863268536827    0.9817246883090068     C525
    0.4719952016482072    0.1062196601870160    0.3150580216423402     C526
    0.4719952016482072    0.1062196601870160    0.6483913549756735     C527
    0.4719952016482072    0.1062196601870160    0.9817246883090068     C528
    0.4719952016482072    0.4395529935203494    0.3150580216423402     C529
    0.4719952016482072    0.4395529935203494    0.6483913549756735     C530
    0.4719952016482072    0.4395529935203494    0.9817246883090068     C531
    0.8053285349815404    0.7728863268536827    0.3150580216423402     C532
    0.8053285349815404    0.7728863268536827    0.6483913549756735     C533
    0.8053285349815404    0.7728863268536827    0.9817246883090068     C534
    0.8053285349815404    0.1062196601870160    0.3150580216423402     C535
    0.8053285349815404    0.1062196601870160    0.6483913549756735     C536
    0.8053285349815404    0.1062196601870160    0.9817246883090068     C537
    0.8053285349815404    0.4395529935203494    0.3150580216423402     C538
    0.8053285349815404    0.4395529935203494    0.6483913549756735     C539
    0.8053285349815404    0.4395529935203494    0.9817246883090068     C540
    0.1783559688821004    0.8066141611487021    0.3536620032735056     C541
    0.1783559688821004    0.8066141611487021    0.6869953366068389     C542
    0.1783559688821004    0.8066141611487021    0.0203286699401722     C543
    0.1783559688821004    0.1399474944820355    0.3536620032735056     C544
    0.1783559688821004    0.1399474944820355    0.6869953366068389     C545
    0.1783559688821004    0.1399474944820355    0.0203286699401722     C546
    0.1783559688821004    0.4732808278153688    0.3536620032735056     C547
    0.1783559688821004    0.4732808278153688    0.6869953366068389     C548
    0.1783559688821004    0.4732808278153688    0.0203286699401722     C549
    0.5116893022154336    0.8066141611487021    0.3536620032735056     C550
    0.5116893022154336    0.8066141611487021    0.6869953366068389     C551
    0.5116893022154336    0.8066141611487021    0.0203286699401722     C552
    0.5116893022154336    0.1399474944820355    0.3536620032735056     C553
    0.5116893022154336    0.1399474944820355    0.6869953366068389     C554
    0.5116893022154336    0.1399474944820355    0.0203286699401722     C555
    0.5116893022154336    0.4732808278153688    0.3536620032735056     C556
    0.5116893022154336    0.4732808278153688    0.6869953366068389     C557
    0.5116893022154336    0.4732808278153688    0.0203286699401722     C558
    0.8450226355487669    0.8066141611487021    0.3536620032735056     C559
    0.8450226355487669    0.8066141611487021    0.6869953366068389     C560
    0.8450226355487669    0.8066141611487021    0.0203286699401722     C561
    0.8450226355487669    0.1399474944820355    0.3536620032735056     C562
    0.8450226355487669    0.1399474944820355    0.6869953366068389     C563
    0.8450226355487669    0.1399474944820355    0.0203286699401722     C564
    0.8450226355487669    0.4732808278153688    0.3536620032735056     C565
    0.8450226355487669    0.4732808278153688    0.6869953366068389     C566
    0.8450226355487669    0.4732808278153688    0.0203286699401722     C567
    0.9152858312703822    0.2457805645949488    0.0315704196339297     C568
    0.9152858312703822    0.2457805645949488    0.3649037529672632     C569
    0.9152858312703822    0.2457805645949488    0.6982370863005964     C570
    0.9152858312703822    0.5791138979282821    0.0315704196339297     C571
    0.9152858312703822    0.5791138979282821    0.3649037529672632     C572
    0.9152858312703822    0.5791138979282821    0.6982370863005964     C573
    0.9152858312703822    0.9124472312616153    0.0315704196339297     C574
    0.9152858312703822    0.9124472312616153    0.3649037529672632     C575
    0.9152858312703822    0.9124472312616153    0.6982370863005964     C576
    0.2486191646037156    0.2457805645949488    0.0315704196339297     C577
    0.2486191646037156    0.2457805645949488    0.3649037529672632     C578
    0.2486191646037156    0.2457805645949488    0.6982370863005964     C579
    0.2486191646037156    0.5791138979282821    0.0315704196339297     C580
    0.2486191646037156    0.5791138979282821    0.3649037529672632     C581
    0.2486191646037156    0.5791138979282821    0.6982370863005964     C582
    0.2486191646037156    0.9124472312616153    0.0315704196339297     C583
    0.2486191646037156    0.9124472312616153    0.3649037529672632     C584
    0.2486191646037156    0.9124472312616153    0.6982370863005964     C585
    0.5819524979370490    0.2457805645949488    0.0315704196339297     C586
    0.5819524979370490    0.2457805645949488    0.3649037529672632     C587
    0.5819524979370490    0.2457805645949488    0.6982370863005964     C588
    0.5819524979370490    0.5791138979282821    0.0315704196339297     C589
    0.5819524979370490    0.5791138979282821    0.3649037529672632     C590
    0.5819524979370490    0.5791138979282821    0.6982370863005964     C591
    0.5819524979370490    0.9124472312616153    0.0315704196339297     C592
    0.5819524979370490    0.9124472312616153    0.3649037529672632     C593
    0.5819524979370490    0.9124472312616153    0.6982370863005964     C594
    0.9592520880731816    0.0894850245393992    0.2885482127380894     C595
    0.9592520880731816    0.0894850245393992    0.6218815460714228     C596
    0.9592520880731816    0.0894850245393992    0.9552148794047561     C597
    0.9592520880731816    0.4228183578727326    0.2885482127380894     C598
    0.9592520880731816    0.4228183578727326    0.6218815460714228     C599
    0.9592520880731816    0.4228183578727326    0.9552148794047561     C600
    0.9592520880731816    0.7561516912060660    0.2885482127380894     C601
    0.9592520880731816    0.7561516912060660    0.6218815460714228     C602
    0.9592520880731816    0.7561516912060660    0.9552148794047561     C603
    0.2925854214065149    0.0894850245393992    0.2885482127380894     C604
    0.2925854214065149    0.0894850245393992    0.6218815460714228     C605
    0.2925854214065149    0.0894850245393992    0.9552148794047561     C606
    0.2925854214065149    0.4228183578727326    0.2885482127380894     C607
    0.2925854214065149    0.4228183578727326    0.6218815460714228     C608
    0.2925854214065149    0.4228183578727326    0.9552148794047561     C609
    0.2925854214065149    0.7561516912060660    0.2885482127380894     C610
    0.2925854214065149    0.7561516912060660    0.6218815460714228     C611
    0.2925854214065149    0.7561516912060660    0.9552148794047561     C612
    0.6259187547398483    0.0894850245393992    0.2885482127380894     C613
    0.6259187547398483    0.0894850245393992    0.6218815460714228     C614
    0.6259187547398483    0.0894850245393992    0.9552148794047561     C615
    0.6259187547398483    0.4228183578727326    0.2885482127380894     C616
    0.6259187547398483    0.4228183578727326    0.6218815460714228     C617
    0.6259187547398483    0.4228183578727326    0.9552148794047561     C618
    0.6259187547398483    0.7561516912060660    0.2885482127380894     C619
    0.6259187547398483    0.7561516912060660    0.6218815460714228     C620
    0.6259187547398483    0.7561516912060660    0.9552148794047561     C621
    0.9330383123500621    0.0830665890394776    0.4661081124990464     C622
    0.9330383123500621    0.0830665890394776    0.7994414458323797     C623
    0.9330383123500621    0.0830665890394776    0.1327747791657130     C624
    0.9330383123500621    0.4163999223728110    0.4661081124990464     C625
    0.9330383123500621    0.4163999223728110    0.7994414458323797     C626
    0.9330383123500621    0.4163999223728110    0.1327747791657130     C627
    0.9330383123500621    0.7497332557061444    0.4661081124990464     C628
    0.9330383123500621    0.7497332557061444    0.7994414458323797     C629
    0.9330383123500621    0.7497332557061444    0.1327747791657130     C630
    0.2663716456833954    0.0830665890394776    0.4661081124990464     C631
    0.2663716456833954    0.0830665890394776    0.7994414458323797     C632
    0.2663716456833954    0.0830665890394776    0.1327747791657130     C633
    0.2663716456833954    0.4163999223728110    0.4661081124990464     C634
    0.2663716456833954    0.4163999223728110    0.7994414458323797     C635
    0.2663716456833954    0.4163999223728110    0.1327747791657130     C636
    0.2663716456833954    0.7497332557061444    0.4661081124990464     C637
    0.2663716456833954    0.7497332557061444    0.7994414458323797     C638
    0.2663716456833954    0.7497332557061444    0.1327747791657130     C639
    0.5997049790167288    0.0830665890394776    0.4661081124990464     C640
    0.5997049790167288    0.0830665890394776    0.7994414458323797     C641
    0.5997049790167288    0.0830665890394776    0.1327747791657130     C642
    0.5997049790167288    0.4163999223728110    0.4661081124990464     C643
    0.5997049790167288    0.4163999223728110    0.7994414458323797     C644
    0.5997049790167288    0.4163999223728110    0.1327747791657130     C645
    0.5997049790167288    0.7497332557061444    0.4661081124990464     C646
    0.5997049790167288    0.7497332557061444    0.7994414458323797     C647
    0.5997049790167288    0.7497332557061444    0.1327747791657130     C648
    0.9884583357302501    0.1229779391861181    0.2911578019517885     C649
    0.9884583357302501    0.1229779391861181    0.6244911352851219     C650
    0.9884583357302501    0.1229779391861181    0.9578244686184552     C651
    0.9884583357302501    0.4563112725194514    0.2911578019517885     C652
    0.9884583357302501    0.4563112725194514    0.6244911352851219     C653
    0.9884583357302501    0.4563112725194514    0.9578244686184552     C654
    0.9884583357302501    0.7896446058527847    0.2911578019517885     C655
    0.9884583357302501    0.7896446058527847    0.6244911352851219     C656
    0.9884583357302501    0.7896446058527847    0.9578244686184552     C657
    0.3217916690635834    0.1229779391861181    0.2911578019517885     C658
    0.3217916690635834    0.1229779391861181    0.6244911352851219     C659
    0.3217916690635834    0.1229779391861181    0.9578244686184552     C660
    0.3217916690635834    0.4563112725194514    0.2911578019517885     C661
    0.3217916690635834    0.4563112725194514    0.6244911352851219     C662
    0.3217916690635834    0.4563112725194514    0.9578244686184552     C663
    0.3217916690635834    0.7896446058527847    0.2911578019517885     C664
    0.3217916690635834    0.7896446058527847    0.6244911352851219     C665
    0.3217916690635834    0.7896446058527847    0.9578244686184552     C666
    0.6551250023969168    0.1229779391861181    0.2911578019517885     C667
    0.6551250023969168    0.1229779391861181    0.6244911352851219     C668
    0.6551250023969168    0.1229779391861181    0.9578244686184552     C669
    0.6551250023969168    0.4563112725194514    0.2911578019517885     C670
    0.6551250023969168    0.4563112725194514    0.6244911352851219     C671
    0.6551250023969168    0.4563112725194514    0.9578244686184552     C672
    0.6551250023969168    0.7896446058527847    0.2911578019517885     C673
    0.6551250023969168    0.7896446058527847    0.6244911352851219     C674
    0.6551250023969168    0.7896446058527847    0.9578244686184552     C675
    0.0890336711285178    0.2715250720940177    0.4046744523597519     C676
    0.0890336711285178    0.2715250720940177    0.7380077856930851     C677
    0.0890336711285178    0.2715250720940177    0.0713411190264184     C678
    0.0890336711285178    0.6048584054273509    0.4046744523597519     C679
    0.0890336711285178    0.6048584054273509    0.7380077856930851     C680
    0.0890336711285178    0.6048584054273509    0.0713411190264184     C681
    0.0890336711285178    0.9381917387606843    0.4046744523597519     C682
    0.0890336711285178    0.9381917387606843    0.7380077856930851     C683
    0.0890336711285178    0.9381917387606843    0.0713411190264184     C684
    0.4223670044618513    0.2715250720940177    0.4046744523597519     C685
    0.4223670044618513    0.2715250720940177    0.7380077856930851     C686
    0.4223670044618513    0.2715250720940177    0.0713411190264184     C687
    0.4223670044618513    0.6048584054273509    0.4046744523597519     C688
    0.4223670044618513    0.6048584054273509    0.7380077856930851     C689
    0.4223670044618513    0.6048584054273509    0.0713411190264184     C690
    0.4223670044618513    0.9381917387606843    0.4046744523597519     C691
    0.4223670044618513    0.9381917387606843    0.7380077856930851     C692
    0.4223670044618513    0.9381917387606843    0.0713411190264184     C693
    0.7557003377951845    0.2715250720940177    0.4046744523597519     C694
    0.7557003377951845    0.2715250720940177    0.7380077856930851     C695
    0.7557003377951845    0.2715250720940177    0.0713411190264184     C696
    0.7557003377951845    0.6048584054273509    0.4046744523597519     C697
    0.7557003377951845    0.6048584054273509    0.7380077856930851     C698
    0.7557003377951845    0.6048584054273509    0.0713411190264184     C699
    0.7557003377951845    0.9381917387606843    0.4046744523597519     C700
    0.7557003377951845    0.9381917387606843    0.7380077856930851     C701
    0.7557003377951845    0.9381917387606843    0.0713411190264184     C702
    0.1413271144639383    0.9827377503591550    0.1772538169034155     C703
    0.1413271144639383    0.9827377503591550    0.5105871502367488     C704
    0.1413271144639383    0.9827377503591550    0.8439204835700822     C705
    0.1413271144639383    0.3160710836924883    0.1772538169034155     C706
    0.1413271144639383    0.3160710836924883    0.5105871502367488     C707
    0.1413271144639383    0.3160710836924883    0.8439204835700822     C708
    0.1413271144639383    0.6494044170258215    0.1772538169034155     C709
    0.1413271144639383    0.6494044170258215    0.5105871502367488     C710
    0.1413271144639383    0.6494044170258215    0.8439204835700822     C711
    0.4746604477972717    0.9827377503591550    0.1772538169034155     C712
    0.4746604477972717    0.9827377503591550    0.5105871502367488     C713
    0.4746604477972717    0.9827377503591550    0.8439204835700822     C714
    0.4746604477972717    0.3160710836924883    0.1772538169034155     C715
    0.4746604477972717    0.3160710836924883    0.5105871502367488     C716
    0.4746604477972717    0.3160710836924883    0.8439204835700822     C717
    0.4746604477972717    0.6494044170258215    0.1772538169034155     C718
    0.4746604477972717    0.6494044170258215    0.5105871502367488     C719
    0.4746604477972717    0.6494044170258215    0.8439204835700822     C720
    0.8079937811306050    0.9827377503591550    0.1772538169034155     C721
    0.8079937811306050    0.9827377503591550    0.5105871502367488     C722
    0.8079937811306050    0.9827377503591550    0.8439204835700822     C723
    0.8079937811306050    0.3160710836924883    0.1772538169034155     C724
    0.8079937811306050    0.3160710836924883    0.5105871502367488     C725
    0.8079937811306050    0.3160710836924883    0.8439204835700822     C726
    0.8079937811306050    0.6494044170258215    0.1772538169034155     C727
    0.8079937811306050    0.6494044170258215    0.5105871502367488     C728
    0.8079937811306050    0.6494044170258215    0.8439204835700822     C729
    0.0371890488257968    0.2680412406263428    0.2777731021729822     C730
    0.0371890488257968    0.2680412406263428    0.6111064355063156     C731
    0.0371890488257968    0.2680412406263428    0.9444397688396490     C732
    0.0371890488257968    0.6013745739596761    0.2777731021729822     C733
    0.0371890488257968    0.6013745739596761    0.6111064355063156     C734
    0.0371890488257968    0.6013745739596761    0.9444397688396490     C735
    0.0371890488257968    0.9347079072930095    0.2777731021729822     C736
    0.0371890488257968    0.9347079072930095    0.6111064355063156     C737
    0.0371890488257968    0.9347079072930095    0.9444397688396490     C738
    0.3705223821591300    0.2680412406263428    0.2777731021729822     C739
    0.3705223821591300    0.2680412406263428    0.6111064355063156     C740
    0.3705223821591300    0.2680412406263428    0.9444397688396490     C741
    0.3705223821591300    0.6013745739596761    0.2777731021729822     C742
    0.3705223821591300    0.6013745739596761    0.6111064355063156     C743
    0.3705223821591300    0.6013745739596761    0.9444397688396490     C744
    0.3705223821591300    0.9347079072930095    0.2777731021729822     C745
    0.3705223821591300    0.9347079072930095    0.6111064355063156     C746
    0.3705223821591300    0.9347079072930095    0.9444397688396490     C747
    0.7038557154924634    0.2680412406263428    0.2777731021729822     C748
    0.7038557154924634    0.2680412406263428    0.6111064355063156     C749
    0.7038557154924634    0.2680412406263428    0.9444397688396490     C750
    0.7038557154924634    0.6013745739596761    0.2777731021729822     C751
    0.7038557154924634    0.6013745739596761    0.6111064355063156     C752
    0.7038557154924634    0.6013745739596761    0.9444397688396490     C753
    0.7038557154924634    0.9347079072930095    0.2777731021729822     C754
    0.7038557154924634    0.9347079072930095    0.6111064355063156     C755
    0.7038557154924634    0.9347079072930095    0.9444397688396490     C756
    0.9953619761041057    0.1641387118016366    0.3334723993744863     C757
    0.9953619761041057    0.1641387118016366    0.6668057327078196     C758
    0.9953619761041057    0.1641387118016366    0.0001390660411529     C759
    0.9953619761041057    0.4974720451349700    0.3334723993744863     C760
    0.9953619761041057    0.4974720451349700    0.6668057327078196     C761
    0.9953619761041057    0.4974720451349700    0.0001390660411529     C762
    0.9953619761041057    0.8308053784683034    0.3334723993744863     C763
    0.9953619761041057    0.8308053784683034    0.6668057327078196     C764
    0.9953619761041057    0.8308053784683034    0.0001390660411529     C765
    0.3286953094374390    0.1641387118016366    0.3334723993744863     C766
    0.3286953094374390    0.1641387118016366    0.6668057327078196     C767
    0.3286953094374390    0.1641387118016366    0.0001390660411529     C768
    0.3286953094374390    0.4974720451349700    0.3334723993744863     C769
    0.3286953094374390    0.4974720451349700    0.6668057327078196     C770
    0.3286953094374390    0.4974720451349700    0.0001390660411529     C771
    0.3286953094374390    0.8308053784683034    0.3334723993744863     C772
    0.3286953094374390    0.8308053784683034    0.6668057327078196     C773
    0.3286953094374390    0.8308053784683034    0.0001390660411529     C774
    0.6620286427707723    0.1641387118016366    0.3334723993744863     C775
    0.6620286427707723    0.1641387118016366    0.6668057327078196     C776
    0.6620286427707723    0.1641387118016366    0.0001390660411529     C777
    0.6620286427707723    0.4974720451349700    0.3334723993744863     C778
    0.6620286427707723    0.4974720451349700    0.6668057327078196     C779
    0.6620286427707723    0.4974720451349700    0.0001390660411529     C780
    0.6620286427707723    0.8308053784683034    0.3334723993744863     C781
    0.6620286427707723    0.8308053784683034    0.6668057327078196     C782
    0.6620286427707723    0.8308053784683034    0.0001390660411529     C783
    0.1043772512767455    0.2470142835326661    0.4268106034161608     C784
    0.1043772512767455    0.2470142835326661    0.7601439367494942     C785
    0.1043772512767455    0.2470142835326661    0.0934772700828275     C786
    0.1043772512767455    0.5803476168659993    0.4268106034161608     C787
    0.1043772512767455    0.5803476168659993    0.7601439367494942     C788
    0.1043772512767455    0.5803476168659993    0.0934772700828275     C789
    0.1043772512767455    0.9136809501993326    0.4268106034161608     C790
    0.1043772512767455    0.9136809501993326    0.7601439367494942     C791
    0.1043772512767455    0.9136809501993326    0.0934772700828275     C792
    0.4377105846100788    0.2470142835326661    0.4268106034161608     C793
    0.4377105846100788    0.2470142835326661    0.7601439367494942     C794
    0.4377105846100788    0.2470142835326661    0.0934772700828275     C795
    0.4377105846100788    0.5803476168659993    0.4268106034161608     C796
    0.4377105846100788    0.5803476168659993    0.7601439367494942     C797
    0.4377105846100788    0.5803476168659993    0.0934772700828275     C798
    0.4377105846100788    0.9136809501993326    0.4268106034161608     C799
    0.4377105846100788    0.9136809501993326    0.7601439367494942     C800
    0.4377105846100788    0.9136809501993326    0.0934772700828275     C801
    0.7710439179434121    0.2470142835326661    0.4268106034161608     C802
    0.7710439179434121    0.2470142835326661    0.7601439367494942     C803
    0.7710439179434121    0.2470142835326661    0.0934772700828275     C804
    0.7710439179434121    0.5803476168659993    0.4268106034161608     C805
    0.7710439179434121    0.5803476168659993    0.7601439367494942     C806
    0.7710439179434121    0.5803476168659993    0.0934772700828275     C807
    0.7710439179434121    0.9136809501993326    0.4268106034161608     C808
    0.7710439179434121    0.9136809501993326    0.7601439367494942     C809
    0.7710439179434121    0.9136809501993326    0.0934772700828275     C810
    0.1218993135173141    0.7756302707783449    0.3517965464701923     C811
    0.1218993135173141    0.7756302707783449    0.6851298798035257     C812
    0.1218993135173141    0.7756302707783449    0.0184632131368589     C813
    0.1218993135173141    0.1089636041116782    0.3517965464701923     C814
    0.1218993135173141    0.1089636041116782    0.6851298798035257     C815
    0.1218993135173141    0.1089636041116782    0.0184632131368589     C816
    0.1218993135173141    0.4422969374450115    0.3517965464701923     C817
    0.1218993135173141    0.4422969374450115    0.6851298798035257     C818
    0.1218993135173141    0.4422969374450115    0.0184632131368589     C819
    0.4552326468506473    0.7756302707783449    0.3517965464701923     C820
    0.4552326468506473    0.7756302707783449    0.6851298798035257     C821
    0.4552326468506473    0.7756302707783449    0.0184632131368589     C822
    0.4552326468506473    0.1089636041116782    0.3517965464701923     C823
    0.4552326468506473    0.1089636041116782    0.6851298798035257     C824
    0.4552326468506473    0.1089636041116782    0.0184632131368589     C825
    0.4552326468506473    0.4422969374450115    0.3517965464701923     C826
    0.4552326468506473    0.4422969374450115    0.6851298798035257     C827
    0.4552326468506473    0.4422969374450115    0.0184632131368589     C828
    0.7885659801839807    0.7756302707783449    0.3517965464701923     C829
    0.7885659801839807    0.7756302707783449    0.6851298798035257     C830
    0.7885659801839807    0.7756302707783449    0.0184632131368589     C831
    0.7885659801839807    0.1089636041116782    0.3517965464701923     C832
    0.7885659801839807    0.1089636041116782    0.6851298798035257     C833
    0.7885659801839807    0.1089636041116782    0.0184632131368589     C834
    0.7885659801839807    0.4422969374450115    0.3517965464701923     C835
    0.7885659801839807    0.4422969374450115    0.6851298798035257     C836
    0.7885659801839807    0.4422969374450115    0.0184632131368589     C837
    0.8793085285027518    0.0403017748709961    0.3197206951328549     C838
    0.8793085285027518    0.0403017748709961    0.6530540284661883     C839
    0.8793085285027518    0.0403017748709961    0.9863873617995216     C840
    0.8793085285027518    0.3736351082043293    0.3197206951328549     C841
    0.8793085285027518    0.3736351082043293    0.6530540284661883     C842
    0.8793085285027518    0.3736351082043293    0.9863873617995216     C843
    0.8793085285027518    0.7069684415376627    0.3197206951328549     C844
    0.8793085285027518    0.7069684415376627    0.6530540284661883     C845
    0.8793085285027518    0.7069684415376627    0.9863873617995216     C846
    0.2126418618360851    0.0403017748709961    0.3197206951328549     C847
    0.2126418618360851    0.0403017748709961    0.6530540284661883     C848
    0.2126418618360851    0.0403017748709961    0.9863873617995216     C849
    0.2126418618360851    0.3736351082043293    0.3197206951328549     C850
    0.2126418618360851    0.3736351082043293    0.6530540284661883     C851
    0.2126418618360851    0.3736351082043293    0.9863873617995216     C852
    0.2126418618360851    0.7069684415376627    0.3197206951328549     C853
    0.2126418618360851    0.7069684415376627    0.6530540284661883     C854
    0.2126418618360851    0.7069684415376627    0.9863873617995216     C855
    0.5459751951694184    0.0403017748709961    0.3197206951328549     C856
    0.5459751951694184    0.0403017748709961    0.6530540284661883     C857
    0.5459751951694184    0.0403017748709961    0.9863873617995216     C858
    0.5459751951694184    0.3736351082043293    0.3197206951328549     C859
    0.5459751951694184    0.3736351082043293    0.6530540284661883     C860
    0.5459751951694184    0.3736351082043293    0.9863873617995216     C861
    0.5459751951694184    0.7069684415376627    0.3197206951328549     C862
    0.5459751951694184    0.7069684415376627    0.6530540284661883     C863
    0.5459751951694184    0.7069684415376627    0.9863873617995216     C864
    0.9630239369747540    0.0469492814631817    0.2855677964998081     C865
    0.9630239369747540    0.0469492814631817    0.6189011298331415     C866
    0.9630239369747540    0.0469492814631817    0.9522344631664748     C867
    0.9630239369747540    0.3802826147965150    0.2855677964998081     C868
    0.9630239369747540    0.3802826147965150    0.6189011298331415     C869
    0.9630239369747540    0.3802826147965150    0.9522344631664748     C870
    0.9630239369747540    0.7136159481298483    0.2855677964998081     C871
    0.9630239369747540    0.7136159481298483    0.6189011298331415     C872
    0.9630239369747540    0.7136159481298483    0.9522344631664748     C873
    0.2963572703080873    0.0469492814631817    0.2855677964998081     C874
    0.2963572703080873    0.0469492814631817    0.6189011298331415     C875
    0.2963572703080873    0.0469492814631817    0.9522344631664748     C876
    0.2963572703080873    0.3802826147965150    0.2855677964998081     C877
    0.2963572703080873    0.3802826147965150    0.6189011298331415     C878
    0.2963572703080873    0.3802826147965150    0.9522344631664748     C879
    0.2963572703080873    0.7136159481298483    0.2855677964998081     C880
    0.2963572703080873    0.7136159481298483    0.6189011298331415     C881
    0.2963572703080873    0.7136159481298483    0.9522344631664748     C882
    0.6296906036414207    0.0469492814631817    0.2855677964998081     C883
    0.6296906036414207    0.0469492814631817    0.6189011298331415     C884
    0.6296906036414207    0.0469492814631817    0.9522344631664748     C885
    0.6296906036414207    0.3802826147965150    0.2855677964998081     C886
    0.6296906036414207    0.3802826147965150    0.6189011298331415     C887
    0.6296906036414207    0.3802826147965150    0.9522344631664748     C888
    0.6296906036414207    0.7136159481298483    0.2855677964998081     C889
    0.6296906036414207    0.7136159481298483    0.6189011298331415     C890
    0.6296906036414207    0.7136159481298483    0.9522344631664748     C891
    0.0085289260601635    0.2752463402224480    0.2745598505795063     C892
    0.0085289260601635    0.2752463402224480    0.6078931839128396     C893
    0.0085289260601635    0.2752463402224480    0.9412265172461729     C894
    0.0085289260601635    0.6085796735557812    0.2745598505795063     C895
    0.0085289260601635    0.6085796735557812    0.6078931839128396     C896
    0.0085289260601635    0.6085796735557812    0.9412265172461729     C897
    0.0085289260601635    0.9419130068891145    0.2745598505795063     C898
    0.0085289260601635    0.9419130068891145    0.6078931839128396     C899
    0.0085289260601635    0.9419130068891145    0.9412265172461729     C900
    0.3418622593934969    0.2752463402224480    0.2745598505795063     C901
    0.3418622593934969    0.2752463402224480    0.6078931839128396     C902
    0.3418622593934969    0.2752463402224480    0.9412265172461729     C903
    0.3418622593934969    0.6085796735557812    0.2745598505795063     C904
    0.3418622593934969    0.6085796735557812    0.6078931839128396     C905
    0.3418622593934969    0.6085796735557812    0.9412265172461729     C906
    0.3418622593934969    0.9419130068891145    0.2745598505795063     C907
    0.3418622593934969    0.9419130068891145    0.6078931839128396     C908
    0.3418622593934969    0.9419130068891145    0.9412265172461729     C909
    0.6751955927268303    0.2752463402224480    0.2745598505795063     C910
    0.6751955927268303    0.2752463402224480    0.6078931839128396     C911
    0.6751955927268303    0.2752463402224480    0.9412265172461729     C912
    0.6751955927268303    0.6085796735557812    0.2745598505795063     C913
    0.6751955927268303    0.6085796735557812    0.6078931839128396     C914
    0.6751955927268303    0.6085796735557812    0.9412265172461729     C915
    0.6751955927268303    0.9419130068891145    0.2745598505795063     C916
    0.6751955927268303    0.9419130068891145    0.6078931839128396     C917
    0.6751955927268303    0.9419130068891145    0.9412265172461729     C918
    0.1456614532065947    0.0173514527171615    0.2284426494523281     C919
    0.1456614532065947    0.0173514527171615    0.5617759827856614     C920
    0.1456614532065947    0.0173514527171615    0.8951093161189947     C921
    0.1456614532065947    0.3506847860504949    0.2284426494523281     C922
    0.1456614532065947    0.3506847860504949    0.5617759827856614     C923
    0.1456614532065947    0.3506847860504949    0.8951093161189947     C924
    0.1456614532065947    0.6840181193838282    0.2284426494523281     C925
    0.1456614532065947    0.6840181193838282    0.5617759827856614     C926
    0.1456614532065947    0.6840181193838282    0.8951093161189947     C927
    0.4789947865399280    0.0173514527171615    0.2284426494523281     C928
    0.4789947865399280    0.0173514527171615    0.5617759827856614     C929
    0.4789947865399280    0.0173514527171615    0.8951093161189947     C930
    0.4789947865399280    0.3506847860504949    0.2284426494523281     C931
    0.4789947865399280    0.3506847860504949    0.5617759827856614     C932
    0.4789947865399280    0.3506847860504949    0.8951093161189947     C933
    0.4789947865399280    0.6840181193838282    0.2284426494523281     C934
    0.4789947865399280    0.6840181193838282    0.5617759827856614     C935
    0.4789947865399280    0.6840181193838282    0.8951093161189947     C936
    0.8123281198732614    0.0173514527171615    0.2284426494523281     C937
    0.8123281198732614    0.0173514527171615    0.5617759827856614     C938
    0.8123281198732614    0.0173514527171615    0.8951093161189947     C939
    0.8123281198732614    0.3506847860504949    0.2284426494523281     C940
    0.8123281198732614    0.3506847860504949    0.5617759827856614     C941
    0.8123281198732614    0.3506847860504949    0.8951093161189947     C942
    0.8123281198732614    0.6840181193838282    0.2284426494523281     C943
    0.8123281198732614    0.6840181193838282    0.5617759827856614     C944
    0.8123281198732614    0.6840181193838282    0.8951093161189947     C945
    0.8983511163626248    0.0517367168479084    0.1492489190140975     C946
    0.8983511163626248    0.0517367168479084    0.4825822523474308     C947
    0.8983511163626248    0.0517367168479084    0.8159155856807642     C948
    0.8983511163626248    0.3850700501812416    0.1492489190140975     C949
    0.8983511163626248    0.3850700501812416    0.4825822523474308     C950
    0.8983511163626248    0.3850700501812416    0.8159155856807642     C951
    0.8983511163626248    0.7184033835145750    0.1492489190140975     C952
    0.8983511163626248    0.7184033835145750    0.4825822523474308     C953
    0.8983511163626248    0.7184033835145750    0.8159155856807642     C954
    0.2316844496959580    0.0517367168479084    0.1492489190140975     C955
    0.2316844496959580    0.0517367168479084    0.4825822523474308     C956
    0.2316844496959580    0.0517367168479084    0.8159155856807642     C957
    0.2316844496959580    0.3850700501812416    0.1492489190140975     C958
    0.2316844496959580    0.3850700501812416    0.4825822523474308     C959
    0.2316844496959580    0.3850700501812416    0.8159155856807642     C960
    0.2316844496959580    0.7184033835145750    0.1492489190140975     C961
    0.2316844496959580    0.7184033835145750    0.4825822523474308     C962
    0.2316844496959580    0.7184033835145750    0.8159155856807642     C963
    0.5650177830292913    0.0517367168479084    0.1492489190140975     C964
    0.5650177830292913    0.0517367168479084    0.4825822523474308     C965
    0.5650177830292913    0.0517367168479084    0.8159155856807642     C966
    0.5650177830292913    0.3850700501812416    0.1492489190140975     C967
    0.5650177830292913    0.3850700501812416    0.4825822523474308     C968
    0.5650177830292913    0.3850700501812416    0.8159155856807642     C969
    0.5650177830292913    0.7184033835145750    0.1492489190140975     C970
    0.5650177830292913    0.7184033835145750    0.4825822523474308     C971
    0.5650177830292913    0.7184033835145750    0.8159155856807642     C972
    0.8802856249788815    0.2592619650795718    0.9963727175045753     C973
    0.8802856249788815    0.2592619650795718    0.3297060508379086     C974
    0.8802856249788815    0.2592619650795718    0.6630393841712419     C975
    0.8802856249788815    0.5925952984129051    0.9963727175045753     C976
    0.8802856249788815    0.5925952984129051    0.3297060508379086     C977
    0.8802856249788815    0.5925952984129051    0.6630393841712419     C978
    0.8802856249788815    0.9259286317462385    0.9963727175045753     C979
    0.8802856249788815    0.9259286317462385    0.3297060508379086     C980
    0.8802856249788815    0.9259286317462385    0.6630393841712419     C981
    0.2136189583122148    0.2592619650795718    0.9963727175045753     C982
    0.2136189583122148    0.2592619650795718    0.3297060508379086     C983
    0.2136189583122148    0.2592619650795718    0.6630393841712419     C984
    0.2136189583122148    0.5925952984129051    0.9963727175045753     C985
    0.2136189583122148    0.5925952984129051    0.3297060508379086     C986
    0.2136189583122148    0.5925952984129051    0.6630393841712419     C987
    0.2136189583122148    0.9259286317462385    0.9963727175045753     C988
    0.2136189583122148    0.9259286317462385    0.3297060508379086     C989
    0.2136189583122148    0.9259286317462385    0.6630393841712419     C990
    0.5469522916455481    0.2592619650795718    0.9963727175045753     C991
    0.5469522916455481    0.2592619650795718    0.3297060508379086     C992
    0.5469522916455481    0.2592619650795718    0.6630393841712419     C993
    0.5469522916455481    0.5925952984129051    0.9963727175045753     C994
    0.5469522916455481    0.5925952984129051    0.3297060508379086     C995
    0.5469522916455481    0.5925952984129051    0.6630393841712419     C996
    0.5469522916455481    0.9259286317462385    0.9963727175045753     C997
    0.5469522916455481    0.9259286317462385    0.3297060508379086     C998
    0.5469522916455481    0.9259286317462385    0.6630393841712419     C999
    0.1372875725010578    0.0189346602051031    0.1484536325005164    C1000
    0.1372875725010578    0.0189346602051031    0.4817869658338497    C1001
    0.1372875725010578    0.0189346602051031    0.8151202991671831    C1002
    0.1372875725010578    0.3522679935384365    0.1484536325005164    C1003
    0.1372875725010578    0.3522679935384365    0.4817869658338497    C1004
    0.1372875725010578    0.3522679935384365    0.8151202991671831    C1005
    0.1372875725010578    0.6856013268717699    0.1484536325005164    C1006
    0.1372875725010578    0.6856013268717699    0.4817869658338497    C1007
    0.1372875725010578    0.6856013268717699    0.8151202991671831    C1008
    0.4706209058343913    0.0189346602051031    0.1484536325005164    C1009
    0.4706209058343913    0.0189346602051031    0.4817869658338497    C1010
    0.4706209058343913    0.0189346602051031    0.8151202991671831    C1011
    0.4706209058343913    0.3522679935384365    0.1484536325005164    C1012
    0.4706209058343913    0.3522679935384365    0.4817869658338497    C1013
    0.4706209058343913    0.3522679935384365    0.8151202991671831    C1014
    0.4706209058343913    0.6856013268717699    0.1484536325005164    C1015
    0.4706209058343913    0.6856013268717699    0.4817869658338497    C1016
    0.4706209058343913    0.6856013268717699    0.8151202991671831    C1017
    0.8039542391677246    0.0189346602051031    0.1484536325005164    C1018
    0.8039542391677246    0.0189346602051031    0.4817869658338497    C1019
    0.8039542391677246    0.0189346602051031    0.8151202991671831    C1020
    0.8039542391677246    0.3522679935384365    0.1484536325005164    C1021
    0.8039542391677246    0.3522679935384365    0.4817869658338497    C1022
    0.8039542391677246    0.3522679935384365    0.8151202991671831    C1023
    0.8039542391677246    0.6856013268717699    0.1484536325005164    C1024
    0.8039542391677246    0.6856013268717699    0.4817869658338497    C1025
    0.8039542391677246    0.6856013268717699    0.8151202991671831    C1026
    0.0456227084227070    0.0429978038673771    0.1954849388548632    C1027
    0.0456227084227070    0.0429978038673771    0.5288182721881965    C1028
    0.0456227084227070    0.0429978038673771    0.8621516055215299    C1029
    0.0456227084227070    0.3763311372007103    0.1954849388548632    C1030
    0.0456227084227070    0.3763311372007103    0.5288182721881965    C1031
    0.0456227084227070    0.3763311372007103    0.8621516055215299    C1032
    0.0456227084227070    0.7096644705340436    0.1954849388548632    C1033
    0.0456227084227070    0.7096644705340436    0.5288182721881965    C1034
    0.0456227084227070    0.7096644705340436    0.8621516055215299    C1035
    0.3789560417560404    0.0429978038673771    0.1954849388548632    C1036
    0.3789560417560404    0.0429978038673771    0.5288182721881965    C1037
    0.3789560417560404    0.0429978038673771    0.8621516055215299    C1038
    0.3789560417560404    0.3763311372007103    0.1954849388548632    C1039
    0.3789560417560404    0.3763311372007103    0.5288182721881965    C1040
    0.3789560417560404    0.3763311372007103    0.8621516055215299    C1041
    0.3789560417560404    0.7096644705340436    0.1954849388548632    C1042
    0.3789560417560404    0.7096644705340436    0.5288182721881965    C1043
    0.3789560417560404    0.7096644705340436    0.8621516055215299    C1044
    0.7122893750893736    0.0429978038673771    0.1954849388548632    C1045
    0.7122893750893736    0.0429978038673771    0.5288182721881965    C1046
    0.7122893750893736    0.0429978038673771    0.8621516055215299    C1047
    0.7122893750893736    0.3763311372007103    0.1954849388548632    C1048
    0.7122893750893736    0.3763311372007103    0.5288182721881965    C1049
    0.7122893750893736    0.3763311372007103    0.8621516055215299    C1050
    0.7122893750893736    0.7096644705340436    0.1954849388548632    C1051
    0.7122893750893736    0.7096644705340436    0.5288182721881965    C1052
    0.7122893750893736    0.7096644705340436    0.8621516055215299    C1053
    0.0792022140823054    0.0813407207176207    0.1695271530528875    C1054
    0.0792022140823054    0.0813407207176207    0.5028604863862207    C1055
    0.0792022140823054    0.0813407207176207    0.8361938197195541    C1056
    0.0792022140823054    0.4146740540509540    0.1695271530528875    C1057
    0.0792022140823054    0.4146740540509540    0.5028604863862207    C1058
    0.0792022140823054    0.4146740540509540    0.8361938197195541    C1059
    0.0792022140823054    0.7480073873842874    0.1695271530528875    C1060
    0.0792022140823054    0.7480073873842874    0.5028604863862207    C1061
    0.0792022140823054    0.7480073873842874    0.8361938197195541    C1062
    0.4125355474156387    0.0813407207176207    0.1695271530528875    C1063
    0.4125355474156387    0.0813407207176207    0.5028604863862207    C1064
    0.4125355474156387    0.0813407207176207    0.8361938197195541    C1065
    0.4125355474156387    0.4146740540509540    0.1695271530528875    C1066
    0.4125355474156387    0.4146740540509540    0.5028604863862207    C1067
    0.4125355474156387    0.4146740540509540    0.8361938197195541    C1068
    0.4125355474156387    0.7480073873842874    0.1695271530528875    C1069
    0.4125355474156387    0.7480073873842874    0.5028604863862207    C1070
    0.4125355474156387    0.7480073873842874    0.8361938197195541    C1071
    0.7458688807489721    0.0813407207176207    0.1695271530528875    C1072
    0.7458688807489721    0.0813407207176207    0.5028604863862207    C1073
    0.7458688807489721    0.0813407207176207    0.8361938197195541    C1074
    0.7458688807489721    0.4146740540509540    0.1695271530528875    C1075
    0.7458688807489721    0.4146740540509540    0.5028604863862207    C1076
    0.7458688807489721    0.4146740540509540    0.8361938197195541    C1077
    0.7458688807489721    0.7480073873842874    0.1695271530528875    C1078
    0.7458688807489721    0.7480073873842874    0.5028604863862207    C1079
    0.7458688807489721    0.7480073873842874    0.8361938197195541    C1080
    0.8506299550488383    0.0111391496738573    0.3126287094279288    C1081
    0.8506299550488383    0.0111391496738573    0.6459620427612620    C1082
    0.8506299550488383    0.0111391496738573    0.9792953760945954    C1083
    0.8506299550488383    0.3444724830071907    0.3126287094279288    C1084
    0.8506299550488383    0.3444724830071907    0.6459620427612620    C1085
    0.8506299550488383    0.3444724830071907    0.9792953760945954    C1086
    0.8506299550488383    0.6778058163405241    0.3126287094279288    C1087
    0.8506299550488383    0.6778058163405241    0.6459620427612620    C1088
    0.8506299550488383    0.6778058163405241    0.9792953760945954    C1089
    0.1839632883821717    0.0111391496738573    0.3126287094279288    C1090
    0.1839632883821717    0.0111391496738573    0.6459620427612620    C1091
    0.1839632883821717    0.0111391496738573    0.9792953760945954    C1092
    0.1839632883821717    0.3444724830071907    0.3126287094279288    C1093
    0.1839632883821717    0.3444724830071907    0.6459620427612620    C1094
    0.1839632883821717    0.3444724830071907    0.9792953760945954    C1095
    0.1839632883821717    0.6778058163405241    0.3126287094279288    C1096
    0.1839632883821717    0.6778058163405241    0.6459620427612620    C1097
    0.1839632883821717    0.6778058163405241    0.9792953760945954    C1098
    0.5172966217155051    0.0111391496738573    0.3126287094279288    C1099
    0.5172966217155051    0.0111391496738573    0.6459620427612620    C1100
    0.5172966217155051    0.0111391496738573    0.9792953760945954    C1101
    0.5172966217155051    0.3444724830071907    0.3126287094279288    C1102
    0.5172966217155051    0.3444724830071907    0.6459620427612620    C1103
    0.5172966217155051    0.3444724830071907    0.9792953760945954    C1104
    0.5172966217155051    0.6778058163405241    0.3126287094279288    C1105
    0.5172966217155051    0.6778058163405241    0.6459620427612620    C1106
    0.5172966217155051    0.6778058163405241    0.9792953760945954    C1107
    0.9688020335139009    0.0191880597598830    0.3724454229723251    C1108
    0.9688020335139009    0.0191880597598830    0.7057787563056583    C1109
    0.9688020335139009    0.0191880597598830    0.0391120896389917    C1110
    0.9688020335139009    0.3525213930932163    0.3724454229723251    C1111
    0.9688020335139009    0.3525213930932163    0.7057787563056583    C1112
    0.9688020335139009    0.3525213930932163    0.0391120896389917    C1113
    0.9688020335139009    0.6858547264265497    0.3724454229723251    C1114
    0.9688020335139009    0.6858547264265497    0.7057787563056583    C1115
    0.9688020335139009    0.6858547264265497    0.0391120896389917    C1116
    0.3021353668472342    0.0191880597598830    0.3724454229723251    C1117
    0.3021353668472342    0.0191880597598830    0.7057787563056583    C1118
    0.3021353668472342    0.0191880597598830    0.0391120896389917    C1119
    0.3021353668472342    0.3525213930932163    0.3724454229723251    C1120
    0.3021353668472342    0.3525213930932163    0.7057787563056583    C1121
    0.3021353668472342    0.3525213930932163    0.0391120896389917    C1122
    0.3021353668472342    0.6858547264265497    0.3724454229723251    C1123
    0.3021353668472342    0.6858547264265497    0.7057787563056583    C1124
    0.3021353668472342    0.6858547264265497    0.0391120896389917    C1125
    0.6354687001805676    0.0191880597598830    0.3724454229723251    C1126
    0.6354687001805676    0.0191880597598830    0.7057787563056583    C1127
    0.6354687001805676    0.0191880597598830    0.0391120896389917    C1128
    0.6354687001805676    0.3525213930932163    0.3724454229723251    C1129
    0.6354687001805676    0.3525213930932163    0.7057787563056583    C1130
    0.6354687001805676    0.3525213930932163    0.0391120896389917    C1131
    0.6354687001805676    0.6858547264265497    0.3724454229723251    C1132
    0.6354687001805676    0.6858547264265497    0.7057787563056583    C1133
    0.6354687001805676    0.6858547264265497    0.0391120896389917    C1134
    0.0314680904902453    0.9139532309056988    0.3206200219305394    C1135
    0.0314680904902453    0.9139532309056988    0.6539533552638728    C1136
    0.0314680904902453    0.9139532309056988    0.9872866885972060    C1137
    0.0314680904902453    0.2472865642390322    0.3206200219305394    C1138
    0.0314680904902453    0.2472865642390322    0.6539533552638728    C1139
    0.0314680904902453    0.2472865642390322    0.9872866885972060    C1140
    0.0314680904902453    0.5806198975723655    0.3206200219305394    C1141
    0.0314680904902453    0.5806198975723655    0.6539533552638728    C1142
    0.0314680904902453    0.5806198975723655    0.9872866885972060    C1143
    0.3648014238235788    0.9139532309056988    0.3206200219305394    C1144
    0.3648014238235788    0.9139532309056988    0.6539533552638728    C1145
    0.3648014238235788    0.9139532309056988    0.9872866885972060    C1146
    0.3648014238235788    0.2472865642390322    0.3206200219305394    C1147
    0.3648014238235788    0.2472865642390322    0.6539533552638728    C1148
    0.3648014238235788    0.2472865642390322    0.9872866885972060    C1149
    0.3648014238235788    0.5806198975723655    0.3206200219305394    C1150
    0.3648014238235788    0.5806198975723655    0.6539533552638728    C1151
    0.3648014238235788    0.5806198975723655    0.9872866885972060    C1152
    0.6981347571569121    0.9139532309056988    0.3206200219305394    C1153
    0.6981347571569121    0.9139532309056988    0.6539533552638728    C1154
    0.6981347571569121    0.9139532309056988    0.9872866885972060    C1155
    0.6981347571569121    0.2472865642390322    0.3206200219305394    C1156
    0.6981347571569121    0.2472865642390322    0.6539533552638728    C1157
    0.6981347571569121    0.2472865642390322    0.9872866885972060    C1158
    0.6981347571569121    0.5806198975723655    0.3206200219305394    C1159
    0.6981347571569121    0.5806198975723655    0.6539533552638728    C1160
    0.6981347571569121    0.5806198975723655    0.9872866885972060    C1161
    0.0267792522381560    0.0479431279609372    0.3247115200802048    C1162
    0.0267792522381560    0.0479431279609372    0.6580448534135381    C1163
    0.0267792522381560    0.0479431279609372    0.9913781867468715    C1164
    0.0267792522381560    0.3812764612942706    0.3247115200802048    C1165
    0.0267792522381560    0.3812764612942706    0.6580448534135381    C1166
    0.0267792522381560    0.3812764612942706    0.9913781867468715    C1167
    0.0267792522381560    0.7146097946276040    0.3247115200802048    C1168
    0.0267792522381560    0.7146097946276040    0.6580448534135381    C1169
    0.0267792522381560    0.7146097946276040    0.9913781867468715    C1170
    0.3601125855714895    0.0479431279609372    0.3247115200802048    C1171
    0.3601125855714895    0.0479431279609372    0.6580448534135381    C1172
    0.3601125855714895    0.0479431279609372    0.9913781867468715    C1173
    0.3601125855714895    0.3812764612942706    0.3247115200802048    C1174
    0.3601125855714895    0.3812764612942706    0.6580448534135381    C1175
    0.3601125855714895    0.3812764612942706    0.9913781867468715    C1176
    0.3601125855714895    0.7146097946276040    0.3247115200802048    C1177
    0.3601125855714895    0.7146097946276040    0.6580448534135381    C1178
    0.3601125855714895    0.7146097946276040    0.9913781867468715    C1179
    0.6934459189048228    0.0479431279609372    0.3247115200802048    C1180
    0.6934459189048228    0.0479431279609372    0.6580448534135381    C1181
    0.6934459189048228    0.0479431279609372    0.9913781867468715    C1182
    0.6934459189048228    0.3812764612942706    0.3247115200802048    C1183
    0.6934459189048228    0.3812764612942706    0.6580448534135381    C1184
    0.6934459189048228    0.3812764612942706    0.9913781867468715    C1185
    0.6934459189048228    0.7146097946276040    0.3247115200802048    C1186
    0.6934459189048228    0.7146097946276040    0.6580448534135381    C1187
    0.6934459189048228    0.7146097946276040    0.9913781867468715    C1188
    0.8800889954562447    0.9579988892071918    0.1650859483177880    C1189
    0.8800889954562447    0.9579988892071918    0.4984192816511214    C1190
    0.8800889954562447    0.9579988892071918    0.8317526149844547    C1191
    0.8800889954562447    0.2913322225405250    0.1650859483177880    C1192
    0.8800889954562447    0.2913322225405250    0.4984192816511214    C1193
    0.8800889954562447    0.2913322225405250    0.8317526149844547    C1194
    0.8800889954562447    0.6246655558738583    0.1650859483177880    C1195
    0.8800889954562447    0.6246655558738583    0.4984192816511214    C1196
    0.8800889954562447    0.6246655558738583    0.8317526149844547    C1197
    0.2134223287895781    0.9579988892071918    0.1650859483177880    C1198
    0.2134223287895781    0.9579988892071918    0.4984192816511214    C1199
    0.2134223287895781    0.9579988892071918    0.8317526149844547    C1200
    0.2134223287895781    0.2913322225405250    0.1650859483177880    C1201
    0.2134223287895781    0.2913322225405250    0.4984192816511214    C1202
    0.2134223287895781    0.2913322225405250    0.8317526149844547    C1203
    0.2134223287895781    0.6246655558738583    0.1650859483177880    C1204
    0.2134223287895781    0.6246655558738583    0.4984192816511214    C1205
    0.2134223287895781    0.6246655558738583    0.8317526149844547    C1206
    0.5467556621229115    0.9579988892071918    0.1650859483177880    C1207
    0.5467556621229115    0.9579988892071918    0.4984192816511214    C1208
    0.5467556621229115    0.9579988892071918    0.8317526149844547    C1209
    0.5467556621229115    0.2913322225405250    0.1650859483177880    C1210
    0.5467556621229115    0.2913322225405250    0.4984192816511214    C1211
    0.5467556621229115    0.2913322225405250    0.8317526149844547    C1212
    0.5467556621229115    0.6246655558738583    0.1650859483177880    C1213
    0.5467556621229115    0.6246655558738583    0.4984192816511214    C1214
    0.5467556621229115    0.6246655558738583    0.8317526149844547    C1215
    0.8765571435367743    0.8392596462219526    0.1205007593044043    C1216
    0.8765571435367743    0.8392596462219526    0.4538340926377377    C1217
    0.8765571435367743    0.8392596462219526    0.7871674259710710    C1218
    0.8765571435367743    0.1725929795552860    0.1205007593044043    C1219
    0.8765571435367743    0.1725929795552860    0.4538340926377377    C1220
    0.8765571435367743    0.1725929795552860    0.7871674259710710    C1221
    0.8765571435367743    0.5059263128886193    0.1205007593044043    C1222
    0.8765571435367743    0.5059263128886193    0.4538340926377377    C1223
    0.8765571435367743    0.5059263128886193    0.7871674259710710    C1224
    0.2098904768701075    0.8392596462219526    0.1205007593044043    C1225
    0.2098904768701075    0.8392596462219526    0.4538340926377377    C1226
    0.2098904768701075    0.8392596462219526    0.7871674259710710    C1227
    0.2098904768701075    0.1725929795552860    0.1205007593044043    C1228
    0.2098904768701075    0.1725929795552860    0.4538340926377377    C1229
    0.2098904768701075    0.1725929795552860    0.7871674259710710    C1230
    0.2098904768701075    0.5059263128886193    0.1205007593044043    C1231
    0.2098904768701075    0.5059263128886193    0.4538340926377377    C1232
    0.2098904768701075    0.5059263128886193    0.7871674259710710    C1233
    0.5432238102034409    0.8392596462219526    0.1205007593044043    C1234
    0.5432238102034409    0.8392596462219526    0.4538340926377377    C1235
    0.5432238102034409    0.8392596462219526    0.7871674259710710    C1236
    0.5432238102034409    0.1725929795552860    0.1205007593044043    C1237
    0.5432238102034409    0.1725929795552860    0.4538340926377377    C1238
    0.5432238102034409    0.1725929795552860    0.7871674259710710    C1239
    0.5432238102034409    0.5059263128886193    0.1205007593044043    C1240
    0.5432238102034409    0.5059263128886193    0.4538340926377377    C1241
    0.5432238102034409    0.5059263128886193    0.7871674259710710    C1242
    0.8689450714589917    0.8590736650899020    0.1503426523583271    C1243
    0.8689450714589917    0.8590736650899020    0.4836759856916605    C1244
    0.8689450714589917    0.8590736650899020    0.8170093190249939    C1245
    0.8689450714589917    0.1924069984232353    0.1503426523583271    C1246
    0.8689450714589917    0.1924069984232353    0.4836759856916605    C1247
    0.8689450714589917    0.1924069984232353    0.8170093190249939    C1248
    0.8689450714589917    0.5257403317565688    0.1503426523583271    C1249
    0.8689450714589917    0.5257403317565688    0.4836759856916605    C1250
    0.8689450714589917    0.5257403317565688    0.8170093190249939    C1251
    0.2022784047923250    0.8590736650899020    0.1503426523583271    C1252
    0.2022784047923250    0.8590736650899020    0.4836759856916605    C1253
    0.2022784047923250    0.8590736650899020    0.8170093190249939    C1254
    0.2022784047923250    0.1924069984232353    0.1503426523583271    C1255
    0.2022784047923250    0.1924069984232353    0.4836759856916605    C1256
    0.2022784047923250    0.1924069984232353    0.8170093190249939    C1257
    0.2022784047923250    0.5257403317565688    0.1503426523583271    C1258
    0.2022784047923250    0.5257403317565688    0.4836759856916605    C1259
    0.2022784047923250    0.5257403317565688    0.8170093190249939    C1260
    0.5356117381256582    0.8590736650899020    0.1503426523583271    C1261
    0.5356117381256582    0.8590736650899020    0.4836759856916605    C1262
    0.5356117381256582    0.8590736650899020    0.8170093190249939    C1263
    0.5356117381256582    0.1924069984232353    0.1503426523583271    C1264
    0.5356117381256582    0.1924069984232353    0.4836759856916605    C1265
    0.5356117381256582    0.1924069984232353    0.8170093190249939    C1266
    0.5356117381256582    0.5257403317565688    0.1503426523583271    C1267
    0.5356117381256582    0.5257403317565688    0.4836759856916605    C1268
    0.5356117381256582    0.5257403317565688    0.8170093190249939    C1269
    0.1303451151371394    0.2335052343878828    0.4053847156779422    C1270
    0.1303451151371394    0.2335052343878828    0.7387180490112755    C1271
    0.1303451151371394    0.2335052343878828    0.0720513823446088    C1272
    0.1303451151371394    0.5668385677212162    0.4053847156779422    C1273
    0.1303451151371394    0.5668385677212162    0.7387180490112755    C1274
    0.1303451151371394    0.5668385677212162    0.0720513823446088    C1275
    0.1303451151371394    0.9001719010545495    0.4053847156779422    C1276
    0.1303451151371394    0.9001719010545495    0.7387180490112755    C1277
    0.1303451151371394    0.9001719010545495    0.0720513823446088    C1278
    0.4636784484704728    0.2335052343878828    0.4053847156779422    C1279
    0.4636784484704728    0.2335052343878828    0.7387180490112755    C1280
    0.4636784484704728    0.2335052343878828    0.0720513823446088    C1281
    0.4636784484704728    0.5668385677212162    0.4053847156779422    C1282
    0.4636784484704728    0.5668385677212162    0.7387180490112755    C1283
    0.4636784484704728    0.5668385677212162    0.0720513823446088    C1284
    0.4636784484704728    0.9001719010545495    0.4053847156779422    C1285
    0.4636784484704728    0.9001719010545495    0.7387180490112755    C1286
    0.4636784484704728    0.9001719010545495    0.0720513823446088    C1287
    0.7970117818038061    0.2335052343878828    0.4053847156779422    C1288
    0.7970117818038061    0.2335052343878828    0.7387180490112755    C1289
    0.7970117818038061    0.2335052343878828    0.0720513823446088    C1290
    0.7970117818038061    0.5668385677212162    0.4053847156779422    C1291
    0.7970117818038061    0.5668385677212162    0.7387180490112755    C1292
    0.7970117818038061    0.5668385677212162    0.0720513823446088    C1293
    0.7970117818038061    0.9001719010545495    0.4053847156779422    C1294
    0.7970117818038061    0.9001719010545495    0.7387180490112755    C1295
    0.7970117818038061    0.9001719010545495    0.0720513823446088    C1296
    0.1249203172432257    0.7969340906309452    0.4075330704364793    C1297
    0.1249203172432257    0.7969340906309452    0.7408664037698127    C1298
    0.1249203172432257    0.7969340906309452    0.0741997371031460    C1299
    0.1249203172432257    0.1302674239642785    0.4075330704364793    C1300
    0.1249203172432257    0.1302674239642785    0.7408664037698127    C1301
    0.1249203172432257    0.1302674239642785    0.0741997371031460    C1302
    0.1249203172432257    0.4636007572976117    0.4075330704364793    C1303
    0.1249203172432257    0.4636007572976117    0.7408664037698127    C1304
    0.1249203172432257    0.4636007572976117    0.0741997371031460    C1305
    0.4582536505765591    0.7969340906309452    0.4075330704364793    C1306
    0.4582536505765591    0.7969340906309452    0.7408664037698127    C1307
    0.4582536505765591    0.7969340906309452    0.0741997371031460    C1308
    0.4582536505765591    0.1302674239642785    0.4075330704364793    C1309
    0.4582536505765591    0.1302674239642785    0.7408664037698127    C1310
    0.4582536505765591    0.1302674239642785    0.0741997371031460    C1311
    0.4582536505765591    0.4636007572976117    0.4075330704364793    C1312
    0.4582536505765591    0.4636007572976117    0.7408664037698127    C1313
    0.4582536505765591    0.4636007572976117    0.0741997371031460    C1314
    0.7915869839098923    0.7969340906309452    0.4075330704364793    C1315
    0.7915869839098923    0.7969340906309452    0.7408664037698127    C1316
    0.7915869839098923    0.7969340906309452    0.0741997371031460    C1317
    0.7915869839098923    0.1302674239642785    0.4075330704364793    C1318
    0.7915869839098923    0.1302674239642785    0.7408664037698127    C1319
    0.7915869839098923    0.1302674239642785    0.0741997371031460    C1320
    0.7915869839098923    0.4636007572976117    0.4075330704364793    C1321
    0.7915869839098923    0.4636007572976117    0.7408664037698127    C1322
    0.7915869839098923    0.4636007572976117    0.0741997371031460    C1323
    0.8326552185477569    0.7695742830731827    0.2408302387983063    C1324
    0.8326552185477569    0.7695742830731827    0.5741635721316398    C1325
    0.8326552185477569    0.7695742830731827    0.9074969054649731    C1326
    0.8326552185477569    0.1029076164065160    0.2408302387983063    C1327
    0.8326552185477569    0.1029076164065160    0.5741635721316398    C1328
    0.8326552185477569    0.1029076164065160    0.9074969054649731    C1329
    0.8326552185477569    0.4362409497398494    0.2408302387983063    C1330
    0.8326552185477569    0.4362409497398494    0.5741635721316398    C1331
    0.8326552185477569    0.4362409497398494    0.9074969054649731    C1332
    0.1659885518810902    0.7695742830731827    0.2408302387983063    C1333
    0.1659885518810902    0.7695742830731827    0.5741635721316398    C1334
    0.1659885518810902    0.7695742830731827    0.9074969054649731    C1335
    0.1659885518810902    0.1029076164065160    0.2408302387983063    C1336
    0.1659885518810902    0.1029076164065160    0.5741635721316398    C1337
    0.1659885518810902    0.1029076164065160    0.9074969054649731    C1338
    0.1659885518810902    0.4362409497398494    0.2408302387983063    C1339
    0.1659885518810902    0.4362409497398494    0.5741635721316398    C1340
    0.1659885518810902    0.4362409497398494    0.9074969054649731    C1341
    0.4993218852144236    0.7695742830731827    0.2408302387983063    C1342
    0.4993218852144236    0.7695742830731827    0.5741635721316398    C1343
    0.4993218852144236    0.7695742830731827    0.9074969054649731    C1344
    0.4993218852144236    0.1029076164065160    0.2408302387983063    C1345
    0.4993218852144236    0.1029076164065160    0.5741635721316398    C1346
    0.4993218852144236    0.1029076164065160    0.9074969054649731    C1347
    0.4993218852144236    0.4362409497398494    0.2408302387983063    C1348
    0.4993218852144236    0.4362409497398494    0.5741635721316398    C1349
    0.4993218852144236    0.4362409497398494    0.9074969054649731    C1350
    0.9077276715529137    0.9447929259430476    0.2381169630983286    C1351
    0.9077276715529137    0.9447929259430476    0.5714502964316619    C1352
    0.9077276715529137    0.9447929259430476    0.9047836297649952    C1353
    0.9077276715529137    0.2781262592763810    0.2381169630983286    C1354
    0.9077276715529137    0.2781262592763810    0.5714502964316619    C1355
    0.9077276715529137    0.2781262592763810    0.9047836297649952    C1356
    0.9077276715529137    0.6114595926097144    0.2381169630983286    C1357
    0.9077276715529137    0.6114595926097144    0.5714502964316619    C1358
    0.9077276715529137    0.6114595926097144    0.9047836297649952    C1359
    0.2410610048862469    0.9447929259430476    0.2381169630983286    C1360
    0.2410610048862469    0.9447929259430476    0.5714502964316619    C1361
    0.2410610048862469    0.9447929259430476    0.9047836297649952    C1362
    0.2410610048862469    0.2781262592763810    0.2381169630983286    C1363
    0.2410610048862469    0.2781262592763810    0.5714502964316619    C1364
    0.2410610048862469    0.2781262592763810    0.9047836297649952    C1365
    0.2410610048862469    0.6114595926097144    0.2381169630983286    C1366
    0.2410610048862469    0.6114595926097144    0.5714502964316619    C1367
    0.2410610048862469    0.6114595926097144    0.9047836297649952    C1368
    0.5743943382195803    0.9447929259430476    0.2381169630983286    C1369
    0.5743943382195803    0.9447929259430476    0.5714502964316619    C1370
    0.5743943382195803    0.9447929259430476    0.9047836297649952    C1371
    0.5743943382195803    0.2781262592763810    0.2381169630983286    C1372
    0.5743943382195803    0.2781262592763810    0.5714502964316619    C1373
    0.5743943382195803    0.2781262592763810    0.9047836297649952    C1374
    0.5743943382195803    0.6114595926097144    0.2381169630983286    C1375
    0.5743943382195803    0.6114595926097144    0.5714502964316619    C1376
    0.5743943382195803    0.6114595926097144    0.9047836297649952    C1377
    0.8585318801264159    0.8336609506217894    0.1916478580383884    C1378
    0.8585318801264159    0.8336609506217894    0.5249811913717217    C1379
    0.8585318801264159    0.8336609506217894    0.8583145247050550    C1380
    0.8585318801264159    0.1669942839551226    0.1916478580383884    C1381
    0.8585318801264159    0.1669942839551226    0.5249811913717217    C1382
    0.8585318801264159    0.1669942839551226    0.8583145247050550    C1383
    0.8585318801264159    0.5003276172884559    0.1916478580383884    C1384
    0.8585318801264159    0.5003276172884559    0.5249811913717217    C1385
    0.8585318801264159    0.5003276172884559    0.8583145247050550    C1386
    0.1918652134597492    0.8336609506217894    0.1916478580383884    C1387
    0.1918652134597492    0.8336609506217894    0.5249811913717217    C1388
    0.1918652134597492    0.8336609506217894    0.8583145247050550    C1389
    0.1918652134597492    0.1669942839551226    0.1916478580383884    C1390
    0.1918652134597492    0.1669942839551226    0.5249811913717217    C1391
    0.1918652134597492    0.1669942839551226    0.8583145247050550    C1392
    0.1918652134597492    0.5003276172884559    0.1916478580383884    C1393
    0.1918652134597492    0.5003276172884559    0.5249811913717217    C1394
    0.1918652134597492    0.5003276172884559    0.8583145247050550    C1395
    0.5251985467930824    0.8336609506217894    0.1916478580383884    C1396
    0.5251985467930824    0.8336609506217894    0.5249811913717217    C1397
    0.5251985467930824    0.8336609506217894    0.8583145247050550    C1398
    0.5251985467930824    0.1669942839551226    0.1916478580383884    C1399
    0.5251985467930824    0.1669942839551226    0.5249811913717217    C1400
    0.5251985467930824    0.1669942839551226    0.8583145247050550    C1401
    0.5251985467930824    0.5003276172884559    0.1916478580383884    C1402
    0.5251985467930824    0.5003276172884559    0.5249811913717217    C1403
    0.5251985467930824    0.5003276172884559    0.8583145247050550    C1404
    0.8755457412943317    0.9770322811873893    0.1930316354625362    C1405
    0.8755457412943317    0.9770322811873893    0.5263649687958696    C1406
    0.8755457412943317    0.9770322811873893    0.8596983021292028    C1407
    0.8755457412943317    0.3103656145207225    0.1930316354625362    C1408
    0.8755457412943317    0.3103656145207225    0.5263649687958696    C1409
    0.8755457412943317    0.3103656145207225    0.8596983021292028    C1410
    0.8755457412943317    0.6436989478540558    0.1930316354625362    C1411
    0.8755457412943317    0.6436989478540558    0.5263649687958696    C1412
    0.8755457412943317    0.6436989478540558    0.8596983021292028    C1413
    0.2088790746276650    0.9770322811873893    0.1930316354625362    C1414
    0.2088790746276650    0.9770322811873893    0.5263649687958696    C1415
    0.2088790746276650    0.9770322811873893    0.8596983021292028    C1416
    0.2088790746276650    0.3103656145207225    0.1930316354625362    C1417
    0.2088790746276650    0.3103656145207225    0.5263649687958696    C1418
    0.2088790746276650    0.3103656145207225    0.8596983021292028    C1419
    0.2088790746276650    0.6436989478540558    0.1930316354625362    C1420
    0.2088790746276650    0.6436989478540558    0.5263649687958696    C1421
    0.2088790746276650    0.6436989478540558    0.8596983021292028    C1422
    0.5422124079609983    0.9770322811873893    0.1930316354625362    C1423
    0.5422124079609983    0.9770322811873893    0.5263649687958696    C1424
    0.5422124079609983    0.9770322811873893    0.8596983021292028    C1425
    0.5422124079609983    0.3103656145207225    0.1930316354625362    C1426
    0.5422124079609983    0.3103656145207225    0.5263649687958696    C1427
    0.5422124079609983    0.3103656145207225    0.8596983021292028    C1428
    0.5422124079609983    0.6436989478540558    0.1930316354625362    C1429
    0.5422124079609983    0.6436989478540558    0.5263649687958696    C1430
    0.5422124079609983    0.6436989478540558    0.8596983021292028    C1431
    0.1247869596806306    0.6971194354158914    0.2574071838689832    C1432
    0.1247869596806306    0.6971194354158914    0.5907405172023166    C1433
    0.1247869596806306    0.6971194354158914    0.9240738505356499    C1434
    0.1247869596806306    0.0304527687492246    0.2574071838689832    C1435
    0.1247869596806306    0.0304527687492246    0.5907405172023166    C1436
    0.1247869596806306    0.0304527687492246    0.9240738505356499    C1437
    0.1247869596806306    0.3637861020825580    0.2574071838689832    C1438
    0.1247869596806306    0.3637861020825580    0.5907405172023166    C1439
    0.1247869596806306    0.3637861020825580    0.9240738505356499    C1440
    0.4581202930139638    0.6971194354158914    0.2574071838689832    C1441
    0.4581202930139638    0.6971194354158914    0.5907405172023166    C1442
    0.4581202930139638    0.6971194354158914    0.9240738505356499    C1443
    0.4581202930139638    0.0304527687492246    0.2574071838689832    C1444
    0.4581202930139638    0.0304527687492246    0.5907405172023166    C1445
    0.4581202930139638    0.0304527687492246    0.9240738505356499    C1446
    0.4581202930139638    0.3637861020825580    0.2574071838689832    C1447
    0.4581202930139638    0.3637861020825580    0.5907405172023166    C1448
    0.4581202930139638    0.3637861020825580    0.9240738505356499    C1449
    0.7914536263472972    0.6971194354158914    0.2574071838689832    C1450
    0.7914536263472972    0.6971194354158914    0.5907405172023166    C1451
    0.7914536263472972    0.6971194354158914    0.9240738505356499    C1452
    0.7914536263472972    0.0304527687492246    0.2574071838689832    C1453
    0.7914536263472972    0.0304527687492246    0.5907405172023166    C1454
    0.7914536263472972    0.0304527687492246    0.9240738505356499    C1455
    0.7914536263472972    0.3637861020825580    0.2574071838689832    C1456
    0.7914536263472972    0.3637861020825580    0.5907405172023166    C1457
    0.7914536263472972    0.3637861020825580    0.9240738505356499    C1458
    0.9939468846574442    0.0063603269412077    0.3474575009580356    C1459
    0.9939468846574442    0.0063603269412077    0.6807908342913689    C1460
    0.9939468846574442    0.0063603269412077    0.0141241676247022    C1461
    0.9939468846574442    0.3396936602745411    0.3474575009580356    C1462
    0.9939468846574442    0.3396936602745411    0.6807908342913689    C1463
    0.9939468846574442    0.3396936602745411    0.0141241676247022    C1464
    0.9939468846574442    0.6730269936078743    0.3474575009580356    C1465
    0.9939468846574442    0.6730269936078743    0.6807908342913689    C1466
    0.9939468846574442    0.6730269936078743    0.0141241676247022    C1467
    0.3272802179907774    0.0063603269412077    0.3474575009580356    C1468
    0.3272802179907774    0.0063603269412077    0.6807908342913689    C1469
    0.3272802179907774    0.0063603269412077    0.0141241676247022    C1470
    0.3272802179907774    0.3396936602745411    0.3474575009580356    C1471
    0.3272802179907774    0.3396936602745411    0.6807908342913689    C1472
    0.3272802179907774    0.3396936602745411    0.0141241676247022    C1473
    0.3272802179907774    0.6730269936078743    0.3474575009580356    C1474
    0.3272802179907774    0.6730269936078743    0.6807908342913689    C1475
    0.3272802179907774    0.6730269936078743    0.0141241676247022    C1476
    0.6606135513241107    0.0063603269412077    0.3474575009580356    C1477
    0.6606135513241107    0.0063603269412077    0.6807908342913689    C1478
    0.6606135513241107    0.0063603269412077    0.0141241676247022    C1479
    0.6606135513241107    0.3396936602745411    0.3474575009580356    C1480
    0.6606135513241107    0.3396936602745411    0.6807908342913689    C1481
    0.6606135513241107    0.3396936602745411    0.0141241676247022    C1482
    0.6606135513241107    0.6730269936078743    0.3474575009580356    C1483
    0.6606135513241107    0.6730269936078743    0.6807908342913689    C1484
    0.6606135513241107    0.6730269936078743    0.0141241676247022    C1485
    0.8387965715950105    0.7861196532570021    0.1997740000988973    C1486
    0.8387965715950105    0.7861196532570021    0.5331073334322307    C1487
    0.8387965715950105    0.7861196532570021    0.8664406667655640    C1488
    0.8387965715950105    0.1194529865903354    0.1997740000988973    C1489
    0.8387965715950105    0.1194529865903354    0.5331073334322307    C1490
    0.8387965715950105    0.1194529865903354    0.8664406667655640    C1491
    0.8387965715950105    0.4527863199236688    0.1997740000988973    C1492
    0.8387965715950105    0.4527863199236688    0.5331073334322307    C1493
    0.8387965715950105    0.4527863199236688    0.8664406667655640    C1494
    0.1721299049283438    0.7861196532570021    0.1997740000988973    C1495
    0.1721299049283438    0.7861196532570021    0.5331073334322307    C1496
    0.1721299049283438    0.7861196532570021    0.8664406667655640    C1497
    0.1721299049283438    0.1194529865903354    0.1997740000988973    C1498
    0.1721299049283438    0.1194529865903354    0.5331073334322307    C1499
    0.1721299049283438    0.1194529865903354    0.8664406667655640    C1500
    0.1721299049283438    0.4527863199236688    0.1997740000988973    C1501
    0.1721299049283438    0.4527863199236688    0.5331073334322307    C1502
    0.1721299049283438    0.4527863199236688    0.8664406667655640    C1503
    0.5054632382616772    0.7861196532570021    0.1997740000988973    C1504
    0.5054632382616772    0.7861196532570021    0.5331073334322307    C1505
    0.5054632382616772    0.7861196532570021    0.8664406667655640    C1506
    0.5054632382616772    0.1194529865903354    0.1997740000988973    C1507
    0.5054632382616772    0.1194529865903354    0.5331073334322307    C1508
    0.5054632382616772    0.1194529865903354    0.8664406667655640    C1509
    0.5054632382616772    0.4527863199236688    0.1997740000988973    C1510
    0.5054632382616772    0.4527863199236688    0.5331073334322307    C1511
    0.5054632382616772    0.4527863199236688    0.8664406667655640    C1512
    0.9669851133098035    0.8927293404399654    0.2203527029010072    C1513
    0.9669851133098035    0.8927293404399654    0.5536860362343405    C1514
    0.9669851133098035    0.8927293404399654    0.8870193695676739    C1515
    0.9669851133098035    0.2260626737732987    0.2203527029010072    C1516
    0.9669851133098035    0.2260626737732987    0.5536860362343405    C1517
    0.9669851133098035    0.2260626737732987    0.8870193695676739    C1518
    0.9669851133098035    0.5593960071066320    0.2203527029010072    C1519
    0.9669851133098035    0.5593960071066320    0.5536860362343405    C1520
    0.9669851133098035    0.5593960071066320    0.8870193695676739    C1521
    0.3003184466431368    0.8927293404399654    0.2203527029010072    C1522
    0.3003184466431368    0.8927293404399654    0.5536860362343405    C1523
    0.3003184466431368    0.8927293404399654    0.8870193695676739    C1524
    0.3003184466431368    0.2260626737732987    0.2203527029010072    C1525
    0.3003184466431368    0.2260626737732987    0.5536860362343405    C1526
    0.3003184466431368    0.2260626737732987    0.8870193695676739    C1527
    0.3003184466431368    0.5593960071066320    0.2203527029010072    C1528
    0.3003184466431368    0.5593960071066320    0.5536860362343405    C1529
    0.3003184466431368    0.5593960071066320    0.8870193695676739    C1530
    0.6336517799764700    0.8927293404399654    0.2203527029010072    C1531
    0.6336517799764700    0.8927293404399654    0.5536860362343405    C1532
    0.6336517799764700    0.8927293404399654    0.8870193695676739    C1533
    0.6336517799764700    0.2260626737732987    0.2203527029010072    C1534
    0.6336517799764700    0.2260626737732987    0.5536860362343405    C1535
    0.6336517799764700    0.2260626737732987    0.8870193695676739    C1536
    0.6336517799764700    0.5593960071066320    0.2203527029010072    C1537
    0.6336517799764700    0.5593960071066320    0.5536860362343405    C1538
    0.6336517799764700    0.5593960071066320    0.8870193695676739    C1539
    0.8112666670041224    0.7345601490898108    0.2668647620082643    C1540
    0.8112666670041224    0.7345601490898108    0.6001980953415975    C1541
    0.8112666670041224    0.7345601490898108    0.9335314286749308    C1542
    0.8112666670041224    0.0678934824231442    0.2668647620082643    C1543
    0.8112666670041224    0.0678934824231442    0.6001980953415975    C1544
    0.8112666670041224    0.0678934824231442    0.9335314286749308    C1545
    0.8112666670041224    0.4012268157564776    0.2668647620082643    C1546
    0.8112666670041224    0.4012268157564776    0.6001980953415975    C1547
    0.8112666670041224    0.4012268157564776    0.9335314286749308    C1548
    0.1446000003374557    0.7345601490898108    0.2668647620082643    C1549
    0.1446000003374557    0.7345601490898108    0.6001980953415975    C1550
    0.1446000003374557    0.7345601490898108    0.9335314286749308    C1551
    0.1446000003374557    0.0678934824231442    0.2668647620082643    C1552
    0.1446000003374557    0.0678934824231442    0.6001980953415975    C1553
    0.1446000003374557    0.0678934824231442    0.9335314286749308    C1554
    0.1446000003374557    0.4012268157564776    0.2668647620082643    C1555
    0.1446000003374557    0.4012268157564776    0.6001980953415975    C1556
    0.1446000003374557    0.4012268157564776    0.9335314286749308    C1557
    0.4779333336707889    0.7345601490898108    0.2668647620082643    C1558
    0.4779333336707889    0.7345601490898108    0.6001980953415975    C1559
    0.4779333336707889    0.7345601490898108    0.9335314286749308    C1560
    0.4779333336707889    0.0678934824231442    0.2668647620082643    C1561
    0.4779333336707889    0.0678934824231442    0.6001980953415975    C1562
    0.4779333336707889    0.0678934824231442    0.9335314286749308    C1563
    0.4779333336707889    0.4012268157564776    0.2668647620082643    C1564
    0.4779333336707889    0.4012268157564776    0.6001980953415975    C1565
    0.4779333336707889    0.4012268157564776    0.9335314286749308    C1566
    0.9546493625725241    0.9217653802456836    0.5665948034957705    C1567
    0.9546493625725241    0.9217653802456836    0.8999281368291038    C1568
    0.9546493625725241    0.9217653802456836    0.2332614701624371    C1569
    0.9546493625725241    0.2550987135790169    0.5665948034957705    C1570
    0.9546493625725241    0.2550987135790169    0.8999281368291038    C1571
    0.9546493625725241    0.2550987135790169    0.2332614701624371    C1572
    0.9546493625725241    0.5884320469123503    0.5665948034957705    C1573
    0.9546493625725241    0.5884320469123503    0.8999281368291038    C1574
    0.9546493625725241    0.5884320469123503    0.2332614701624371    C1575
    0.2879826959058573    0.9217653802456836    0.5665948034957705    C1576
    0.2879826959058573    0.9217653802456836    0.8999281368291038    C1577
    0.2879826959058573    0.9217653802456836    0.2332614701624371    C1578
    0.2879826959058573    0.2550987135790169    0.5665948034957705    C1579
    0.2879826959058573    0.2550987135790169    0.8999281368291038    C1580
    0.2879826959058573    0.2550987135790169    0.2332614701624371    C1581
    0.2879826959058573    0.5884320469123503    0.5665948034957705    C1582
    0.2879826959058573    0.5884320469123503    0.8999281368291038    C1583
    0.2879826959058573    0.5884320469123503    0.2332614701624371    C1584
    0.6213160292391907    0.9217653802456836    0.5665948034957705    C1585
    0.6213160292391907    0.9217653802456836    0.8999281368291038    C1586
    0.6213160292391907    0.9217653802456836    0.2332614701624371    C1587
    0.6213160292391907    0.2550987135790169    0.5665948034957705    C1588
    0.6213160292391907    0.2550987135790169    0.8999281368291038    C1589
    0.6213160292391907    0.2550987135790169    0.2332614701624371    C1590
    0.6213160292391907    0.5884320469123503    0.5665948034957705    C1591
    0.6213160292391907    0.5884320469123503    0.8999281368291038    C1592
    0.6213160292391907    0.5884320469123503    0.2332614701624371    C1593
    0.8513027166824656    0.9261536934885872    0.1575114715981043    C1594
    0.8513027166824656    0.9261536934885872    0.4908448049314376    C1595
    0.8513027166824656    0.9261536934885872    0.8241781382647708    C1596
    0.8513027166824656    0.2594870268219205    0.1575114715981043    C1597
    0.8513027166824656    0.2594870268219205    0.4908448049314376    C1598
    0.8513027166824656    0.2594870268219205    0.8241781382647708    C1599
    0.8513027166824656    0.5928203601552537    0.1575114715981043    C1600
    0.8513027166824656    0.5928203601552537    0.4908448049314376    C1601
    0.8513027166824656    0.5928203601552537    0.8241781382647708    C1602
    0.1846360500157989    0.9261536934885872    0.1575114715981043    C1603
    0.1846360500157989    0.9261536934885872    0.4908448049314376    C1604
    0.1846360500157989    0.9261536934885872    0.8241781382647708    C1605
    0.1846360500157989    0.2594870268219205    0.1575114715981043    C1606
    0.1846360500157989    0.2594870268219205    0.4908448049314376    C1607
    0.1846360500157989    0.2594870268219205    0.8241781382647708    C1608
    0.1846360500157989    0.5928203601552537    0.1575114715981043    C1609
    0.1846360500157989    0.5928203601552537    0.4908448049314376    C1610
    0.1846360500157989    0.5928203601552537    0.8241781382647708    C1611
    0.5179693833491323    0.9261536934885872    0.1575114715981043    C1612
    0.5179693833491323    0.9261536934885872    0.4908448049314376    C1613
    0.5179693833491323    0.9261536934885872    0.8241781382647708    C1614
    0.5179693833491323    0.2594870268219205    0.1575114715981043    C1615
    0.5179693833491323    0.2594870268219205    0.4908448049314376    C1616
    0.5179693833491323    0.2594870268219205    0.8241781382647708    C1617
    0.5179693833491323    0.5928203601552537    0.1575114715981043    C1618
    0.5179693833491323    0.5928203601552537    0.4908448049314376    C1619
    0.5179693833491323    0.5928203601552537    0.8241781382647708    C1620
    0.8607260950405498    0.8939323202441367    0.1410162644330492    C1621
    0.8607260950405498    0.8939323202441367    0.4743495977663825    C1622
    0.8607260950405498    0.8939323202441367    0.8076829310997158    C1623
    0.8607260950405498    0.2272656535774700    0.1410162644330492    C1624
    0.8607260950405498    0.2272656535774700    0.4743495977663825    C1625
    0.8607260950405498    0.2272656535774700    0.8076829310997158    C1626
    0.8607260950405498    0.5605989869108035    0.1410162644330492    C1627
    0.8607260950405498    0.5605989869108035    0.4743495977663825    C1628
    0.8607260950405498    0.5605989869108035    0.8076829310997158    C1629
    0.1940594283738830    0.8939323202441367    0.1410162644330492    C1630
    0.1940594283738830    0.8939323202441367    0.4743495977663825    C1631
    0.1940594283738830    0.8939323202441367    0.8076829310997158    C1632
    0.1940594283738830    0.2272656535774700    0.1410162644330492    C1633
    0.1940594283738830    0.2272656535774700    0.4743495977663825    C1634
    0.1940594283738830    0.2272656535774700    0.8076829310997158    C1635
    0.1940594283738830    0.5605989869108035    0.1410162644330492    C1636
    0.1940594283738830    0.5605989869108035    0.4743495977663825    C1637
    0.1940594283738830    0.5605989869108035    0.8076829310997158    C1638
    0.5273927617072163    0.8939323202441367    0.1410162644330492    C1639
    0.5273927617072163    0.8939323202441367    0.4743495977663825    C1640
    0.5273927617072163    0.8939323202441367    0.8076829310997158    C1641
    0.5273927617072163    0.2272656535774700    0.1410162644330492    C1642
    0.5273927617072163    0.2272656535774700    0.4743495977663825    C1643
    0.5273927617072163    0.2272656535774700    0.8076829310997158    C1644
    0.5273927617072163    0.5605989869108035    0.1410162644330492    C1645
    0.5273927617072163    0.5605989869108035    0.4743495977663825    C1646
    0.5273927617072163    0.5605989869108035    0.8076829310997158    C1647
    0.1318783253997340    0.7274519934358297    0.3099298871344767    C1648
    0.1318783253997340    0.7274519934358297    0.6432632204678099    C1649
    0.1318783253997340    0.7274519934358297    0.9765965538011433    C1650
    0.1318783253997340    0.0607853267691629    0.3099298871344767    C1651
    0.1318783253997340    0.0607853267691629    0.6432632204678099    C1652
    0.1318783253997340    0.0607853267691629    0.9765965538011433    C1653
    0.1318783253997340    0.3941186601024963    0.3099298871344767    C1654
    0.1318783253997340    0.3941186601024963    0.6432632204678099    C1655
    0.1318783253997340    0.3941186601024963    0.9765965538011433    C1656
    0.4652116587330674    0.7274519934358297    0.3099298871344767    C1657
    0.4652116587330674    0.7274519934358297    0.6432632204678099    C1658
    0.4652116587330674    0.7274519934358297    0.9765965538011433    C1659
    0.4652116587330674    0.0607853267691629    0.3099298871344767    C1660
    0.4652116587330674    0.0607853267691629    0.6432632204678099    C1661
    0.4652116587330674    0.0607853267691629    0.9765965538011433    C1662
    0.4652116587330674    0.3941186601024963    0.3099298871344767    C1663
    0.4652116587330674    0.3941186601024963    0.6432632204678099    C1664
    0.4652116587330674    0.3941186601024963    0.9765965538011433    C1665
    0.7985449920664007    0.7274519934358297    0.3099298871344767    C1666
    0.7985449920664007    0.7274519934358297    0.6432632204678099    C1667
    0.7985449920664007    0.7274519934358297    0.9765965538011433    C1668
    0.7985449920664007    0.0607853267691629    0.3099298871344767    C1669
    0.7985449920664007    0.0607853267691629    0.6432632204678099    C1670
    0.7985449920664007    0.0607853267691629    0.9765965538011433    C1671
    0.7985449920664007    0.3941186601024963    0.3099298871344767    C1672
    0.7985449920664007    0.3941186601024963    0.6432632204678099    C1673
    0.7985449920664007    0.3941186601024963    0.9765965538011433    C1674
    0.0909304682955717    0.1119619120514880    0.2228903221492036    C1675
    0.0909304682955717    0.1119619120514880    0.5562236554825368    C1676
    0.0909304682955717    0.1119619120514880    0.8895569888158702    C1677
    0.0909304682955717    0.4452952453848213    0.2228903221492036    C1678
    0.0909304682955717    0.4452952453848213    0.5562236554825368    C1679
    0.0909304682955717    0.4452952453848213    0.8895569888158702    C1680
    0.0909304682955717    0.7786285787181546    0.2228903221492036    C1681
    0.0909304682955717    0.7786285787181546    0.5562236554825368    C1682
    0.0909304682955717    0.7786285787181546    0.8895569888158702    C1683
    0.4242638016289051    0.1119619120514880    0.2228903221492036    C1684
    0.4242638016289051    0.1119619120514880    0.5562236554825368    C1685
    0.4242638016289051    0.1119619120514880    0.8895569888158702    C1686
    0.4242638016289051    0.4452952453848213    0.2228903221492036    C1687
    0.4242638016289051    0.4452952453848213    0.5562236554825368    C1688
    0.4242638016289051    0.4452952453848213    0.8895569888158702    C1689
    0.4242638016289051    0.7786285787181546    0.2228903221492036    C1690
    0.4242638016289051    0.7786285787181546    0.5562236554825368    C1691
    0.4242638016289051    0.7786285787181546    0.8895569888158702    C1692
    0.7575971349622385    0.1119619120514880    0.2228903221492036    C1693
    0.7575971349622385    0.1119619120514880    0.5562236554825368    C1694
    0.7575971349622385    0.1119619120514880    0.8895569888158702    C1695
    0.7575971349622385    0.4452952453848213    0.2228903221492036    C1696
    0.7575971349622385    0.4452952453848213    0.5562236554825368    C1697
    0.7575971349622385    0.4452952453848213    0.8895569888158702    C1698
    0.7575971349622385    0.7786285787181546    0.2228903221492036    C1699
    0.7575971349622385    0.7786285787181546    0.5562236554825368    C1700
    0.7575971349622385    0.7786285787181546    0.8895569888158702    C1701
    0.9115319971516855    0.8522260136526281    0.0986629465741199    C1702
    0.9115319971516855    0.8522260136526281    0.4319962799074533    C1703
    0.9115319971516855    0.8522260136526281    0.7653296132407865    C1704
    0.9115319971516855    0.1855593469859613    0.0986629465741199    C1705
    0.9115319971516855    0.1855593469859613    0.4319962799074533    C1706
    0.9115319971516855    0.1855593469859613    0.7653296132407865    C1707
    0.9115319971516855    0.5188926803192946    0.0986629465741199    C1708
    0.9115319971516855    0.5188926803192946    0.4319962799074533    C1709
    0.9115319971516855    0.5188926803192946    0.7653296132407865    C1710
    0.2448653304850188    0.8522260136526281    0.0986629465741199    C1711
    0.2448653304850188    0.8522260136526281    0.4319962799074533    C1712
    0.2448653304850188    0.8522260136526281    0.7653296132407865    C1713
    0.2448653304850188    0.1855593469859613    0.0986629465741199    C1714
    0.2448653304850188    0.1855593469859613    0.4319962799074533    C1715
    0.2448653304850188    0.1855593469859613    0.7653296132407865    C1716
    0.2448653304850188    0.5188926803192946    0.0986629465741199    C1717
    0.2448653304850188    0.5188926803192946    0.4319962799074533    C1718
    0.2448653304850188    0.5188926803192946    0.7653296132407865    C1719
    0.5781986638183522    0.8522260136526281    0.0986629465741199    C1720
    0.5781986638183522    0.8522260136526281    0.4319962799074533    C1721
    0.5781986638183522    0.8522260136526281    0.7653296132407865    C1722
    0.5781986638183522    0.1855593469859613    0.0986629465741199    C1723
    0.5781986638183522    0.1855593469859613    0.4319962799074533    C1724
    0.5781986638183522    0.1855593469859613    0.7653296132407865    C1725
    0.5781986638183522    0.5188926803192946    0.0986629465741199    C1726
    0.5781986638183522    0.5188926803192946    0.4319962799074533    C1727
    0.5781986638183522    0.5188926803192946    0.7653296132407865    C1728
    0.8715634275397519    0.9235379362417147    0.2526115664152842    C1729
    0.8715634275397519    0.9235379362417147    0.5859448997486174    C1730
    0.8715634275397519    0.9235379362417147    0.9192782330819507    C1731
    0.8715634275397519    0.2568712695750479    0.2526115664152842    C1732
    0.8715634275397519    0.2568712695750479    0.5859448997486174    C1733
    0.8715634275397519    0.2568712695750479    0.9192782330819507    C1734
    0.8715634275397519    0.5902046029083812    0.2526115664152842    C1735
    0.8715634275397519    0.5902046029083812    0.5859448997486174    C1736
    0.8715634275397519    0.5902046029083812    0.9192782330819507    C1737
    0.2048967608730852    0.9235379362417147    0.2526115664152842    C1738
    0.2048967608730852    0.9235379362417147    0.5859448997486174    C1739
    0.2048967608730852    0.9235379362417147    0.9192782330819507    C1740
    0.2048967608730852    0.2568712695750479    0.2526115664152842    C1741
    0.2048967608730852    0.2568712695750479    0.5859448997486174    C1742
    0.2048967608730852    0.2568712695750479    0.9192782330819507    C1743
    0.2048967608730852    0.5902046029083812    0.2526115664152842    C1744
    0.2048967608730852    0.5902046029083812    0.5859448997486174    C1745
    0.2048967608730852    0.5902046029083812    0.9192782330819507    C1746
    0.5382300942064185    0.9235379362417147    0.2526115664152842    C1747
    0.5382300942064185    0.9235379362417147    0.5859448997486174    C1748
    0.5382300942064185    0.9235379362417147    0.9192782330819507    C1749
    0.5382300942064185    0.2568712695750479    0.2526115664152842    C1750
    0.5382300942064185    0.2568712695750479    0.5859448997486174    C1751
    0.5382300942064185    0.2568712695750479    0.9192782330819507    C1752
    0.5382300942064185    0.5902046029083812    0.2526115664152842    C1753
    0.5382300942064185    0.5902046029083812    0.5859448997486174    C1754
    0.5382300942064185    0.5902046029083812    0.9192782330819507    C1755
    0.9392416751538171    0.1027587196520469    0.2771481149127322    C1756
    0.9392416751538171    0.1027587196520469    0.6104814482460656    C1757
    0.9392416751538171    0.1027587196520469    0.9438147815793989    C1758
    0.9392416751538171    0.4360920529853802    0.2771481149127322    C1759
    0.9392416751538171    0.4360920529853802    0.6104814482460656    C1760
    0.9392416751538171    0.4360920529853802    0.9438147815793989    C1761
    0.9392416751538171    0.7694253863187135    0.2771481149127322    C1762
    0.9392416751538171    0.7694253863187135    0.6104814482460656    C1763
    0.9392416751538171    0.7694253863187135    0.9438147815793989    C1764
    0.2725750084871503    0.1027587196520469    0.2771481149127322    C1765
    0.2725750084871503    0.1027587196520469    0.6104814482460656    C1766
    0.2725750084871503    0.1027587196520469    0.9438147815793989    C1767
    0.2725750084871503    0.4360920529853802    0.2771481149127322    C1768
    0.2725750084871503    0.4360920529853802    0.6104814482460656    C1769
    0.2725750084871503    0.4360920529853802    0.9438147815793989    C1770
    0.2725750084871503    0.7694253863187135    0.2771481149127322    C1771
    0.2725750084871503    0.7694253863187135    0.6104814482460656    C1772
    0.2725750084871503    0.7694253863187135    0.9438147815793989    C1773
    0.6059083418204836    0.1027587196520469    0.2771481149127322    C1774
    0.6059083418204836    0.1027587196520469    0.6104814482460656    C1775
    0.6059083418204836    0.1027587196520469    0.9438147815793989    C1776
    0.6059083418204836    0.4360920529853802    0.2771481149127322    C1777
    0.6059083418204836    0.4360920529853802    0.6104814482460656    C1778
    0.6059083418204836    0.4360920529853802    0.9438147815793989    C1779
    0.6059083418204836    0.7694253863187135    0.2771481149127322    C1780
    0.6059083418204836    0.7694253863187135    0.6104814482460656    C1781
    0.6059083418204836    0.7694253863187135    0.9438147815793989    C1782
    0.0517106010263084    0.0567927880839466    0.3429950705077184    C1783
    0.0517106010263084    0.0567927880839466    0.6763284038410518    C1784
    0.0517106010263084    0.0567927880839466    0.0096617371743850    C1785
    0.0517106010263084    0.3901261214172800    0.3429950705077184    C1786
    0.0517106010263084    0.3901261214172800    0.6763284038410518    C1787
    0.0517106010263084    0.3901261214172800    0.0096617371743850    C1788
    0.0517106010263084    0.7234594547506132    0.3429950705077184    C1789
    0.0517106010263084    0.7234594547506132    0.6763284038410518    C1790
    0.0517106010263084    0.7234594547506132    0.0096617371743850    C1791
    0.3850439343596417    0.0567927880839466    0.3429950705077184    C1792
    0.3850439343596417    0.0567927880839466    0.6763284038410518    C1793
    0.3850439343596417    0.0567927880839466    0.0096617371743850    C1794
    0.3850439343596417    0.3901261214172800    0.3429950705077184    C1795
    0.3850439343596417    0.3901261214172800    0.6763284038410518    C1796
    0.3850439343596417    0.3901261214172800    0.0096617371743850    C1797
    0.3850439343596417    0.7234594547506132    0.3429950705077184    C1798
    0.3850439343596417    0.7234594547506132    0.6763284038410518    C1799
    0.3850439343596417    0.7234594547506132    0.0096617371743850    C1800
    0.7183772676929749    0.0567927880839466    0.3429950705077184    C1801
    0.7183772676929749    0.0567927880839466    0.6763284038410518    C1802
    0.7183772676929749    0.0567927880839466    0.0096617371743850    C1803
    0.7183772676929749    0.3901261214172800    0.3429950705077184    C1804
    0.7183772676929749    0.3901261214172800    0.6763284038410518    C1805
    0.7183772676929749    0.3901261214172800    0.0096617371743850    C1806
    0.7183772676929749    0.7234594547506132    0.3429950705077184    C1807
    0.7183772676929749    0.7234594547506132    0.6763284038410518    C1808
    0.7183772676929749    0.7234594547506132    0.0096617371743850    C1809
    0.9076050350903742    0.7369598320571265    0.2790237205587054    C1810
    0.9076050350903742    0.7369598320571265    0.6123570538920386    C1811
    0.9076050350903742    0.7369598320571265    0.9456903872253720    C1812
    0.9076050350903742    0.0702931653904597    0.2790237205587054    C1813
    0.9076050350903742    0.0702931653904597    0.6123570538920386    C1814
    0.9076050350903742    0.0702931653904597    0.9456903872253720    C1815
    0.9076050350903742    0.4036264987237930    0.2790237205587054    C1816
    0.9076050350903742    0.4036264987237930    0.6123570538920386    C1817
    0.9076050350903742    0.4036264987237930    0.9456903872253720    C1818
    0.2409383684237074    0.7369598320571265    0.2790237205587054    C1819
    0.2409383684237074    0.7369598320571265    0.6123570538920386    C1820
    0.2409383684237074    0.7369598320571265    0.9456903872253720    C1821
    0.2409383684237074    0.0702931653904597    0.2790237205587054    C1822
    0.2409383684237074    0.0702931653904597    0.6123570538920386    C1823
    0.2409383684237074    0.0702931653904597    0.9456903872253720    C1824
    0.2409383684237074    0.4036264987237930    0.2790237205587054    C1825
    0.2409383684237074    0.4036264987237930    0.6123570538920386    C1826
    0.2409383684237074    0.4036264987237930    0.9456903872253720    C1827
    0.5742717017570407    0.7369598320571265    0.2790237205587054    C1828
    0.5742717017570407    0.7369598320571265    0.6123570538920386    C1829
    0.5742717017570407    0.7369598320571265    0.9456903872253720    C1830
    0.5742717017570407    0.0702931653904597    0.2790237205587054    C1831
    0.5742717017570407    0.0702931653904597    0.6123570538920386    C1832
    0.5742717017570407    0.0702931653904597    0.9456903872253720    C1833
    0.5742717017570407    0.4036264987237930    0.2790237205587054    C1834
    0.5742717017570407    0.4036264987237930    0.6123570538920386    C1835
    0.5742717017570407    0.4036264987237930    0.9456903872253720    C1836
    0.1033304069678364    0.8231468144652070    0.4071039837648887    C1837
    0.1033304069678364    0.8231468144652070    0.7404373170982220    C1838
    0.1033304069678364    0.8231468144652070    0.0737706504315553    C1839
    0.1033304069678364    0.1564801477985402    0.4071039837648887    C1840
    0.1033304069678364    0.1564801477985402    0.7404373170982220    C1841
    0.1033304069678364    0.1564801477985402    0.0737706504315553    C1842
    0.1033304069678364    0.4898134811318736    0.4071039837648887    C1843
    0.1033304069678364    0.4898134811318736    0.7404373170982220    C1844
    0.1033304069678364    0.4898134811318736    0.0737706504315553    C1845
    0.4366637403011697    0.8231468144652070    0.4071039837648887    C1846
    0.4366637403011697    0.8231468144652070    0.7404373170982220    C1847
    0.4366637403011697    0.8231468144652070    0.0737706504315553    C1848
    0.4366637403011697    0.1564801477985402    0.4071039837648887    C1849
    0.4366637403011697    0.1564801477985402    0.7404373170982220    C1850
    0.4366637403011697    0.1564801477985402    0.0737706504315553    C1851
    0.4366637403011697    0.4898134811318736    0.4071039837648887    C1852
    0.4366637403011697    0.4898134811318736    0.7404373170982220    C1853
    0.4366637403011697    0.4898134811318736    0.0737706504315553    C1854
    0.7699970736345031    0.8231468144652070    0.4071039837648887    C1855
    0.7699970736345031    0.8231468144652070    0.7404373170982220    C1856
    0.7699970736345031    0.8231468144652070    0.0737706504315553    C1857
    0.7699970736345031    0.1564801477985402    0.4071039837648887    C1858
    0.7699970736345031    0.1564801477985402    0.7404373170982220    C1859
    0.7699970736345031    0.1564801477985402    0.0737706504315553    C1860
    0.7699970736345031    0.4898134811318736    0.4071039837648887    C1861
    0.7699970736345031    0.4898134811318736    0.7404373170982220    C1862
    0.7699970736345031    0.4898134811318736    0.0737706504315553    C1863
    0.9779555690944712    0.0320144517760530    0.4028030288568232    C1864
    0.9779555690944712    0.0320144517760530    0.7361363621901565    C1865
    0.9779555690944712    0.0320144517760530    0.0694696955234898    C1866
    0.9779555690944712    0.3653477851093864    0.4028030288568232    C1867
    0.9779555690944712    0.3653477851093864    0.7361363621901565    C1868
    0.9779555690944712    0.3653477851093864    0.0694696955234898    C1869
    0.9779555690944712    0.6986811184427196    0.4028030288568232    C1870
    0.9779555690944712    0.6986811184427196    0.7361363621901565    C1871
    0.9779555690944712    0.6986811184427196    0.0694696955234898    C1872
    0.3112889024278046    0.0320144517760530    0.4028030288568232    C1873
    0.3112889024278046    0.0320144517760530    0.7361363621901565    C1874
    0.3112889024278046    0.0320144517760530    0.0694696955234898    C1875
    0.3112889024278046    0.3653477851093864    0.4028030288568232    C1876
    0.3112889024278046    0.3653477851093864    0.7361363621901565    C1877
    0.3112889024278046    0.3653477851093864    0.0694696955234898    C1878
    0.3112889024278046    0.6986811184427196    0.4028030288568232    C1879
    0.3112889024278046    0.6986811184427196    0.7361363621901565    C1880
    0.3112889024278046    0.6986811184427196    0.0694696955234898    C1881
    0.6446222357611380    0.0320144517760530    0.4028030288568232    C1882
    0.6446222357611380    0.0320144517760530    0.7361363621901565    C1883
    0.6446222357611380    0.0320144517760530    0.0694696955234898    C1884
    0.6446222357611380    0.3653477851093864    0.4028030288568232    C1885
    0.6446222357611380    0.3653477851093864    0.7361363621901565    C1886
    0.6446222357611380    0.3653477851093864    0.0694696955234898    C1887
    0.6446222357611380    0.6986811184427196    0.4028030288568232    C1888
    0.6446222357611380    0.6986811184427196    0.7361363621901565    C1889
    0.6446222357611380    0.6986811184427196    0.0694696955234898    C1890
    0.9992504107572646    0.8721556445312746    0.3428758202470884    C1891
    0.9992504107572646    0.8721556445312746    0.6762091535804218    C1892
    0.9992504107572646    0.8721556445312746    0.0095424869137550    C1893
    0.9992504107572646    0.2054889778646078    0.3428758202470884    C1894
    0.9992504107572646    0.2054889778646078    0.6762091535804218    C1895
    0.9992504107572646    0.2054889778646078    0.0095424869137550    C1896
    0.9992504107572646    0.5388223111979411    0.3428758202470884    C1897
    0.9992504107572646    0.5388223111979411    0.6762091535804218    C1898
    0.9992504107572646    0.5388223111979411    0.0095424869137550    C1899
    0.3325837440905980    0.8721556445312746    0.3428758202470884    C1900
    0.3325837440905980    0.8721556445312746    0.6762091535804218    C1901
    0.3325837440905980    0.8721556445312746    0.0095424869137550    C1902
    0.3325837440905980    0.2054889778646078    0.3428758202470884    C1903
    0.3325837440905980    0.2054889778646078    0.6762091535804218    C1904
    0.3325837440905980    0.2054889778646078    0.0095424869137550    C1905
    0.3325837440905980    0.5388223111979411    0.3428758202470884    C1906
    0.3325837440905980    0.5388223111979411    0.6762091535804218    C1907
    0.3325837440905980    0.5388223111979411    0.0095424869137550    C1908
    0.6659170774239312    0.8721556445312746    0.3428758202470884    C1909
    0.6659170774239312    0.8721556445312746    0.6762091535804218    C1910
    0.6659170774239312    0.8721556445312746    0.0095424869137550    C1911
    0.6659170774239312    0.2054889778646078    0.3428758202470884    C1912
    0.6659170774239312    0.2054889778646078    0.6762091535804218    C1913
    0.6659170774239312    0.2054889778646078    0.0095424869137550    C1914
    0.6659170774239312    0.5388223111979411    0.3428758202470884    C1915
    0.6659170774239312    0.5388223111979411    0.6762091535804218    C1916
    0.6659170774239312    0.5388223111979411    0.0095424869137550    C1917
    0.9183678137069919    0.8406165876581873    0.0594546275354466    C1918
    0.9183678137069919    0.8406165876581873    0.3927879608687799    C1919
    0.9183678137069919    0.8406165876581873    0.7261212942021132    C1920
    0.9183678137069919    0.1739499209915205    0.0594546275354466    C1921
    0.9183678137069919    0.1739499209915205    0.3927879608687799    C1922
    0.9183678137069919    0.1739499209915205    0.7261212942021132    C1923
    0.9183678137069919    0.5072832543248538    0.0594546275354466    C1924
    0.9183678137069919    0.5072832543248538    0.3927879608687799    C1925
    0.9183678137069919    0.5072832543248538    0.7261212942021132    C1926
    0.2517011470403253    0.8406165876581873    0.0594546275354466    C1927
    0.2517011470403253    0.8406165876581873    0.3927879608687799    C1928
    0.2517011470403253    0.8406165876581873    0.7261212942021132    C1929
    0.2517011470403253    0.1739499209915205    0.0594546275354466    C1930
    0.2517011470403253    0.1739499209915205    0.3927879608687799    C1931
    0.2517011470403253    0.1739499209915205    0.7261212942021132    C1932
    0.2517011470403253    0.5072832543248538    0.0594546275354466    C1933
    0.2517011470403253    0.5072832543248538    0.3927879608687799    C1934
    0.2517011470403253    0.5072832543248538    0.7261212942021132    C1935
    0.5850344803736587    0.8406165876581873    0.0594546275354466    C1936
    0.5850344803736587    0.8406165876581873    0.3927879608687799    C1937
    0.5850344803736587    0.8406165876581873    0.7261212942021132    C1938
    0.5850344803736587    0.1739499209915205    0.0594546275354466    C1939
    0.5850344803736587    0.1739499209915205    0.3927879608687799    C1940
    0.5850344803736587    0.1739499209915205    0.7261212942021132    C1941
    0.5850344803736587    0.5072832543248538    0.0594546275354466    C1942
    0.5850344803736587    0.5072832543248538    0.3927879608687799    C1943
    0.5850344803736587    0.5072832543248538    0.7261212942021132    C1944
    0.1016651638082302    0.1938362649734924    0.2120662877267629    C1945
    0.1016651638082302    0.1938362649734924    0.5453996210600963    C1946
    0.1016651638082302    0.1938362649734924    0.8787329543934296    C1947
    0.1016651638082302    0.5271695983068256    0.2120662877267629    C1948
    0.1016651638082302    0.5271695983068256    0.5453996210600963    C1949
    0.1016651638082302    0.5271695983068256    0.8787329543934296    C1950
    0.1016651638082302    0.8605029316401590    0.2120662877267629    C1951
    0.1016651638082302    0.8605029316401590    0.5453996210600963    C1952
    0.1016651638082302    0.8605029316401590    0.8787329543934296    C1953
    0.4349984971415636    0.1938362649734924    0.2120662877267629    C1954
    0.4349984971415636    0.1938362649734924    0.5453996210600963    C1955
    0.4349984971415636    0.1938362649734924    0.8787329543934296    C1956
    0.4349984971415636    0.5271695983068256    0.2120662877267629    C1957
    0.4349984971415636    0.5271695983068256    0.5453996210600963    C1958
    0.4349984971415636    0.5271695983068256    0.8787329543934296    C1959
    0.4349984971415636    0.8605029316401590    0.2120662877267629    C1960
    0.4349984971415636    0.8605029316401590    0.5453996210600963    C1961
    0.4349984971415636    0.8605029316401590    0.8787329543934296    C1962
    0.7683318304748968    0.1938362649734924    0.2120662877267629    C1963
    0.7683318304748968    0.1938362649734924    0.5453996210600963    C1964
    0.7683318304748968    0.1938362649734924    0.8787329543934296    C1965
    0.7683318304748968    0.5271695983068256    0.2120662877267629    C1966
    0.7683318304748968    0.5271695983068256    0.5453996210600963    C1967
    0.7683318304748968    0.5271695983068256    0.8787329543934296    C1968
    0.7683318304748968    0.8605029316401590    0.2120662877267629    C1969
    0.7683318304748968    0.8605029316401590    0.5453996210600963    C1970
    0.7683318304748968    0.8605029316401590    0.8787329543934296    C1971
    0.1037142278039335    0.0995967944771088    0.1885900458876157    C1972
    0.1037142278039335    0.0995967944771088    0.5219233792209491    C1973
    0.1037142278039335    0.0995967944771088    0.8552567125542825    C1974
    0.1037142278039335    0.4329301278104422    0.1885900458876157    C1975
    0.1037142278039335    0.4329301278104422    0.5219233792209491    C1976
    0.1037142278039335    0.4329301278104422    0.8552567125542825    C1977
    0.1037142278039335    0.7662634611437755    0.1885900458876157    C1978
    0.1037142278039335    0.7662634611437755    0.5219233792209491    C1979
    0.1037142278039335    0.7662634611437755    0.8552567125542825    C1980
    0.4370475611372668    0.0995967944771088    0.1885900458876157    C1981
    0.4370475611372668    0.0995967944771088    0.5219233792209491    C1982
    0.4370475611372668    0.0995967944771088    0.8552567125542825    C1983
    0.4370475611372668    0.4329301278104422    0.1885900458876157    C1984
    0.4370475611372668    0.4329301278104422    0.5219233792209491    C1985
    0.4370475611372668    0.4329301278104422    0.8552567125542825    C1986
    0.4370475611372668    0.7662634611437755    0.1885900458876157    C1987
    0.4370475611372668    0.7662634611437755    0.5219233792209491    C1988
    0.4370475611372668    0.7662634611437755    0.8552567125542825    C1989
    0.7703808944706002    0.0995967944771088    0.1885900458876157    C1990
    0.7703808944706002    0.0995967944771088    0.5219233792209491    C1991
    0.7703808944706002    0.0995967944771088    0.8552567125542825    C1992
    0.7703808944706002    0.4329301278104422    0.1885900458876157    C1993
    0.7703808944706002    0.4329301278104422    0.5219233792209491    C1994
    0.7703808944706002    0.4329301278104422    0.8552567125542825    C1995
    0.7703808944706002    0.7662634611437755    0.1885900458876157    C1996
    0.7703808944706002    0.7662634611437755    0.5219233792209491    C1997
    0.7703808944706002    0.7662634611437755    0.8552567125542825    C1998
    0.9516762638651075    0.0395409983058309    0.4274960051802954    C1999
    0.9516762638651075    0.0395409983058309    0.7608293385136288    C2000
    0.9516762638651075    0.0395409983058309    0.0941626718469621    C2001
    0.9516762638651075    0.3728743316391643    0.4274960051802954    C2002
    0.9516762638651075    0.3728743316391643    0.7608293385136288    C2003
    0.9516762638651075    0.3728743316391643    0.0941626718469621    C2004
    0.9516762638651075    0.7062076649724975    0.4274960051802954    C2005
    0.9516762638651075    0.7062076649724975    0.7608293385136288    C2006
    0.9516762638651075    0.7062076649724975    0.0941626718469621    C2007
    0.2850095971984409    0.0395409983058309    0.4274960051802954    C2008
    0.2850095971984409    0.0395409983058309    0.7608293385136288    C2009
    0.2850095971984409    0.0395409983058309    0.0941626718469621    C2010
    0.2850095971984409    0.3728743316391643    0.4274960051802954    C2011
    0.2850095971984409    0.3728743316391643    0.7608293385136288    C2012
    0.2850095971984409    0.3728743316391643    0.0941626718469621    C2013
    0.2850095971984409    0.7062076649724975    0.4274960051802954    C2014
    0.2850095971984409    0.7062076649724975    0.7608293385136288    C2015
    0.2850095971984409    0.7062076649724975    0.0941626718469621    C2016
    0.6183429305317741    0.0395409983058309    0.4274960051802954    C2017
    0.6183429305317741    0.0395409983058309    0.7608293385136288    C2018
    0.6183429305317741    0.0395409983058309    0.0941626718469621    C2019
    0.6183429305317741    0.3728743316391643    0.4274960051802954    C2020
    0.6183429305317741    0.3728743316391643    0.7608293385136288    C2021
    0.6183429305317741    0.3728743316391643    0.0941626718469621    C2022
    0.6183429305317741    0.7062076649724975    0.4274960051802954    C2023
    0.6183429305317741    0.7062076649724975    0.7608293385136288    C2024
    0.6183429305317741    0.7062076649724975    0.0941626718469621    C2025
    0.0781415895239481    0.1488580175451093    0.2161960558676346    C2026
    0.0781415895239481    0.1488580175451093    0.5495293892009679    C2027
    0.0781415895239481    0.1488580175451093    0.8828627225343012    C2028
    0.0781415895239481    0.4821913508784426    0.2161960558676346    C2029
    0.0781415895239481    0.4821913508784426    0.5495293892009679    C2030
    0.0781415895239481    0.4821913508784426    0.8828627225343012    C2031
    0.0781415895239481    0.8155246842117759    0.2161960558676346    C2032
    0.0781415895239481    0.8155246842117759    0.5495293892009679    C2033
    0.0781415895239481    0.8155246842117759    0.8828627225343012    C2034
    0.4114749228572814    0.1488580175451093    0.2161960558676346    C2035
    0.4114749228572814    0.1488580175451093    0.5495293892009679    C2036
    0.4114749228572814    0.1488580175451093    0.8828627225343012    C2037
    0.4114749228572814    0.4821913508784426    0.2161960558676346    C2038
    0.4114749228572814    0.4821913508784426    0.5495293892009679    C2039
    0.4114749228572814    0.4821913508784426    0.8828627225343012    C2040
    0.4114749228572814    0.8155246842117759    0.2161960558676346    C2041
    0.4114749228572814    0.8155246842117759    0.5495293892009679    C2042
    0.4114749228572814    0.8155246842117759    0.8828627225343012    C2043
    0.7448082561906147    0.1488580175451093    0.2161960558676346    C2044
    0.7448082561906147    0.1488580175451093    0.5495293892009679    C2045
    0.7448082561906147    0.1488580175451093    0.8828627225343012    C2046
    0.7448082561906147    0.4821913508784426    0.2161960558676346    C2047
    0.7448082561906147    0.4821913508784426    0.5495293892009679    C2048
    0.7448082561906147    0.4821913508784426    0.8828627225343012    C2049
    0.7448082561906147    0.8155246842117759    0.2161960558676346    C2050
    0.7448082561906147    0.8155246842117759    0.5495293892009679    C2051
    0.7448082561906147    0.8155246842117759    0.8828627225343012    C2052
    0.6649777762731204    0.9127665301431622    0.1871529491639554    C2053
    0.6649777762731204    0.9127665301431622    0.5204862824972888    C2054
    0.6649777762731204    0.9127665301431622    0.8538196158306222    C2055
    0.6649777762731204    0.2460998634764955    0.1871529491639554    C2056
    0.6649777762731204    0.2460998634764955    0.5204862824972888    C2057
    0.6649777762731204    0.2460998634764955    0.8538196158306222    C2058
    0.6649777762731204    0.5794331968098287    0.1871529491639554    C2059
    0.6649777762731204    0.5794331968098287    0.5204862824972888    C2060
    0.6649777762731204    0.5794331968098287    0.8538196158306222    C2061
    0.9983111096064536    0.9127665301431622    0.1871529491639554    C2062
    0.9983111096064536    0.9127665301431622    0.5204862824972888    C2063
    0.9983111096064536    0.9127665301431622    0.8538196158306222    C2064
    0.9983111096064536    0.2460998634764955    0.1871529491639554    C2065
    0.9983111096064536    0.2460998634764955    0.5204862824972888    C2066
    0.9983111096064536    0.2460998634764955    0.8538196158306222    C2067
    0.9983111096064536    0.5794331968098287    0.1871529491639554    C2068
    0.9983111096064536    0.5794331968098287    0.5204862824972888    C2069
    0.9983111096064536    0.5794331968098287    0.8538196158306222    C2070
    0.3316444429397869    0.9127665301431622    0.1871529491639554    C2071
    0.3316444429397869    0.9127665301431622    0.5204862824972888    C2072
    0.3316444429397869    0.9127665301431622    0.8538196158306222    C2073
    0.3316444429397869    0.2460998634764955    0.1871529491639554    C2074
    0.3316444429397869    0.2460998634764955    0.5204862824972888    C2075
    0.3316444429397869    0.2460998634764955    0.8538196158306222    C2076
    0.3316444429397869    0.5794331968098287    0.1871529491639554    C2077
    0.3316444429397869    0.5794331968098287    0.5204862824972888    C2078
    0.3316444429397869    0.5794331968098287    0.8538196158306222    C2079
    0.8564620653489317    0.9495177588011008    0.2350295216607894    C2080
    0.8564620653489317    0.9495177588011008    0.5683628549941226    C2081
    0.8564620653489317    0.9495177588011008    0.9016961883274559    C2082
    0.8564620653489317    0.2828510921344342    0.2350295216607894    C2083
    0.8564620653489317    0.2828510921344342    0.5683628549941226    C2084
    0.8564620653489317    0.2828510921344342    0.9016961883274559    C2085
    0.8564620653489317    0.6161844254677674    0.2350295216607894    C2086
    0.8564620653489317    0.6161844254677674    0.5683628549941226    C2087
    0.8564620653489317    0.6161844254677674    0.9016961883274559    C2088
    0.1897953986822650    0.9495177588011008    0.2350295216607894    C2089
    0.1897953986822650    0.9495177588011008    0.5683628549941226    C2090
    0.1897953986822650    0.9495177588011008    0.9016961883274559    C2091
    0.1897953986822650    0.2828510921344342    0.2350295216607894    C2092
    0.1897953986822650    0.2828510921344342    0.5683628549941226    C2093
    0.1897953986822650    0.2828510921344342    0.9016961883274559    C2094
    0.1897953986822650    0.6161844254677674    0.2350295216607894    C2095
    0.1897953986822650    0.6161844254677674    0.5683628549941226    C2096
    0.1897953986822650    0.6161844254677674    0.9016961883274559    C2097
    0.5231287320155984    0.9495177588011008    0.2350295216607894    C2098
    0.5231287320155984    0.9495177588011008    0.5683628549941226    C2099
    0.5231287320155984    0.9495177588011008    0.9016961883274559    C2100
    0.5231287320155984    0.2828510921344342    0.2350295216607894    C2101
    0.5231287320155984    0.2828510921344342    0.5683628549941226    C2102
    0.5231287320155984    0.2828510921344342    0.9016961883274559    C2103
    0.5231287320155984    0.6161844254677674    0.2350295216607894    C2104
    0.5231287320155984    0.6161844254677674    0.5683628549941226    C2105
    0.5231287320155984    0.6161844254677674    0.9016961883274559    C2106
    0.9209133399541312    0.9105225504768555    0.5690520837975012    C2107
    0.9209133399541312    0.9105225504768555    0.9023854171308344    C2108
    0.9209133399541312    0.9105225504768555    0.2357187504641678    C2109
    0.9209133399541312    0.2438558838101889    0.5690520837975012    C2110
    0.9209133399541312    0.2438558838101889    0.9023854171308344    C2111
    0.9209133399541312    0.2438558838101889    0.2357187504641678    C2112
    0.9209133399541312    0.5771892171435222    0.5690520837975012    C2113
    0.9209133399541312    0.5771892171435222    0.9023854171308344    C2114
    0.9209133399541312    0.5771892171435222    0.2357187504641678    C2115
    0.2542466732874644    0.9105225504768555    0.5690520837975012    C2116
    0.2542466732874644    0.9105225504768555    0.9023854171308344    C2117
    0.2542466732874644    0.9105225504768555    0.2357187504641678    C2118
    0.2542466732874644    0.2438558838101889    0.5690520837975012    C2119
    0.2542466732874644    0.2438558838101889    0.9023854171308344    C2120
    0.2542466732874644    0.2438558838101889    0.2357187504641678    C2121
    0.2542466732874644    0.5771892171435222    0.5690520837975012    C2122
    0.2542466732874644    0.5771892171435222    0.9023854171308344    C2123
    0.2542466732874644    0.5771892171435222    0.2357187504641678    C2124
    0.5875800066207977    0.9105225504768555    0.5690520837975012    C2125
    0.5875800066207977    0.9105225504768555    0.9023854171308344    C2126
    0.5875800066207977    0.9105225504768555    0.2357187504641678    C2127
    0.5875800066207977    0.2438558838101889    0.5690520837975012    C2128
    0.5875800066207977    0.2438558838101889    0.9023854171308344    C2129
    0.5875800066207977    0.2438558838101889    0.2357187504641678    C2130
    0.5875800066207977    0.5771892171435222    0.5690520837975012    C2131
    0.5875800066207977    0.5771892171435222    0.9023854171308344    C2132
    0.5875800066207977    0.5771892171435222    0.2357187504641678    C2133
    0.1756516156666054    0.6983648172822303    0.2979645858150616     H001
    0.1756516156666054    0.6983648172822303    0.6312979191483949     H002
    0.1756516156666054    0.6983648172822303    0.9646312524817282     H003
    0.1756516156666054    0.0316981506155636    0.2979645858150616     H004
    0.1756516156666054    0.0316981506155636    0.6312979191483949     H005
    0.1756516156666054    0.0316981506155636    0.9646312524817282     H006
    0.1756516156666054    0.3650314839488970    0.2979645858150616     H007
    0.1756516156666054    0.3650314839488970    0.6312979191483949     H008
    0.1756516156666054    0.3650314839488970    0.9646312524817282     H009
    0.5089849489999387    0.6983648172822303    0.2979645858150616     H010
    0.5089849489999387    0.6983648172822303    0.6312979191483949     H011
    0.5089849489999387    0.6983648172822303    0.9646312524817282     H012
    0.5089849489999387    0.0316981506155636    0.2979645858150616     H013
    0.5089849489999387    0.0316981506155636    0.6312979191483949     H014
    0.5089849489999387    0.0316981506155636    0.9646312524817282     H015
    0.5089849489999387    0.3650314839488970    0.2979645858150616     H016
    0.5089849489999387    0.3650314839488970    0.6312979191483949     H017
    0.5089849489999387    0.3650314839488970    0.9646312524817282     H018
    0.8423182823332720    0.6983648172822303    0.2979645858150616     H019
    0.8423182823332720    0.6983648172822303    0.6312979191483949     H020
    0.8423182823332720    0.6983648172822303    0.9646312524817282     H021
    0.8423182823332720    0.0316981506155636    0.2979645858150616     H022
    0.8423182823332720    0.0316981506155636    0.6312979191483949     H023
    0.8423182823332720    0.0316981506155636    0.9646312524817282     H024
    0.8423182823332720    0.3650314839488970    0.2979645858150616     H025
    0.8423182823332720    0.3650314839488970    0.6312979191483949     H026
    0.8423182823332720    0.3650314839488970    0.9646312524817282     H027
    0.1391277905766475    0.8754004709957679    0.3584722710354612     H028
    0.1391277905766475    0.8754004709957679    0.6918056043687946     H029
    0.1391277905766475    0.8754004709957679    0.0251389377021278     H030
    0.1391277905766475    0.2087338043291012    0.3584722710354612     H031
    0.1391277905766475    0.2087338043291012    0.6918056043687946     H032
    0.1391277905766475    0.2087338043291012    0.0251389377021278     H033
    0.1391277905766475    0.5420671376624344    0.3584722710354612     H034
    0.1391277905766475    0.5420671376624344    0.6918056043687946     H035
    0.1391277905766475    0.5420671376624344    0.0251389377021278     H036
    0.4724611239099809    0.8754004709957679    0.3584722710354612     H037
    0.4724611239099809    0.8754004709957679    0.6918056043687946     H038
    0.4724611239099809    0.8754004709957679    0.0251389377021278     H039
    0.4724611239099809    0.2087338043291012    0.3584722710354612     H040
    0.4724611239099809    0.2087338043291012    0.6918056043687946     H041
    0.4724611239099809    0.2087338043291012    0.0251389377021278     H042
    0.4724611239099809    0.5420671376624344    0.3584722710354612     H043
    0.4724611239099809    0.5420671376624344    0.6918056043687946     H044
    0.4724611239099809    0.5420671376624344    0.0251389377021278     H045
    0.8057944572433142    0.8754004709957679    0.3584722710354612     H046
    0.8057944572433142    0.8754004709957679    0.6918056043687946     H047
    0.8057944572433142    0.8754004709957679    0.0251389377021278     H048
    0.8057944572433142    0.2087338043291012    0.3584722710354612     H049
    0.8057944572433142    0.2087338043291012    0.6918056043687946     H050
    0.8057944572433142    0.2087338043291012    0.0251389377021278     H051
    0.8057944572433142    0.5420671376624344    0.3584722710354612     H052
    0.8057944572433142    0.5420671376624344    0.6918056043687946     H053
    0.8057944572433142    0.5420671376624344    0.0251389377021278     H054
    0.9067062122706044    0.8813008437637215    0.5946646951036290     H055
    0.9067062122706044    0.8813008437637215    0.9279980284369623     H056
    0.9067062122706044    0.8813008437637215    0.2613313617702956     H057
    0.9067062122706044    0.2146341770970548    0.5946646951036290     H058
    0.9067062122706044    0.2146341770970548    0.9279980284369623     H059
    0.9067062122706044    0.2146341770970548    0.2613313617702956     H060
    0.9067062122706044    0.5479675104303880    0.5946646951036290     H061
    0.9067062122706044    0.5479675104303880    0.9279980284369623     H062
    0.9067062122706044    0.5479675104303880    0.2613313617702956     H063
    0.2400395456039378    0.8813008437637215    0.5946646951036290     H064
    0.2400395456039378    0.8813008437637215    0.9279980284369623     H065
    0.2400395456039378    0.8813008437637215    0.2613313617702956     H066
    0.2400395456039378    0.2146341770970548    0.5946646951036290     H067
    0.2400395456039378    0.2146341770970548    0.9279980284369623     H068
    0.2400395456039378    0.2146341770970548    0.2613313617702956     H069
    0.2400395456039378    0.5479675104303880    0.5946646951036290     H070
    0.2400395456039378    0.5479675104303880    0.9279980284369623     H071
    0.2400395456039378    0.5479675104303880    0.2613313617702956     H072
    0.5733728789372711    0.8813008437637215    0.5946646951036290     H073
    0.5733728789372711    0.8813008437637215    0.9279980284369623     H074
    0.5733728789372711    0.8813008437637215    0.2613313617702956     H075
    0.5733728789372711    0.2146341770970548    0.5946646951036290     H076
    0.5733728789372711    0.2146341770970548    0.9279980284369623     H077
    0.5733728789372711    0.2146341770970548    0.2613313617702956     H078
    0.5733728789372711    0.5479675104303880    0.5946646951036290     H079
    0.5733728789372711    0.5479675104303880    0.9279980284369623     H080
    0.5733728789372711    0.5479675104303880    0.2613313617702956     H081
    0.9821541199087425    0.8827378205966534    0.3364396269286745     H082
    0.9821541199087425    0.8827378205966534    0.6697729602620077     H083
    0.9821541199087425    0.8827378205966534    0.0031062935953411     H084
    0.9821541199087425    0.2160711539299867    0.3364396269286745     H085
    0.9821541199087425    0.2160711539299867    0.6697729602620077     H086
    0.9821541199087425    0.2160711539299867    0.0031062935953411     H087
    0.9821541199087425    0.5494044872633199    0.3364396269286745     H088
    0.9821541199087425    0.5494044872633199    0.6697729602620077     H089
    0.9821541199087425    0.5494044872633199    0.0031062935953411     H090
    0.3154874532420757    0.8827378205966534    0.3364396269286745     H091
    0.3154874532420757    0.8827378205966534    0.6697729602620077     H092
    0.3154874532420757    0.8827378205966534    0.0031062935953411     H093
    0.3154874532420757    0.2160711539299867    0.3364396269286745     H094
    0.3154874532420757    0.2160711539299867    0.6697729602620077     H095
    0.3154874532420757    0.2160711539299867    0.0031062935953411     H096
    0.3154874532420757    0.5494044872633199    0.3364396269286745     H097
    0.3154874532420757    0.5494044872633199    0.6697729602620077     H098
    0.3154874532420757    0.5494044872633199    0.0031062935953411     H099
    0.6488207865754090    0.8827378205966534    0.3364396269286745     H100
    0.6488207865754090    0.8827378205966534    0.6697729602620077     H101
    0.6488207865754090    0.8827378205966534    0.0031062935953411     H102
    0.6488207865754090    0.2160711539299867    0.3364396269286745     H103
    0.6488207865754090    0.2160711539299867    0.6697729602620077     H104
    0.6488207865754090    0.2160711539299867    0.0031062935953411     H105
    0.6488207865754090    0.5494044872633199    0.3364396269286745     H106
    0.6488207865754090    0.5494044872633199    0.6697729602620077     H107
    0.6488207865754090    0.5494044872633199    0.0031062935953411     H108
    0.8955909023093516    0.2324741964846034    0.0572528585469482     H109
    0.8955909023093516    0.2324741964846034    0.3905861918802815     H110
    0.8955909023093516    0.2324741964846034    0.7239195252136149     H111
    0.8955909023093516    0.5658075298179368    0.0572528585469482     H112
    0.8955909023093516    0.5658075298179368    0.3905861918802815     H113
    0.8955909023093516    0.5658075298179368    0.7239195252136149     H114
    0.8955909023093516    0.8991408631512701    0.0572528585469482     H115
    0.8955909023093516    0.8991408631512701    0.3905861918802815     H116
    0.8955909023093516    0.8991408631512701    0.7239195252136149     H117
    0.2289242356426848    0.2324741964846034    0.0572528585469482     H118
    0.2289242356426848    0.2324741964846034    0.3905861918802815     H119
    0.2289242356426848    0.2324741964846034    0.7239195252136149     H120
    0.2289242356426848    0.5658075298179368    0.0572528585469482     H121
    0.2289242356426848    0.5658075298179368    0.3905861918802815     H122
    0.2289242356426848    0.5658075298179368    0.7239195252136149     H123
    0.2289242356426848    0.8991408631512701    0.0572528585469482     H124
    0.2289242356426848    0.8991408631512701    0.3905861918802815     H125
    0.2289242356426848    0.8991408631512701    0.7239195252136149     H126
    0.5622575689760181    0.2324741964846034    0.0572528585469482     H127
    0.5622575689760181    0.2324741964846034    0.3905861918802815     H128
    0.5622575689760181    0.2324741964846034    0.7239195252136149     H129
    0.5622575689760181    0.5658075298179368    0.0572528585469482     H130
    0.5622575689760181    0.5658075298179368    0.3905861918802815     H131
    0.5622575689760181    0.5658075298179368    0.7239195252136149     H132
    0.5622575689760181    0.8991408631512701    0.0572528585469482     H133
    0.5622575689760181    0.8991408631512701    0.3905861918802815     H134
    0.5622575689760181    0.8991408631512701    0.7239195252136149     H135
    0.1381059286580431    0.0377789066939521    0.0912252344952891     H136
    0.1381059286580431    0.0377789066939521    0.4245585678286224     H137
    0.1381059286580431    0.0377789066939521    0.7578919011619558     H138
    0.1381059286580431    0.3711122400272855    0.0912252344952891     H139
    0.1381059286580431    0.3711122400272855    0.4245585678286224     H140
    0.1381059286580431    0.3711122400272855    0.7578919011619558     H141
    0.1381059286580431    0.7044455733606187    0.0912252344952891     H142
    0.1381059286580431    0.7044455733606187    0.4245585678286224     H143
    0.1381059286580431    0.7044455733606187    0.7578919011619558     H144
    0.4714392619913763    0.0377789066939521    0.0912252344952891     H145
    0.4714392619913763    0.0377789066939521    0.4245585678286224     H146
    0.4714392619913763    0.0377789066939521    0.7578919011619558     H147
    0.4714392619913763    0.3711122400272855    0.0912252344952891     H148
    0.4714392619913763    0.3711122400272855    0.4245585678286224     H149
    0.4714392619913763    0.3711122400272855    0.7578919011619558     H150
    0.4714392619913763    0.7044455733606187    0.0912252344952891     H151
    0.4714392619913763    0.7044455733606187    0.4245585678286224     H152
    0.4714392619913763    0.7044455733606187    0.7578919011619558     H153
    0.8047725953247096    0.0377789066939521    0.0912252344952891     H154
    0.8047725953247096    0.0377789066939521    0.4245585678286224     H155
    0.8047725953247096    0.0377789066939521    0.7578919011619558     H156
    0.8047725953247096    0.3711122400272855    0.0912252344952891     H157
    0.8047725953247096    0.3711122400272855    0.4245585678286224     H158
    0.8047725953247096    0.3711122400272855    0.7578919011619558     H159
    0.8047725953247096    0.7044455733606187    0.0912252344952891     H160
    0.8047725953247096    0.7044455733606187    0.4245585678286224     H161
    0.8047725953247096    0.7044455733606187    0.7578919011619558     H162
    0.0156201445780959    0.8187870705294527    0.3315895412279704     H163
    0.0156201445780959    0.8187870705294527    0.6649228745613036     H164
    0.0156201445780959    0.8187870705294527    0.9982562078946370     H165
    0.0156201445780959    0.1521204038627859    0.3315895412279704     H166
    0.0156201445780959    0.1521204038627859    0.6649228745613036     H167
    0.0156201445780959    0.1521204038627859    0.9982562078946370     H168
    0.0156201445780959    0.4854537371961193    0.3315895412279704     H169
    0.0156201445780959    0.4854537371961193    0.6649228745613036     H170
    0.0156201445780959    0.4854537371961193    0.9982562078946370     H171
    0.3489534779114293    0.8187870705294527    0.3315895412279704     H172
    0.3489534779114293    0.8187870705294527    0.6649228745613036     H173
    0.3489534779114293    0.8187870705294527    0.9982562078946370     H174
    0.3489534779114293    0.1521204038627859    0.3315895412279704     H175
    0.3489534779114293    0.1521204038627859    0.6649228745613036     H176
    0.3489534779114293    0.1521204038627859    0.9982562078946370     H177
    0.3489534779114293    0.4854537371961193    0.3315895412279704     H178
    0.3489534779114293    0.4854537371961193    0.6649228745613036     H179
    0.3489534779114293    0.4854537371961193    0.9982562078946370     H180
    0.6822868112447626    0.8187870705294527    0.3315895412279704     H181
    0.6822868112447626    0.8187870705294527    0.6649228745613036     H182
    0.6822868112447626    0.8187870705294527    0.9982562078946370     H183
    0.6822868112447626    0.1521204038627859    0.3315895412279704     H184
    0.6822868112447626    0.1521204038627859    0.6649228745613036     H185
    0.6822868112447626    0.1521204038627859    0.9982562078946370     H186
    0.6822868112447626    0.4854537371961193    0.3315895412279704     H187
    0.6822868112447626    0.4854537371961193    0.6649228745613036     H188
    0.6822868112447626    0.4854537371961193    0.9982562078946370     H189
    0.9778895704799484    0.9536268273625494    0.5521422046881718     H190
    0.9778895704799484    0.9536268273625494    0.8854755380215050     H191
    0.9778895704799484    0.9536268273625494    0.2188088713548384     H192
    0.9778895704799484    0.2869601606958828    0.5521422046881718     H193
    0.9778895704799484    0.2869601606958828    0.8854755380215050     H194
    0.9778895704799484    0.2869601606958828    0.2188088713548384     H195
    0.9778895704799484    0.6202934940292162    0.5521422046881718     H196
    0.9778895704799484    0.6202934940292162    0.8854755380215050     H197
    0.9778895704799484    0.6202934940292162    0.2188088713548384     H198
    0.3112229038132818    0.9536268273625494    0.5521422046881718     H199
    0.3112229038132818    0.9536268273625494    0.8854755380215050     H200
    0.3112229038132818    0.9536268273625494    0.2188088713548384     H201
    0.3112229038132818    0.2869601606958828    0.5521422046881718     H202
    0.3112229038132818    0.2869601606958828    0.8854755380215050     H203
    0.3112229038132818    0.2869601606958828    0.2188088713548384     H204
    0.3112229038132818    0.6202934940292162    0.5521422046881718     H205
    0.3112229038132818    0.6202934940292162    0.8854755380215050     H206
    0.3112229038132818    0.6202934940292162    0.2188088713548384     H207
    0.6445562371466151    0.9536268273625494    0.5521422046881718     H208
    0.6445562371466151    0.9536268273625494    0.8854755380215050     H209
    0.6445562371466151    0.9536268273625494    0.2188088713548384     H210
    0.6445562371466151    0.2869601606958828    0.5521422046881718     H211
    0.6445562371466151    0.2869601606958828    0.8854755380215050     H212
    0.6445562371466151    0.2869601606958828    0.2188088713548384     H213
    0.6445562371466151    0.6202934940292162    0.5521422046881718     H214
    0.6445562371466151    0.6202934940292162    0.8854755380215050     H215
    0.6445562371466151    0.6202934940292162    0.2188088713548384     H216
    0.0699608159216399    0.2545624096709382    0.3951426050841247     H217
    0.0699608159216399    0.2545624096709382    0.7284759384174579     H218
    0.0699608159216399    0.2545624096709382    0.0618092717507913     H219
    0.0699608159216399    0.5878957430042715    0.3951426050841247     H220
    0.0699608159216399    0.5878957430042715    0.7284759384174579     H221
    0.0699608159216399    0.5878957430042715    0.0618092717507913     H222
    0.0699608159216399    0.9212290763376048    0.3951426050841247     H223
    0.0699608159216399    0.9212290763376048    0.7284759384174579     H224
    0.0699608159216399    0.9212290763376048    0.0618092717507913     H225
    0.4032941492549733    0.2545624096709382    0.3951426050841247     H226
    0.4032941492549733    0.2545624096709382    0.7284759384174579     H227
    0.4032941492549733    0.2545624096709382    0.0618092717507913     H228
    0.4032941492549733    0.5878957430042715    0.3951426050841247     H229
    0.4032941492549733    0.5878957430042715    0.7284759384174579     H230
    0.4032941492549733    0.5878957430042715    0.0618092717507913     H231
    0.4032941492549733    0.9212290763376048    0.3951426050841247     H232
    0.4032941492549733    0.9212290763376048    0.7284759384174579     H233
    0.4032941492549733    0.9212290763376048    0.0618092717507913     H234
    0.7366274825883066    0.2545624096709382    0.3951426050841247     H235
    0.7366274825883066    0.2545624096709382    0.7284759384174579     H236
    0.7366274825883066    0.2545624096709382    0.0618092717507913     H237
    0.7366274825883066    0.5878957430042715    0.3951426050841247     H238
    0.7366274825883066    0.5878957430042715    0.7284759384174579     H239
    0.7366274825883066    0.5878957430042715    0.0618092717507913     H240
    0.7366274825883066    0.9212290763376048    0.3951426050841247     H241
    0.7366274825883066    0.9212290763376048    0.7284759384174579     H242
    0.7366274825883066    0.9212290763376048    0.0618092717507913     H243
    0.9506386757798260    0.8747960093146379    0.5429986824073342     H244
    0.9506386757798260    0.8747960093146379    0.8763320157406674     H245
    0.9506386757798260    0.8747960093146379    0.2096653490740008     H246
    0.9506386757798260    0.2081293426479711    0.5429986824073342     H247
    0.9506386757798260    0.2081293426479711    0.8763320157406674     H248
    0.9506386757798260    0.2081293426479711    0.2096653490740008     H249
    0.9506386757798260    0.5414626759813044    0.5429986824073342     H250
    0.9506386757798260    0.5414626759813044    0.8763320157406674     H251
    0.9506386757798260    0.5414626759813044    0.2096653490740008     H252
    0.2839720091131592    0.8747960093146379    0.5429986824073342     H253
    0.2839720091131592    0.8747960093146379    0.8763320157406674     H254
    0.2839720091131592    0.8747960093146379    0.2096653490740008     H255
    0.2839720091131592    0.2081293426479711    0.5429986824073342     H256
    0.2839720091131592    0.2081293426479711    0.8763320157406674     H257
    0.2839720091131592    0.2081293426479711    0.2096653490740008     H258
    0.2839720091131592    0.5414626759813044    0.5429986824073342     H259
    0.2839720091131592    0.5414626759813044    0.8763320157406674     H260
    0.2839720091131592    0.5414626759813044    0.2096653490740008     H261
    0.6173053424464925    0.8747960093146379    0.5429986824073342     H262
    0.6173053424464925    0.8747960093146379    0.8763320157406674     H263
    0.6173053424464925    0.8747960093146379    0.2096653490740008     H264
    0.6173053424464925    0.2081293426479711    0.5429986824073342     H265
    0.6173053424464925    0.2081293426479711    0.8763320157406674     H266
    0.6173053424464925    0.2081293426479711    0.2096653490740008     H267
    0.6173053424464925    0.5414626759813044    0.5429986824073342     H268
    0.6173053424464925    0.5414626759813044    0.8763320157406674     H269
    0.6173053424464925    0.5414626759813044    0.2096653490740008     H270
    0.1417848838498171    0.8160522914921291    0.4146936211716169     H271
    0.1417848838498171    0.8160522914921291    0.7480269545049503     H272
    0.1417848838498171    0.8160522914921291    0.0813602878382835     H273
    0.1417848838498171    0.1493856248254624    0.4146936211716169     H274
    0.1417848838498171    0.1493856248254624    0.7480269545049503     H275
    0.1417848838498171    0.1493856248254624    0.0813602878382835     H276
    0.1417848838498171    0.4827189581587956    0.4146936211716169     H277
    0.1417848838498171    0.4827189581587956    0.7480269545049503     H278
    0.1417848838498171    0.4827189581587956    0.0813602878382835     H279
    0.4751182171831504    0.8160522914921291    0.4146936211716169     H280
    0.4751182171831504    0.8160522914921291    0.7480269545049503     H281
    0.4751182171831504    0.8160522914921291    0.0813602878382835     H282
    0.4751182171831504    0.1493856248254624    0.4146936211716169     H283
    0.4751182171831504    0.1493856248254624    0.7480269545049503     H284
    0.4751182171831504    0.1493856248254624    0.0813602878382835     H285
    0.4751182171831504    0.4827189581587956    0.4146936211716169     H286
    0.4751182171831504    0.4827189581587956    0.7480269545049503     H287
    0.4751182171831504    0.4827189581587956    0.0813602878382835     H288
    0.8084515505164838    0.8160522914921291    0.4146936211716169     H289
    0.8084515505164838    0.8160522914921291    0.7480269545049503     H290
    0.8084515505164838    0.8160522914921291    0.0813602878382835     H291
    0.8084515505164838    0.1493856248254624    0.4146936211716169     H292
    0.8084515505164838    0.1493856248254624    0.7480269545049503     H293
    0.8084515505164838    0.1493856248254624    0.0813602878382835     H294
    0.8084515505164838    0.4827189581587956    0.4146936211716169     H295
    0.8084515505164838    0.4827189581587956    0.7480269545049503     H296
    0.8084515505164838    0.4827189581587956    0.0813602878382835     H297
    0.1878613047160250    0.0316041329710612    0.0602652829947069     H298
    0.1878613047160250    0.0316041329710612    0.3935986163280403     H299
    0.1878613047160250    0.0316041329710612    0.7269319496613735     H300
    0.1878613047160250    0.3649374663043945    0.0602652829947069     H301
    0.1878613047160250    0.3649374663043945    0.3935986163280403     H302
    0.1878613047160250    0.3649374663043945    0.7269319496613735     H303
    0.1878613047160250    0.6982707996377278    0.0602652829947069     H304
    0.1878613047160250    0.6982707996377278    0.3935986163280403     H305
    0.1878613047160250    0.6982707996377278    0.7269319496613735     H306
    0.5211946380493584    0.0316041329710612    0.0602652829947069     H307
    0.5211946380493584    0.0316041329710612    0.3935986163280403     H308
    0.5211946380493584    0.0316041329710612    0.7269319496613735     H309
    0.5211946380493584    0.3649374663043945    0.0602652829947069     H310
    0.5211946380493584    0.3649374663043945    0.3935986163280403     H311
    0.5211946380493584    0.3649374663043945    0.7269319496613735     H312
    0.5211946380493584    0.6982707996377278    0.0602652829947069     H313
    0.5211946380493584    0.6982707996377278    0.3935986163280403     H314
    0.5211946380493584    0.6982707996377278    0.7269319496613735     H315
    0.8545279713826917    0.0316041329710612    0.0602652829947069     H316
    0.8545279713826917    0.0316041329710612    0.3935986163280403     H317
    0.8545279713826917    0.0316041329710612    0.7269319496613735     H318
    0.8545279713826917    0.3649374663043945    0.0602652829947069     H319
    0.8545279713826917    0.3649374663043945    0.3935986163280403     H320
    0.8545279713826917    0.3649374663043945    0.7269319496613735     H321
    0.8545279713826917    0.6982707996377278    0.0602652829947069     H322
    0.8545279713826917    0.6982707996377278    0.3935986163280403     H323
    0.8545279713826917    0.6982707996377278    0.7269319496613735     H324
    0.1094461658126660    0.7655712011399469    0.4246706161813496     H325
    0.1094461658126660    0.7655712011399469    0.7580039495146830     H326
    0.1094461658126660    0.7655712011399469    0.0913372828480163     H327
    0.1094461658126660    0.0989045344732803    0.4246706161813496     H328
    0.1094461658126660    0.0989045344732803    0.7580039495146830     H329
    0.1094461658126660    0.0989045344732803    0.0913372828480163     H330
    0.1094461658126660    0.4322378678066136    0.4246706161813496     H331
    0.1094461658126660    0.4322378678066136    0.7580039495146830     H332
    0.1094461658126660    0.4322378678066136    0.0913372828480163     H333
    0.4427794991459993    0.7655712011399469    0.4246706161813496     H334
    0.4427794991459993    0.7655712011399469    0.7580039495146830     H335
    0.4427794991459993    0.7655712011399469    0.0913372828480163     H336
    0.4427794991459993    0.0989045344732803    0.4246706161813496     H337
    0.4427794991459993    0.0989045344732803    0.7580039495146830     H338
    0.4427794991459993    0.0989045344732803    0.0913372828480163     H339
    0.4427794991459993    0.4322378678066136    0.4246706161813496     H340
    0.4427794991459993    0.4322378678066136    0.7580039495146830     H341
    0.4427794991459993    0.4322378678066136    0.0913372828480163     H342
    0.7761128324793326    0.7655712011399469    0.4246706161813496     H343
    0.7761128324793326    0.7655712011399469    0.7580039495146830     H344
    0.7761128324793326    0.7655712011399469    0.0913372828480163     H345
    0.7761128324793326    0.0989045344732803    0.4246706161813496     H346
    0.7761128324793326    0.0989045344732803    0.7580039495146830     H347
    0.7761128324793326    0.0989045344732803    0.0913372828480163     H348
    0.7761128324793326    0.4322378678066136    0.4246706161813496     H349
    0.7761128324793326    0.4322378678066136    0.7580039495146830     H350
    0.7761128324793326    0.4322378678066136    0.0913372828480163     H351
    0.0903474240737346    0.8071785951338466    0.3893125075771504     H352
    0.0903474240737346    0.8071785951338466    0.7226458409104838     H353
    0.0903474240737346    0.8071785951338466    0.0559791742438171     H354
    0.0903474240737346    0.1405119284671799    0.3893125075771504     H355
    0.0903474240737346    0.1405119284671799    0.7226458409104838     H356
    0.0903474240737346    0.1405119284671799    0.0559791742438171     H357
    0.0903474240737346    0.4738452618005131    0.3893125075771504     H358
    0.0903474240737346    0.4738452618005131    0.7226458409104838     H359
    0.0903474240737346    0.4738452618005131    0.0559791742438171     H360
    0.4236807574070680    0.8071785951338466    0.3893125075771504     H361
    0.4236807574070680    0.8071785951338466    0.7226458409104838     H362
    0.4236807574070680    0.8071785951338466    0.0559791742438171     H363
    0.4236807574070680    0.1405119284671799    0.3893125075771504     H364
    0.4236807574070680    0.1405119284671799    0.7226458409104838     H365
    0.4236807574070680    0.1405119284671799    0.0559791742438171     H366
    0.4236807574070680    0.4738452618005131    0.3893125075771504     H367
    0.4236807574070680    0.4738452618005131    0.7226458409104838     H368
    0.4236807574070680    0.4738452618005131    0.0559791742438171     H369
    0.7570140907404014    0.8071785951338466    0.3893125075771504     H370
    0.7570140907404014    0.8071785951338466    0.7226458409104838     H371
    0.7570140907404014    0.8071785951338466    0.0559791742438171     H372
    0.7570140907404014    0.1405119284671799    0.3893125075771504     H373
    0.7570140907404014    0.1405119284671799    0.7226458409104838     H374
    0.7570140907404014    0.1405119284671799    0.0559791742438171     H375
    0.7570140907404014    0.4738452618005131    0.3893125075771504     H376
    0.7570140907404014    0.4738452618005131    0.7226458409104838     H377
    0.7570140907404014    0.4738452618005131    0.0559791742438171     H378
    0.9288799018485090    0.9593594326830586    0.3130124331600770     H379
    0.9288799018485090    0.9593594326830586    0.6463457664934102     H380
    0.9288799018485090    0.9593594326830586    0.9796790998267435     H381
    0.9288799018485090    0.2926927660163918    0.3130124331600770     H382
    0.9288799018485090    0.2926927660163918    0.6463457664934102     H383
    0.9288799018485090    0.2926927660163918    0.9796790998267435     H384
    0.9288799018485090    0.6260260993497253    0.3130124331600770     H385
    0.9288799018485090    0.6260260993497253    0.6463457664934102     H386
    0.9288799018485090    0.6260260993497253    0.9796790998267435     H387
    0.2622132351818424    0.9593594326830586    0.3130124331600770     H388
    0.2622132351818424    0.9593594326830586    0.6463457664934102     H389
    0.2622132351818424    0.9593594326830586    0.9796790998267435     H390
    0.2622132351818424    0.2926927660163918    0.3130124331600770     H391
    0.2622132351818424    0.2926927660163918    0.6463457664934102     H392
    0.2622132351818424    0.2926927660163918    0.9796790998267435     H393
    0.2622132351818424    0.6260260993497253    0.3130124331600770     H394
    0.2622132351818424    0.6260260993497253    0.6463457664934102     H395
    0.2622132351818424    0.6260260993497253    0.9796790998267435     H396
    0.5955465685151756    0.9593594326830586    0.3130124331600770     H397
    0.5955465685151756    0.9593594326830586    0.6463457664934102     H398
    0.5955465685151756    0.9593594326830586    0.9796790998267435     H399
    0.5955465685151756    0.2926927660163918    0.3130124331600770     H400
    0.5955465685151756    0.2926927660163918    0.6463457664934102     H401
    0.5955465685151756    0.2926927660163918    0.9796790998267435     H402
    0.5955465685151756    0.6260260993497253    0.3130124331600770     H403
    0.5955465685151756    0.6260260993497253    0.6463457664934102     H404
    0.5955465685151756    0.6260260993497253    0.9796790998267435     H405
    0.0946237749541469    0.7558609745370612    0.3717414857252936     H406
    0.0946237749541469    0.7558609745370612    0.7050748190586269     H407
    0.0946237749541469    0.7558609745370612    0.0384081523919602     H408
    0.0946237749541469    0.0891943078703945    0.3717414857252936     H409
    0.0946237749541469    0.0891943078703945    0.7050748190586269     H410
    0.0946237749541469    0.0891943078703945    0.0384081523919602     H411
    0.0946237749541469    0.4225276412037279    0.3717414857252936     H412
    0.0946237749541469    0.4225276412037279    0.7050748190586269     H413
    0.0946237749541469    0.4225276412037279    0.0384081523919602     H414
    0.4279571082874802    0.7558609745370612    0.3717414857252936     H415
    0.4279571082874802    0.7558609745370612    0.7050748190586269     H416
    0.4279571082874802    0.7558609745370612    0.0384081523919602     H417
    0.4279571082874802    0.0891943078703945    0.3717414857252936     H418
    0.4279571082874802    0.0891943078703945    0.7050748190586269     H419
    0.4279571082874802    0.0891943078703945    0.0384081523919602     H420
    0.4279571082874802    0.4225276412037279    0.3717414857252936     H421
    0.4279571082874802    0.4225276412037279    0.7050748190586269     H422
    0.4279571082874802    0.4225276412037279    0.0384081523919602     H423
    0.7612904416208135    0.7558609745370612    0.3717414857252936     H424
    0.7612904416208135    0.7558609745370612    0.7050748190586269     H425
    0.7612904416208135    0.7558609745370612    0.0384081523919602     H426
    0.7612904416208135    0.0891943078703945    0.3717414857252936     H427
    0.7612904416208135    0.0891943078703945    0.7050748190586269     H428
    0.7612904416208135    0.0891943078703945    0.0384081523919602     H429
    0.7612904416208135    0.4225276412037279    0.3717414857252936     H430
    0.7612904416208135    0.4225276412037279    0.7050748190586269     H431
    0.7612904416208135    0.4225276412037279    0.0384081523919602     H432
    0.0555040197438967    0.1350697852192301    0.2420176024509737     H433
    0.0555040197438967    0.1350697852192301    0.5753509357843071     H434
    0.0555040197438967    0.1350697852192301    0.9086842691176403     H435
    0.0555040197438967    0.4684031185525634    0.2420176024509737     H436
    0.0555040197438967    0.4684031185525634    0.5753509357843071     H437
    0.0555040197438967    0.4684031185525634    0.9086842691176403     H438
    0.0555040197438967    0.8017364518858968    0.2420176024509737     H439
    0.0555040197438967    0.8017364518858968    0.5753509357843071     H440
    0.0555040197438967    0.8017364518858968    0.9086842691176403     H441
    0.3888373530772301    0.1350697852192301    0.2420176024509737     H442
    0.3888373530772301    0.1350697852192301    0.5753509357843071     H443
    0.3888373530772301    0.1350697852192301    0.9086842691176403     H444
    0.3888373530772301    0.4684031185525634    0.2420176024509737     H445
    0.3888373530772301    0.4684031185525634    0.5753509357843071     H446
    0.3888373530772301    0.4684031185525634    0.9086842691176403     H447
    0.3888373530772301    0.8017364518858968    0.2420176024509737     H448
    0.3888373530772301    0.8017364518858968    0.5753509357843071     H449
    0.3888373530772301    0.8017364518858968    0.9086842691176403     H450
    0.7221706864105634    0.1350697852192301    0.2420176024509737     H451
    0.7221706864105634    0.1350697852192301    0.5753509357843071     H452
    0.7221706864105634    0.1350697852192301    0.9086842691176403     H453
    0.7221706864105634    0.4684031185525634    0.2420176024509737     H454
    0.7221706864105634    0.4684031185525634    0.5753509357843071     H455
    0.7221706864105634    0.4684031185525634    0.9086842691176403     H456
    0.7221706864105634    0.8017364518858968    0.2420176024509737     H457
    0.7221706864105634    0.8017364518858968    0.5753509357843071     H458
    0.7221706864105634    0.8017364518858968    0.9086842691176403     H459
    0.9545867819002392    0.0545103254448494    0.1768119403622673     H460
    0.9545867819002392    0.0545103254448494    0.5101452736956007     H461
    0.9545867819002392    0.0545103254448494    0.8434786070289340     H462
    0.9545867819002392    0.3878436587781827    0.1768119403622673     H463
    0.9545867819002392    0.3878436587781827    0.5101452736956007     H464
    0.9545867819002392    0.3878436587781827    0.8434786070289340     H465
    0.9545867819002392    0.7211769921115161    0.1768119403622673     H466
    0.9545867819002392    0.7211769921115161    0.5101452736956007     H467
    0.9545867819002392    0.7211769921115161    0.8434786070289340     H468
    0.2879201152335724    0.0545103254448494    0.1768119403622673     H469
    0.2879201152335724    0.0545103254448494    0.5101452736956007     H470
    0.2879201152335724    0.0545103254448494    0.8434786070289340     H471
    0.2879201152335724    0.3878436587781827    0.1768119403622673     H472
    0.2879201152335724    0.3878436587781827    0.5101452736956007     H473
    0.2879201152335724    0.3878436587781827    0.8434786070289340     H474
    0.2879201152335724    0.7211769921115161    0.1768119403622673     H475
    0.2879201152335724    0.7211769921115161    0.5101452736956007     H476
    0.2879201152335724    0.7211769921115161    0.8434786070289340     H477
    0.6212534485669057    0.0545103254448494    0.1768119403622673     H478
    0.6212534485669057    0.0545103254448494    0.5101452736956007     H479
    0.6212534485669057    0.0545103254448494    0.8434786070289340     H480
    0.6212534485669057    0.3878436587781827    0.1768119403622673     H481
    0.6212534485669057    0.3878436587781827    0.5101452736956007     H482
    0.6212534485669057    0.3878436587781827    0.8434786070289340     H483
    0.6212534485669057    0.7211769921115161    0.1768119403622673     H484
    0.6212534485669057    0.7211769921115161    0.5101452736956007     H485
    0.6212534485669057    0.7211769921115161    0.8434786070289340     H486
    0.0754197380412392    0.0642452068498753    0.3186392365257511     H487
    0.0754197380412392    0.0642452068498753    0.6519725698590846     H488
    0.0754197380412392    0.0642452068498753    0.9853059031924178     H489
    0.0754197380412392    0.3975785401832086    0.3186392365257511     H490
    0.0754197380412392    0.3975785401832086    0.6519725698590846     H491
    0.0754197380412392    0.3975785401832086    0.9853059031924178     H492
    0.0754197380412392    0.7309118735165420    0.3186392365257511     H493
    0.0754197380412392    0.7309118735165420    0.6519725698590846     H494
    0.0754197380412392    0.7309118735165420    0.9853059031924178     H495
    0.4087530713745726    0.0642452068498753    0.3186392365257511     H496
    0.4087530713745726    0.0642452068498753    0.6519725698590846     H497
    0.4087530713745726    0.0642452068498753    0.9853059031924178     H498
    0.4087530713745726    0.3975785401832086    0.3186392365257511     H499
    0.4087530713745726    0.3975785401832086    0.6519725698590846     H500
    0.4087530713745726    0.3975785401832086    0.9853059031924178     H501
    0.4087530713745726    0.7309118735165420    0.3186392365257511     H502
    0.4087530713745726    0.7309118735165420    0.6519725698590846     H503
    0.4087530713745726    0.7309118735165420    0.9853059031924178     H504
    0.7420864047079059    0.0642452068498753    0.3186392365257511     H505
    0.7420864047079059    0.0642452068498753    0.6519725698590846     H506
    0.7420864047079059    0.0642452068498753    0.9853059031924178     H507
    0.7420864047079059    0.3975785401832086    0.3186392365257511     H508
    0.7420864047079059    0.3975785401832086    0.6519725698590846     H509
    0.7420864047079059    0.3975785401832086    0.9853059031924178     H510
    0.7420864047079059    0.7309118735165420    0.3186392365257511     H511
    0.7420864047079059    0.7309118735165420    0.6519725698590846     H512
    0.7420864047079059    0.7309118735165420    0.9853059031924178     H513
    0.1088375769429434    0.2984387453057984    0.3835045755242734     H514
    0.1088375769429434    0.2984387453057984    0.7168379088576067     H515
    0.1088375769429434    0.2984387453057984    0.0501712421909400     H516
    0.1088375769429434    0.6317720786391317    0.3835045755242734     H517
    0.1088375769429434    0.6317720786391317    0.7168379088576067     H518
    0.1088375769429434    0.6317720786391317    0.0501712421909400     H519
    0.1088375769429434    0.9651054119724650    0.3835045755242734     H520
    0.1088375769429434    0.9651054119724650    0.7168379088576067     H521
    0.1088375769429434    0.9651054119724650    0.0501712421909400     H522
    0.4421709102762768    0.2984387453057984    0.3835045755242734     H523
    0.4421709102762768    0.2984387453057984    0.7168379088576067     H524
    0.4421709102762768    0.2984387453057984    0.0501712421909400     H525
    0.4421709102762768    0.6317720786391317    0.3835045755242734     H526
    0.4421709102762768    0.6317720786391317    0.7168379088576067     H527
    0.4421709102762768    0.6317720786391317    0.0501712421909400     H528
    0.4421709102762768    0.9651054119724650    0.3835045755242734     H529
    0.4421709102762768    0.9651054119724650    0.7168379088576067     H530
    0.4421709102762768    0.9651054119724650    0.0501712421909400     H531
    0.7755042436096100    0.2984387453057984    0.3835045755242734     H532
    0.7755042436096100    0.2984387453057984    0.7168379088576067     H533
    0.7755042436096100    0.2984387453057984    0.0501712421909400     H534
    0.7755042436096100    0.6317720786391317    0.3835045755242734     H535
    0.7755042436096100    0.6317720786391317    0.7168379088576067     H536
    0.7755042436096100    0.6317720786391317    0.0501712421909400     H537
    0.7755042436096100    0.9651054119724650    0.3835045755242734     H538
    0.7755042436096100    0.9651054119724650    0.7168379088576067     H539
    0.7755042436096100    0.9651054119724650    0.0501712421909400     H540
    0.8590552304722625    0.2516488901881185    0.3533894783849598     H541
    0.8590552304722625    0.2516488901881185    0.6867228117182931     H542
    0.8590552304722625    0.2516488901881185    0.0200561450516264     H543
    0.8590552304722625    0.5849822235214519    0.3533894783849598     H544
    0.8590552304722625    0.5849822235214519    0.6867228117182931     H545
    0.8590552304722625    0.5849822235214519    0.0200561450516264     H546
    0.8590552304722625    0.9183155568547852    0.3533894783849598     H547
    0.8590552304722625    0.9183155568547852    0.6867228117182931     H548
    0.8590552304722625    0.9183155568547852    0.0200561450516264     H549
    0.1923885638055958    0.2516488901881185    0.3533894783849598     H550
    0.1923885638055958    0.2516488901881185    0.6867228117182931     H551
    0.1923885638055958    0.2516488901881185    0.0200561450516264     H552
    0.1923885638055958    0.5849822235214519    0.3533894783849598     H553
    0.1923885638055958    0.5849822235214519    0.6867228117182931     H554
    0.1923885638055958    0.5849822235214519    0.0200561450516264     H555
    0.1923885638055958    0.9183155568547852    0.3533894783849598     H556
    0.1923885638055958    0.9183155568547852    0.6867228117182931     H557
    0.1923885638055958    0.9183155568547852    0.0200561450516264     H558
    0.5257218971389291    0.2516488901881185    0.3533894783849598     H559
    0.5257218971389291    0.2516488901881185    0.6867228117182931     H560
    0.5257218971389291    0.2516488901881185    0.0200561450516264     H561
    0.5257218971389291    0.5849822235214519    0.3533894783849598     H562
    0.5257218971389291    0.5849822235214519    0.6867228117182931     H563
    0.5257218971389291    0.5849822235214519    0.0200561450516264     H564
    0.5257218971389291    0.9183155568547852    0.3533894783849598     H565
    0.5257218971389291    0.9183155568547852    0.6867228117182931     H566
    0.5257218971389291    0.9183155568547852    0.0200561450516264     H567
    0.9456526100981362    0.9900663666074760    0.3856602623037986     H568
    0.9456526100981362    0.9900663666074760    0.7189935956371319     H569
    0.9456526100981362    0.9900663666074760    0.0523269289704652     H570
    0.9456526100981362    0.3233996999408093    0.3856602623037986     H571
    0.9456526100981362    0.3233996999408093    0.7189935956371319     H572
    0.9456526100981362    0.3233996999408093    0.0523269289704652     H573
    0.9456526100981362    0.6567330332741426    0.3856602623037986     H574
    0.9456526100981362    0.6567330332741426    0.7189935956371319     H575
    0.9456526100981362    0.6567330332741426    0.0523269289704652     H576
    0.2789859434314694    0.9900663666074760    0.3856602623037986     H577
    0.2789859434314694    0.9900663666074760    0.7189935956371319     H578
    0.2789859434314694    0.9900663666074760    0.0523269289704652     H579
    0.2789859434314694    0.3233996999408093    0.3856602623037986     H580
    0.2789859434314694    0.3233996999408093    0.7189935956371319     H581
    0.2789859434314694    0.3233996999408093    0.0523269289704652     H582
    0.2789859434314694    0.6567330332741426    0.3856602623037986     H583
    0.2789859434314694    0.6567330332741426    0.7189935956371319     H584
    0.2789859434314694    0.6567330332741426    0.0523269289704652     H585
    0.6123192767648029    0.9900663666074760    0.3856602623037986     H586
    0.6123192767648029    0.9900663666074760    0.7189935956371319     H587
    0.6123192767648029    0.9900663666074760    0.0523269289704652     H588
    0.6123192767648029    0.3233996999408093    0.3856602623037986     H589
    0.6123192767648029    0.3233996999408093    0.7189935956371319     H590
    0.6123192767648029    0.3233996999408093    0.0523269289704652     H591
    0.6123192767648029    0.6567330332741426    0.3856602623037986     H592
    0.6123192767648029    0.6567330332741426    0.7189935956371319     H593
    0.6123192767648029    0.6567330332741426    0.0523269289704652     H594
    0.9891353562011040    0.0110501596831278    0.4164962146906346     H595
    0.9891353562011040    0.0110501596831278    0.7498295480239678     H596
    0.9891353562011040    0.0110501596831278    0.0831628813573012     H597
    0.9891353562011040    0.3443834930164612    0.4164962146906346     H598
    0.9891353562011040    0.3443834930164612    0.7498295480239678     H599
    0.9891353562011040    0.3443834930164612    0.0831628813573012     H600
    0.9891353562011040    0.6777168263497946    0.4164962146906346     H601
    0.9891353562011040    0.6777168263497946    0.7498295480239678     H602
    0.9891353562011040    0.6777168263497946    0.0831628813573012     H603
    0.3224686895344373    0.0110501596831278    0.4164962146906346     H604
    0.3224686895344373    0.0110501596831278    0.7498295480239678     H605
    0.3224686895344373    0.0110501596831278    0.0831628813573012     H606
    0.3224686895344373    0.3443834930164612    0.4164962146906346     H607
    0.3224686895344373    0.3443834930164612    0.7498295480239678     H608
    0.3224686895344373    0.3443834930164612    0.0831628813573012     H609
    0.3224686895344373    0.6777168263497946    0.4164962146906346     H610
    0.3224686895344373    0.6777168263497946    0.7498295480239678     H611
    0.3224686895344373    0.6777168263497946    0.0831628813573012     H612
    0.6558020228677708    0.0110501596831278    0.4164962146906346     H613
    0.6558020228677708    0.0110501596831278    0.7498295480239678     H614
    0.6558020228677708    0.0110501596831278    0.0831628813573012     H615
    0.6558020228677708    0.3443834930164612    0.4164962146906346     H616
    0.6558020228677708    0.3443834930164612    0.7498295480239678     H617
    0.6558020228677708    0.3443834930164612    0.0831628813573012     H618
    0.6558020228677708    0.6777168263497946    0.4164962146906346     H619
    0.6558020228677708    0.6777168263497946    0.7498295480239678     H620
    0.6558020228677708    0.6777168263497946    0.0831628813573012     H621
    0.9403101068821313    0.0593043168472487    0.4132981141905996     H622
    0.9403101068821313    0.0593043168472487    0.7466314475239328     H623
    0.9403101068821313    0.0593043168472487    0.0799647808572662     H624
    0.9403101068821313    0.3926376501805819    0.4132981141905996     H625
    0.9403101068821313    0.3926376501805819    0.7466314475239328     H626
    0.9403101068821313    0.3926376501805819    0.0799647808572662     H627
    0.9403101068821313    0.7259709835139153    0.4132981141905996     H628
    0.9403101068821313    0.7259709835139153    0.7466314475239328     H629
    0.9403101068821313    0.7259709835139153    0.0799647808572662     H630
    0.2736434402154647    0.0593043168472487    0.4132981141905996     H631
    0.2736434402154647    0.0593043168472487    0.7466314475239328     H632
    0.2736434402154647    0.0593043168472487    0.0799647808572662     H633
    0.2736434402154647    0.3926376501805819    0.4132981141905996     H634
    0.2736434402154647    0.3926376501805819    0.7466314475239328     H635
    0.2736434402154647    0.3926376501805819    0.0799647808572662     H636
    0.2736434402154647    0.7259709835139153    0.4132981141905996     H637
    0.2736434402154647    0.7259709835139153    0.7466314475239328     H638
    0.2736434402154647    0.7259709835139153    0.0799647808572662     H639
    0.6069767735487980    0.0593043168472487    0.4132981141905996     H640
    0.6069767735487980    0.0593043168472487    0.7466314475239328     H641
    0.6069767735487980    0.0593043168472487    0.0799647808572662     H642
    0.6069767735487980    0.3926376501805819    0.4132981141905996     H643
    0.6069767735487980    0.3926376501805819    0.7466314475239328     H644
    0.6069767735487980    0.3926376501805819    0.0799647808572662     H645
    0.6069767735487980    0.7259709835139153    0.4132981141905996     H646
    0.6069767735487980    0.7259709835139153    0.7466314475239328     H647
    0.6069767735487980    0.7259709835139153    0.0799647808572662     H648
    0.9294554768908239    0.0079412846910438    0.4433994138619497     H649
    0.9294554768908239    0.0079412846910438    0.7767327471952830     H650
    0.9294554768908239    0.0079412846910438    0.1100660805286163     H651
    0.9294554768908239    0.3412746180243773    0.4433994138619497     H652
    0.9294554768908239    0.3412746180243773    0.7767327471952830     H653
    0.9294554768908239    0.3412746180243773    0.1100660805286163     H654
    0.9294554768908239    0.6746079513577106    0.4433994138619497     H655
    0.9294554768908239    0.6746079513577106    0.7767327471952830     H656
    0.9294554768908239    0.6746079513577106    0.1100660805286163     H657
    0.2627888102241571    0.0079412846910438    0.4433994138619497     H658
    0.2627888102241571    0.0079412846910438    0.7767327471952830     H659
    0.2627888102241571    0.0079412846910438    0.1100660805286163     H660
    0.2627888102241571    0.3412746180243773    0.4433994138619497     H661
    0.2627888102241571    0.3412746180243773    0.7767327471952830     H662
    0.2627888102241571    0.3412746180243773    0.1100660805286163     H663
    0.2627888102241571    0.6746079513577106    0.4433994138619497     H664
    0.2627888102241571    0.6746079513577106    0.7767327471952830     H665
    0.2627888102241571    0.6746079513577106    0.1100660805286163     H666
    0.5961221435574905    0.0079412846910438    0.4433994138619497     H667
    0.5961221435574905    0.0079412846910438    0.7767327471952830     H668
    0.5961221435574905    0.0079412846910438    0.1100660805286163     H669
    0.5961221435574905    0.3412746180243773    0.4433994138619497     H670
    0.5961221435574905    0.3412746180243773    0.7767327471952830     H671
    0.5961221435574905    0.3412746180243773    0.1100660805286163     H672
    0.5961221435574905    0.6746079513577106    0.4433994138619497     H673
    0.5961221435574905    0.6746079513577106    0.7767327471952830     H674
    0.5961221435574905    0.6746079513577106    0.1100660805286163     H675
    0.0693996388510539    0.0228318208515752    0.3775492525723874     H676
    0.0693996388510539    0.0228318208515752    0.7108825859057206     H677
    0.0693996388510539    0.0228318208515752    0.0442159192390539     H678
    0.0693996388510539    0.3561651541849086    0.3775492525723874     H679
    0.0693996388510539    0.3561651541849086    0.7108825859057206     H680
    0.0693996388510539    0.3561651541849086    0.0442159192390539     H681
    0.0693996388510539    0.6894984875182419    0.3775492525723874     H682
    0.0693996388510539    0.6894984875182419    0.7108825859057206     H683
    0.0693996388510539    0.6894984875182419    0.0442159192390539     H684
    0.4027329721843873    0.0228318208515752    0.3775492525723874     H685
    0.4027329721843873    0.0228318208515752    0.7108825859057206     H686
    0.4027329721843873    0.0228318208515752    0.0442159192390539     H687
    0.4027329721843873    0.3561651541849086    0.3775492525723874     H688
    0.4027329721843873    0.3561651541849086    0.7108825859057206     H689
    0.4027329721843873    0.3561651541849086    0.0442159192390539     H690
    0.4027329721843873    0.6894984875182419    0.3775492525723874     H691
    0.4027329721843873    0.6894984875182419    0.7108825859057206     H692
    0.4027329721843873    0.6894984875182419    0.0442159192390539     H693
    0.7360663055177206    0.0228318208515752    0.3775492525723874     H694
    0.7360663055177206    0.0228318208515752    0.7108825859057206     H695
    0.7360663055177206    0.0228318208515752    0.0442159192390539     H696
    0.7360663055177206    0.3561651541849086    0.3775492525723874     H697
    0.7360663055177206    0.3561651541849086    0.7108825859057206     H698
    0.7360663055177206    0.3561651541849086    0.0442159192390539     H699
    0.7360663055177206    0.6894984875182419    0.3775492525723874     H700
    0.7360663055177206    0.6894984875182419    0.7108825859057206     H701
    0.7360663055177206    0.6894984875182419    0.0442159192390539     H702
    0.9093315292790620    0.3035974299788644    0.3516864300144663     H703
    0.9093315292790620    0.3035974299788644    0.6850197633477997     H704
    0.9093315292790620    0.3035974299788644    0.0183530966811329     H705
    0.9093315292790620    0.6369307633121978    0.3516864300144663     H706
    0.9093315292790620    0.6369307633121978    0.6850197633477997     H707
    0.9093315292790620    0.6369307633121978    0.0183530966811329     H708
    0.9093315292790620    0.9702640966455310    0.3516864300144663     H709
    0.9093315292790620    0.9702640966455310    0.6850197633477997     H710
    0.9093315292790620    0.9702640966455310    0.0183530966811329     H711
    0.2426648626123953    0.3035974299788644    0.3516864300144663     H712
    0.2426648626123953    0.3035974299788644    0.6850197633477997     H713
    0.2426648626123953    0.3035974299788644    0.0183530966811329     H714
    0.2426648626123953    0.6369307633121978    0.3516864300144663     H715
    0.2426648626123953    0.6369307633121978    0.6850197633477997     H716
    0.2426648626123953    0.6369307633121978    0.0183530966811329     H717
    0.2426648626123953    0.9702640966455310    0.3516864300144663     H718
    0.2426648626123953    0.9702640966455310    0.6850197633477997     H719
    0.2426648626123953    0.9702640966455310    0.0183530966811329     H720
    0.5759981959457285    0.3035974299788644    0.3516864300144663     H721
    0.5759981959457285    0.3035974299788644    0.6850197633477997     H722
    0.5759981959457285    0.3035974299788644    0.0183530966811329     H723
    0.5759981959457285    0.6369307633121978    0.3516864300144663     H724
    0.5759981959457285    0.6369307633121978    0.6850197633477997     H725
    0.5759981959457285    0.6369307633121978    0.0183530966811329     H726
    0.5759981959457285    0.9702640966455310    0.3516864300144663     H727
    0.5759981959457285    0.9702640966455310    0.6850197633477997     H728
    0.5759981959457285    0.9702640966455310    0.0183530966811329     H729
    0.0303308198707415    0.0024323848280710    0.3952480893536576     H730
    0.0303308198707415    0.0024323848280710    0.7285814226869909     H731
    0.0303308198707415    0.0024323848280710    0.0619147560203242     H732
    0.0303308198707415    0.3357657181614043    0.3952480893536576     H733
    0.0303308198707415    0.3357657181614043    0.7285814226869909     H734
    0.0303308198707415    0.3357657181614043    0.0619147560203242     H735
    0.0303308198707415    0.6690990514947377    0.3952480893536576     H736
    0.0303308198707415    0.6690990514947377    0.7285814226869909     H737
    0.0303308198707415    0.6690990514947377    0.0619147560203242     H738
    0.3636641532040747    0.0024323848280710    0.3952480893536576     H739
    0.3636641532040747    0.0024323848280710    0.7285814226869909     H740
    0.3636641532040747    0.0024323848280710    0.0619147560203242     H741
    0.3636641532040747    0.3357657181614043    0.3952480893536576     H742
    0.3636641532040747    0.3357657181614043    0.7285814226869909     H743
    0.3636641532040747    0.3357657181614043    0.0619147560203242     H744
    0.3636641532040747    0.6690990514947377    0.3952480893536576     H745
    0.3636641532040747    0.6690990514947377    0.7285814226869909     H746
    0.3636641532040747    0.6690990514947377    0.0619147560203242     H747
    0.6969974865374081    0.0024323848280710    0.3952480893536576     H748
    0.6969974865374081    0.0024323848280710    0.7285814226869909     H749
    0.6969974865374081    0.0024323848280710    0.0619147560203242     H750
    0.6969974865374081    0.3357657181614043    0.3952480893536576     H751
    0.6969974865374081    0.3357657181614043    0.7285814226869909     H752
    0.6969974865374081    0.3357657181614043    0.0619147560203242     H753
    0.6969974865374081    0.6690990514947377    0.3952480893536576     H754
    0.6969974865374081    0.6690990514947377    0.7285814226869909     H755
    0.6969974865374081    0.6690990514947377    0.0619147560203242     H756
    0.9991257907117292    0.0627759075839871    0.3865573355815337     H757
    0.9991257907117292    0.0627759075839871    0.7198906689148670     H758
    0.9991257907117292    0.0627759075839871    0.0532240022482003     H759
    0.9991257907117292    0.3961092409173204    0.3865573355815337     H760
    0.9991257907117292    0.3961092409173204    0.7198906689148670     H761
    0.9991257907117292    0.3961092409173204    0.0532240022482003     H762
    0.9991257907117292    0.7294425742506536    0.3865573355815337     H763
    0.9991257907117292    0.7294425742506536    0.7198906689148670     H764
    0.9991257907117292    0.7294425742506536    0.0532240022482003     H765
    0.3324591240450625    0.0627759075839871    0.3865573355815337     H766
    0.3324591240450625    0.0627759075839871    0.7198906689148670     H767
    0.3324591240450625    0.0627759075839871    0.0532240022482003     H768
    0.3324591240450625    0.3961092409173204    0.3865573355815337     H769
    0.3324591240450625    0.3961092409173204    0.7198906689148670     H770
    0.3324591240450625    0.3961092409173204    0.0532240022482003     H771
    0.3324591240450625    0.7294425742506536    0.3865573355815337     H772
    0.3324591240450625    0.7294425742506536    0.7198906689148670     H773
    0.3324591240450625    0.7294425742506536    0.0532240022482003     H774
    0.6657924573783958    0.0627759075839871    0.3865573355815337     H775
    0.6657924573783958    0.0627759075839871    0.7198906689148670     H776
    0.6657924573783958    0.0627759075839871    0.0532240022482003     H777
    0.6657924573783958    0.3961092409173204    0.3865573355815337     H778
    0.6657924573783958    0.3961092409173204    0.7198906689148670     H779
    0.6657924573783958    0.3961092409173204    0.0532240022482003     H780
    0.6657924573783958    0.7294425742506536    0.3865573355815337     H781
    0.6657924573783958    0.7294425742506536    0.7198906689148670     H782
    0.6657924573783958    0.7294425742506536    0.0532240022482003     H783
    0.0241442763867957    0.0788539057737346    0.3180137700533606     H784
    0.0241442763867957    0.0788539057737346    0.6513471033866940     H785
    0.0241442763867957    0.0788539057737346    0.9846804367200273     H786
    0.0241442763867957    0.4121872391070680    0.3180137700533606     H787
    0.0241442763867957    0.4121872391070680    0.6513471033866940     H788
    0.0241442763867957    0.4121872391070680    0.9846804367200273     H789
    0.0241442763867957    0.7455205724404013    0.3180137700533606     H790
    0.0241442763867957    0.7455205724404013    0.6513471033866940     H791
    0.0241442763867957    0.7455205724404013    0.9846804367200273     H792
    0.3574776097201291    0.0788539057737346    0.3180137700533606     H793
    0.3574776097201291    0.0788539057737346    0.6513471033866940     H794
    0.3574776097201291    0.0788539057737346    0.9846804367200273     H795
    0.3574776097201291    0.4121872391070680    0.3180137700533606     H796
    0.3574776097201291    0.4121872391070680    0.6513471033866940     H797
    0.3574776097201291    0.4121872391070680    0.9846804367200273     H798
    0.3574776097201291    0.7455205724404013    0.3180137700533606     H799
    0.3574776097201291    0.7455205724404013    0.6513471033866940     H800
    0.3574776097201291    0.7455205724404013    0.9846804367200273     H801
    0.6908109430534624    0.0788539057737346    0.3180137700533606     H802
    0.6908109430534624    0.0788539057737346    0.6513471033866940     H803
    0.6908109430534624    0.0788539057737346    0.9846804367200273     H804
    0.6908109430534624    0.4121872391070680    0.3180137700533606     H805
    0.6908109430534624    0.4121872391070680    0.6513471033866940     H806
    0.6908109430534624    0.4121872391070680    0.9846804367200273     H807
    0.6908109430534624    0.7455205724404013    0.3180137700533606     H808
    0.6908109430534624    0.7455205724404013    0.6513471033866940     H809
    0.6908109430534624    0.7455205724404013    0.9846804367200273     H810
    0.9860055289585838    0.9872252740960885    0.3303350835864810     H811
    0.9860055289585838    0.9872252740960885    0.6636684169198143     H812
    0.9860055289585838    0.9872252740960885    0.9970017502531475     H813
    0.9860055289585838    0.3205586074294218    0.3303350835864810     H814
    0.9860055289585838    0.3205586074294218    0.6636684169198143     H815
    0.9860055289585838    0.3205586074294218    0.9970017502531475     H816
    0.9860055289585838    0.6538919407627551    0.3303350835864810     H817
    0.9860055289585838    0.6538919407627551    0.6636684169198143     H818
    0.9860055289585838    0.6538919407627551    0.9970017502531475     H819
    0.3193388622919171    0.9872252740960885    0.3303350835864810     H820
    0.3193388622919171    0.9872252740960885    0.6636684169198143     H821
    0.3193388622919171    0.9872252740960885    0.9970017502531475     H822
    0.3193388622919171    0.3205586074294218    0.3303350835864810     H823
    0.3193388622919171    0.3205586074294218    0.6636684169198143     H824
    0.3193388622919171    0.3205586074294218    0.9970017502531475     H825
    0.3193388622919171    0.6538919407627551    0.3303350835864810     H826
    0.3193388622919171    0.6538919407627551    0.6636684169198143     H827
    0.3193388622919171    0.6538919407627551    0.9970017502531475     H828
    0.6526721956252504    0.9872252740960885    0.3303350835864810     H829
    0.6526721956252504    0.9872252740960885    0.6636684169198143     H830
    0.6526721956252504    0.9872252740960885    0.9970017502531475     H831
    0.6526721956252504    0.3205586074294218    0.3303350835864810     H832
    0.6526721956252504    0.3205586074294218    0.6636684169198143     H833
    0.6526721956252504    0.3205586074294218    0.9970017502531475     H834
    0.6526721956252504    0.6538919407627551    0.3303350835864810     H835
    0.6526721956252504    0.6538919407627551    0.6636684169198143     H836
    0.6526721956252504    0.6538919407627551    0.9970017502531475     H837
    0.9607304179199210    0.0422114173699379    0.3590956952886191     H838
    0.9607304179199210    0.0422114173699379    0.6924290286219523     H839
    0.9607304179199210    0.0422114173699379    0.0257623619552857     H840
    0.9607304179199210    0.3755447507032712    0.3590956952886191     H841
    0.9607304179199210    0.3755447507032712    0.6924290286219523     H842
    0.9607304179199210    0.3755447507032712    0.0257623619552857     H843
    0.9607304179199210    0.7088780840366046    0.3590956952886191     H844
    0.9607304179199210    0.7088780840366046    0.6924290286219523     H845
    0.9607304179199210    0.7088780840366046    0.0257623619552857     H846
    0.2940637512532542    0.0422114173699379    0.3590956952886191     H847
    0.2940637512532542    0.0422114173699379    0.6924290286219523     H848
    0.2940637512532542    0.0422114173699379    0.0257623619552857     H849
    0.2940637512532542    0.3755447507032712    0.3590956952886191     H850
    0.2940637512532542    0.3755447507032712    0.6924290286219523     H851
    0.2940637512532542    0.3755447507032712    0.0257623619552857     H852
    0.2940637512532542    0.7088780840366046    0.3590956952886191     H853
    0.2940637512532542    0.7088780840366046    0.6924290286219523     H854
    0.2940637512532542    0.7088780840366046    0.0257623619552857     H855
    0.6273970845865875    0.0422114173699379    0.3590956952886191     H856
    0.6273970845865875    0.0422114173699379    0.6924290286219523     H857
    0.6273970845865875    0.0422114173699379    0.0257623619552857     H858
    0.6273970845865875    0.3755447507032712    0.3590956952886191     H859
    0.6273970845865875    0.3755447507032712    0.6924290286219523     H860
    0.6273970845865875    0.3755447507032712    0.0257623619552857     H861
    0.6273970845865875    0.7088780840366046    0.3590956952886191     H862
    0.6273970845865875    0.7088780840366046    0.6924290286219523     H863
    0.6273970845865875    0.7088780840366046    0.0257623619552857     H864
    0.0545992254740629    0.0870897008417992    0.3482472768801995     H865
    0.0545992254740629    0.0870897008417992    0.6815806102135329     H866
    0.0545992254740629    0.0870897008417992    0.0149139435468661     H867
    0.0545992254740629    0.4204230341751325    0.3482472768801995     H868
    0.0545992254740629    0.4204230341751325    0.6815806102135329     H869
    0.0545992254740629    0.4204230341751325    0.0149139435468661     H870
    0.0545992254740629    0.7537563675084659    0.3482472768801995     H871
    0.0545992254740629    0.7537563675084659    0.6815806102135329     H872
    0.0545992254740629    0.7537563675084659    0.0149139435468661     H873
    0.3879325588073963    0.0870897008417992    0.3482472768801995     H874
    0.3879325588073963    0.0870897008417992    0.6815806102135329     H875
    0.3879325588073963    0.0870897008417992    0.0149139435468661     H876
    0.3879325588073963    0.4204230341751325    0.3482472768801995     H877
    0.3879325588073963    0.4204230341751325    0.6815806102135329     H878
    0.3879325588073963    0.4204230341751325    0.0149139435468661     H879
    0.3879325588073963    0.7537563675084659    0.3482472768801995     H880
    0.3879325588073963    0.7537563675084659    0.6815806102135329     H881
    0.3879325588073963    0.7537563675084659    0.0149139435468661     H882
    0.7212658921407296    0.0870897008417992    0.3482472768801995     H883
    0.7212658921407296    0.0870897008417992    0.6815806102135329     H884
    0.7212658921407296    0.0870897008417992    0.0149139435468661     H885
    0.7212658921407296    0.4204230341751325    0.3482472768801995     H886
    0.7212658921407296    0.4204230341751325    0.6815806102135329     H887
    0.7212658921407296    0.4204230341751325    0.0149139435468661     H888
    0.7212658921407296    0.7537563675084659    0.3482472768801995     H889
    0.7212658921407296    0.7537563675084659    0.6815806102135329     H890
    0.7212658921407296    0.7537563675084659    0.0149139435468661     H891
    0.1445341672889979    0.2622106592476973    0.3817480882341888     H892
    0.1445341672889979    0.2622106592476973    0.7150814215675221     H893
    0.1445341672889979    0.2622106592476973    0.0484147549008554     H894
    0.1445341672889979    0.5955439925810306    0.3817480882341888     H895
    0.1445341672889979    0.5955439925810306    0.7150814215675221     H896
    0.1445341672889979    0.5955439925810306    0.0484147549008554     H897
    0.1445341672889979    0.9288773259143639    0.3817480882341888     H898
    0.1445341672889979    0.9288773259143639    0.7150814215675221     H899
    0.1445341672889979    0.9288773259143639    0.0484147549008554     H900
    0.4778675006223312    0.2622106592476973    0.3817480882341888     H901
    0.4778675006223312    0.2622106592476973    0.7150814215675221     H902
    0.4778675006223312    0.2622106592476973    0.0484147549008554     H903
    0.4778675006223312    0.5955439925810306    0.3817480882341888     H904
    0.4778675006223312    0.5955439925810306    0.7150814215675221     H905
    0.4778675006223312    0.5955439925810306    0.0484147549008554     H906
    0.4778675006223312    0.9288773259143639    0.3817480882341888     H907
    0.4778675006223312    0.9288773259143639    0.7150814215675221     H908
    0.4778675006223312    0.9288773259143639    0.0484147549008554     H909
    0.8112008339556646    0.2622106592476973    0.3817480882341888     H910
    0.8112008339556646    0.2622106592476973    0.7150814215675221     H911
    0.8112008339556646    0.2622106592476973    0.0484147549008554     H912
    0.8112008339556646    0.5955439925810306    0.3817480882341888     H913
    0.8112008339556646    0.5955439925810306    0.7150814215675221     H914
    0.8112008339556646    0.5955439925810306    0.0484147549008554     H915
    0.8112008339556646    0.9288773259143639    0.3817480882341888     H916
    0.8112008339556646    0.9288773259143639    0.7150814215675221     H917
    0.8112008339556646    0.9288773259143639    0.0484147549008554     H918
    0.0492898050080551    0.9978380351892218    0.3525362086850993     H919
    0.0492898050080551    0.9978380351892218    0.6858695420184326     H920
    0.0492898050080551    0.9978380351892218    0.0192028753517659     H921
    0.0492898050080551    0.3311713685225550    0.3525362086850993     H922
    0.0492898050080551    0.3311713685225550    0.6858695420184326     H923
    0.0492898050080551    0.3311713685225550    0.0192028753517659     H924
    0.0492898050080551    0.6645047018558884    0.3525362086850993     H925
    0.0492898050080551    0.6645047018558884    0.6858695420184326     H926
    0.0492898050080551    0.6645047018558884    0.0192028753517659     H927
    0.3826231383413885    0.9978380351892218    0.3525362086850993     H928
    0.3826231383413885    0.9978380351892218    0.6858695420184326     H929
    0.3826231383413885    0.9978380351892218    0.0192028753517659     H930
    0.3826231383413885    0.3311713685225550    0.3525362086850993     H931
    0.3826231383413885    0.3311713685225550    0.6858695420184326     H932
    0.3826231383413885    0.3311713685225550    0.0192028753517659     H933
    0.3826231383413885    0.6645047018558884    0.3525362086850993     H934
    0.3826231383413885    0.6645047018558884    0.6858695420184326     H935
    0.3826231383413885    0.6645047018558884    0.0192028753517659     H936
    0.7159564716747218    0.9978380351892218    0.3525362086850993     H937
    0.7159564716747218    0.9978380351892218    0.6858695420184326     H938
    0.7159564716747218    0.9978380351892218    0.0192028753517659     H939
    0.7159564716747218    0.3311713685225550    0.3525362086850993     H940
    0.7159564716747218    0.3311713685225550    0.6858695420184326     H941
    0.7159564716747218    0.3311713685225550    0.0192028753517659     H942
    0.7159564716747218    0.6645047018558884    0.3525362086850993     H943
    0.7159564716747218    0.6645047018558884    0.6858695420184326     H944
    0.7159564716747218    0.6645047018558884    0.0192028753517659     H945
    0.9961102143969565    0.9838937317824146    0.3687494997051737     H946
    0.9961102143969565    0.9838937317824146    0.7020828330385069     H947
    0.9961102143969565    0.9838937317824146    0.0354161663718403     H948
    0.9961102143969565    0.3172270651157478    0.3687494997051737     H949
    0.9961102143969565    0.3172270651157478    0.7020828330385069     H950
    0.9961102143969565    0.3172270651157478    0.0354161663718403     H951
    0.9961102143969565    0.6505603984490813    0.3687494997051737     H952
    0.9961102143969565    0.6505603984490813    0.7020828330385069     H953
    0.9961102143969565    0.6505603984490813    0.0354161663718403     H954
    0.3294435477302898    0.9838937317824146    0.3687494997051737     H955
    0.3294435477302898    0.9838937317824146    0.7020828330385069     H956
    0.3294435477302898    0.9838937317824146    0.0354161663718403     H957
    0.3294435477302898    0.3172270651157478    0.3687494997051737     H958
    0.3294435477302898    0.3172270651157478    0.7020828330385069     H959
    0.3294435477302898    0.3172270651157478    0.0354161663718403     H960
    0.3294435477302898    0.6505603984490813    0.3687494997051737     H961
    0.3294435477302898    0.6505603984490813    0.7020828330385069     H962
    0.3294435477302898    0.6505603984490813    0.0354161663718403     H963
    0.6627768810636231    0.9838937317824146    0.3687494997051737     H964
    0.6627768810636231    0.9838937317824146    0.7020828330385069     H965
    0.6627768810636231    0.9838937317824146    0.0354161663718403     H966
    0.6627768810636231    0.3172270651157478    0.3687494997051737     H967
    0.6627768810636231    0.3172270651157478    0.7020828330385069     H968
    0.6627768810636231    0.3172270651157478    0.0354161663718403     H969
    0.6627768810636231    0.6505603984490813    0.3687494997051737     H970
    0.6627768810636231    0.6505603984490813    0.7020828330385069     H971
    0.6627768810636231    0.6505603984490813    0.0354161663718403     H972
    0.1482603150390245    0.2286155558746094    0.4141101568280675     H973
    0.1482603150390245    0.2286155558746094    0.7474434901614009     H974
    0.1482603150390245    0.2286155558746094    0.0807768234947341     H975
    0.1482603150390245    0.5619488892079427    0.4141101568280675     H976
    0.1482603150390245    0.5619488892079427    0.7474434901614009     H977
    0.1482603150390245    0.5619488892079427    0.0807768234947341     H978
    0.1482603150390245    0.8952822225412761    0.4141101568280675     H979
    0.1482603150390245    0.8952822225412761    0.7474434901614009     H980
    0.1482603150390245    0.8952822225412761    0.0807768234947341     H981
    0.4815936483723579    0.2286155558746094    0.4141101568280675     H982
    0.4815936483723579    0.2286155558746094    0.7474434901614009     H983
    0.4815936483723579    0.2286155558746094    0.0807768234947341     H984
    0.4815936483723579    0.5619488892079427    0.4141101568280675     H985
    0.4815936483723579    0.5619488892079427    0.7474434901614009     H986
    0.4815936483723579    0.5619488892079427    0.0807768234947341     H987
    0.4815936483723579    0.8952822225412761    0.4141101568280675     H988
    0.4815936483723579    0.8952822225412761    0.7474434901614009     H989
    0.4815936483723579    0.8952822225412761    0.0807768234947341     H990
    0.8149269817056912    0.2286155558746094    0.4141101568280675     H991
    0.8149269817056912    0.2286155558746094    0.7474434901614009     H992
    0.8149269817056912    0.2286155558746094    0.0807768234947341     H993
    0.8149269817056912    0.5619488892079427    0.4141101568280675     H994
    0.8149269817056912    0.5619488892079427    0.7474434901614009     H995
    0.8149269817056912    0.5619488892079427    0.0807768234947341     H996
    0.8149269817056912    0.8952822225412761    0.4141101568280675     H997
    0.8149269817056912    0.8952822225412761    0.7474434901614009     H998
    0.8149269817056912    0.8952822225412761    0.0807768234947341     H999
    0.0383735306080675    0.0436576262546627    0.2981453219271530    H1000
    0.0383735306080675    0.0436576262546627    0.6314786552604863    H1001
    0.0383735306080675    0.0436576262546627    0.9648119885938197    H1002
    0.0383735306080675    0.3769909595879961    0.2981453219271530    H1003
    0.0383735306080675    0.3769909595879961    0.6314786552604863    H1004
    0.0383735306080675    0.3769909595879961    0.9648119885938197    H1005
    0.0383735306080675    0.7103242929213294    0.2981453219271530    H1006
    0.0383735306080675    0.7103242929213294    0.6314786552604863    H1007
    0.0383735306080675    0.7103242929213294    0.9648119885938197    H1008
    0.3717068639414007    0.0436576262546627    0.2981453219271530    H1009
    0.3717068639414007    0.0436576262546627    0.6314786552604863    H1010
    0.3717068639414007    0.0436576262546627    0.9648119885938197    H1011
    0.3717068639414007    0.3769909595879961    0.2981453219271530    H1012
    0.3717068639414007    0.3769909595879961    0.6314786552604863    H1013
    0.3717068639414007    0.3769909595879961    0.9648119885938197    H1014
    0.3717068639414007    0.7103242929213294    0.2981453219271530    H1015
    0.3717068639414007    0.7103242929213294    0.6314786552604863    H1016
    0.3717068639414007    0.7103242929213294    0.9648119885938197    H1017
    0.7050401972747341    0.0436576262546627    0.2981453219271530    H1018
    0.7050401972747341    0.0436576262546627    0.6314786552604863    H1019
    0.7050401972747341    0.0436576262546627    0.9648119885938197    H1020
    0.7050401972747341    0.3769909595879961    0.2981453219271530    H1021
    0.7050401972747341    0.3769909595879961    0.6314786552604863    H1022
    0.7050401972747341    0.3769909595879961    0.9648119885938197    H1023
    0.7050401972747341    0.7103242929213294    0.2981453219271530    H1024
    0.7050401972747341    0.7103242929213294    0.6314786552604863    H1025
    0.7050401972747341    0.7103242929213294    0.9648119885938197    H1026
    0.1007399699481857    0.9827825611819179    0.2252480551159384    H1027
    0.1007399699481857    0.9827825611819179    0.5585813884492716    H1028
    0.1007399699481857    0.9827825611819179    0.8919147217826050    H1029
    0.1007399699481857    0.3161158945152511    0.2252480551159384    H1030
    0.1007399699481857    0.3161158945152511    0.5585813884492716    H1031
    0.1007399699481857    0.3161158945152511    0.8919147217826050    H1032
    0.1007399699481857    0.6494492278485845    0.2252480551159384    H1033
    0.1007399699481857    0.6494492278485845    0.5585813884492716    H1034
    0.1007399699481857    0.6494492278485845    0.8919147217826050    H1035
    0.4340733032815189    0.9827825611819179    0.2252480551159384    H1036
    0.4340733032815189    0.9827825611819179    0.5585813884492716    H1037
    0.4340733032815189    0.9827825611819179    0.8919147217826050    H1038
    0.4340733032815189    0.3161158945152511    0.2252480551159384    H1039
    0.4340733032815189    0.3161158945152511    0.5585813884492716    H1040
    0.4340733032815189    0.3161158945152511    0.8919147217826050    H1041
    0.4340733032815189    0.6494492278485845    0.2252480551159384    H1042
    0.4340733032815189    0.6494492278485845    0.5585813884492716    H1043
    0.4340733032815189    0.6494492278485845    0.8919147217826050    H1044
    0.7674066366148523    0.9827825611819179    0.2252480551159384    H1045
    0.7674066366148523    0.9827825611819179    0.5585813884492716    H1046
    0.7674066366148523    0.9827825611819179    0.8919147217826050    H1047
    0.7674066366148523    0.3161158945152511    0.2252480551159384    H1048
    0.7674066366148523    0.3161158945152511    0.5585813884492716    H1049
    0.7674066366148523    0.3161158945152511    0.8919147217826050    H1050
    0.7674066366148523    0.6494492278485845    0.2252480551159384    H1051
    0.7674066366148523    0.6494492278485845    0.5585813884492716    H1052
    0.7674066366148523    0.6494492278485845    0.8919147217826050    H1053
    0.1350031659823376    0.9876262604196204    0.1042547598630706    H1054
    0.1350031659823376    0.9876262604196204    0.4375880931964040    H1055
    0.1350031659823376    0.9876262604196204    0.7709214265297373    H1056
    0.1350031659823376    0.3209595937529537    0.1042547598630706    H1057
    0.1350031659823376    0.3209595937529537    0.4375880931964040    H1058
    0.1350031659823376    0.3209595937529537    0.7709214265297373    H1059
    0.1350031659823376    0.6542929270862871    0.1042547598630706    H1060
    0.1350031659823376    0.6542929270862871    0.4375880931964040    H1061
    0.1350031659823376    0.6542929270862871    0.7709214265297373    H1062
    0.4683364993156709    0.9876262604196204    0.1042547598630706    H1063
    0.4683364993156709    0.9876262604196204    0.4375880931964040    H1064
    0.4683364993156709    0.9876262604196204    0.7709214265297373    H1065
    0.4683364993156709    0.3209595937529537    0.1042547598630706    H1066
    0.4683364993156709    0.3209595937529537    0.4375880931964040    H1067
    0.4683364993156709    0.3209595937529537    0.7709214265297373    H1068
    0.4683364993156709    0.6542929270862871    0.1042547598630706    H1069
    0.4683364993156709    0.6542929270862871    0.4375880931964040    H1070
    0.4683364993156709    0.6542929270862871    0.7709214265297373    H1071
    0.8016698326490043    0.9876262604196204    0.1042547598630706    H1072
    0.8016698326490043    0.9876262604196204    0.4375880931964040    H1073
    0.8016698326490043    0.9876262604196204    0.7709214265297373    H1074
    0.8016698326490043    0.3209595937529537    0.1042547598630706    H1075
    0.8016698326490043    0.3209595937529537    0.4375880931964040    H1076
    0.8016698326490043    0.3209595937529537    0.7709214265297373    H1077
    0.8016698326490043    0.6542929270862871    0.1042547598630706    H1078
    0.8016698326490043    0.6542929270862871    0.4375880931964040    H1079
    0.8016698326490043    0.6542929270862871    0.7709214265297373    H1080
    0.1915953273651112    0.0700507755231102    0.0850034218507016    H1081
    0.1915953273651112    0.0700507755231102    0.4183367551840350    H1082
    0.1915953273651112    0.0700507755231102    0.7516700885173684    H1083
    0.1915953273651112    0.4033841088564435    0.0850034218507016    H1084
    0.1915953273651112    0.4033841088564435    0.4183367551840350    H1085
    0.1915953273651112    0.4033841088564435    0.7516700885173684    H1086
    0.1915953273651112    0.7367174421897769    0.0850034218507016    H1087
    0.1915953273651112    0.7367174421897769    0.4183367551840350    H1088
    0.1915953273651112    0.7367174421897769    0.7516700885173684    H1089
    0.5249286606984446    0.0700507755231102    0.0850034218507016    H1090
    0.5249286606984446    0.0700507755231102    0.4183367551840350    H1091
    0.5249286606984446    0.0700507755231102    0.7516700885173684    H1092
    0.5249286606984446    0.4033841088564435    0.0850034218507016    H1093
    0.5249286606984446    0.4033841088564435    0.4183367551840350    H1094
    0.5249286606984446    0.4033841088564435    0.7516700885173684    H1095
    0.5249286606984446    0.7367174421897769    0.0850034218507016    H1096
    0.5249286606984446    0.7367174421897769    0.4183367551840350    H1097
    0.5249286606984446    0.7367174421897769    0.7516700885173684    H1098
    0.8582619940317779    0.0700507755231102    0.0850034218507016    H1099
    0.8582619940317779    0.0700507755231102    0.4183367551840350    H1100
    0.8582619940317779    0.0700507755231102    0.7516700885173684    H1101
    0.8582619940317779    0.4033841088564435    0.0850034218507016    H1102
    0.8582619940317779    0.4033841088564435    0.4183367551840350    H1103
    0.8582619940317779    0.4033841088564435    0.7516700885173684    H1104
    0.8582619940317779    0.7367174421897769    0.0850034218507016    H1105
    0.8582619940317779    0.7367174421897769    0.4183367551840350    H1106
    0.8582619940317779    0.7367174421897769    0.7516700885173684    H1107
    0.1349924706521752    0.9530314562090807    0.1693687955484249    H1108
    0.1349924706521752    0.9530314562090807    0.5027021288817582    H1109
    0.1349924706521752    0.9530314562090807    0.8360354622150916    H1110
    0.1349924706521752    0.2863647895424140    0.1693687955484249    H1111
    0.1349924706521752    0.2863647895424140    0.5027021288817582    H1112
    0.1349924706521752    0.2863647895424140    0.8360354622150916    H1113
    0.1349924706521752    0.6196981228757473    0.1693687955484249    H1114
    0.1349924706521752    0.6196981228757473    0.5027021288817582    H1115
    0.1349924706521752    0.6196981228757473    0.8360354622150916    H1116
    0.4683258039855085    0.9530314562090807    0.1693687955484249    H1117
    0.4683258039855085    0.9530314562090807    0.5027021288817582    H1118
    0.4683258039855085    0.9530314562090807    0.8360354622150916    H1119
    0.4683258039855085    0.2863647895424140    0.1693687955484249    H1120
    0.4683258039855085    0.2863647895424140    0.5027021288817582    H1121
    0.4683258039855085    0.2863647895424140    0.8360354622150916    H1122
    0.4683258039855085    0.6196981228757473    0.1693687955484249    H1123
    0.4683258039855085    0.6196981228757473    0.5027021288817582    H1124
    0.4683258039855085    0.6196981228757473    0.8360354622150916    H1125
    0.8016591373188419    0.9530314562090807    0.1693687955484249    H1126
    0.8016591373188419    0.9530314562090807    0.5027021288817582    H1127
    0.8016591373188419    0.9530314562090807    0.8360354622150916    H1128
    0.8016591373188419    0.2863647895424140    0.1693687955484249    H1129
    0.8016591373188419    0.2863647895424140    0.5027021288817582    H1130
    0.8016591373188419    0.2863647895424140    0.8360354622150916    H1131
    0.8016591373188419    0.6196981228757473    0.1693687955484249    H1132
    0.8016591373188419    0.6196981228757473    0.5027021288817582    H1133
    0.8016591373188419    0.6196981228757473    0.8360354622150916    H1134
    0.1911105029060207    0.0168172482786274    0.0996488690073869    H1135
    0.1911105029060207    0.0168172482786274    0.4329822023407202    H1136
    0.1911105029060207    0.0168172482786274    0.7663155356740535    H1137
    0.1911105029060207    0.3501505816119608    0.0996488690073869    H1138
    0.1911105029060207    0.3501505816119608    0.4329822023407202    H1139
    0.1911105029060207    0.3501505816119608    0.7663155356740535    H1140
    0.1911105029060207    0.6834839149452941    0.0996488690073869    H1141
    0.1911105029060207    0.6834839149452941    0.4329822023407202    H1142
    0.1911105029060207    0.6834839149452941    0.7663155356740535    H1143
    0.5244438362393541    0.0168172482786274    0.0996488690073869    H1144
    0.5244438362393541    0.0168172482786274    0.4329822023407202    H1145
    0.5244438362393541    0.0168172482786274    0.7663155356740535    H1146
    0.5244438362393541    0.3501505816119608    0.0996488690073869    H1147
    0.5244438362393541    0.3501505816119608    0.4329822023407202    H1148
    0.5244438362393541    0.3501505816119608    0.7663155356740535    H1149
    0.5244438362393541    0.6834839149452941    0.0996488690073869    H1150
    0.5244438362393541    0.6834839149452941    0.4329822023407202    H1151
    0.5244438362393541    0.6834839149452941    0.7663155356740535    H1152
    0.8577771695726875    0.0168172482786274    0.0996488690073869    H1153
    0.8577771695726875    0.0168172482786274    0.4329822023407202    H1154
    0.8577771695726875    0.0168172482786274    0.7663155356740535    H1155
    0.8577771695726875    0.3501505816119608    0.0996488690073869    H1156
    0.8577771695726875    0.3501505816119608    0.4329822023407202    H1157
    0.8577771695726875    0.3501505816119608    0.7663155356740535    H1158
    0.8577771695726875    0.6834839149452941    0.0996488690073869    H1159
    0.8577771695726875    0.6834839149452941    0.4329822023407202    H1160
    0.8577771695726875    0.6834839149452941    0.7663155356740535    H1161
    0.1532834411154573    0.0488409323155756    0.1486169370855785    H1162
    0.1532834411154573    0.0488409323155756    0.4819502704189120    H1163
    0.1532834411154573    0.0488409323155756    0.8152836037522453    H1164
    0.1532834411154573    0.3821742656489090    0.1486169370855785    H1165
    0.1532834411154573    0.3821742656489090    0.4819502704189120    H1166
    0.1532834411154573    0.3821742656489090    0.8152836037522453    H1167
    0.1532834411154573    0.7155075989822424    0.1486169370855785    H1168
    0.1532834411154573    0.7155075989822424    0.4819502704189120    H1169
    0.1532834411154573    0.7155075989822424    0.8152836037522453    H1170
    0.4866167744487906    0.0488409323155756    0.1486169370855785    H1171
    0.4866167744487906    0.0488409323155756    0.4819502704189120    H1172
    0.4866167744487906    0.0488409323155756    0.8152836037522453    H1173
    0.4866167744487906    0.3821742656489090    0.1486169370855785    H1174
    0.4866167744487906    0.3821742656489090    0.4819502704189120    H1175
    0.4866167744487906    0.3821742656489090    0.8152836037522453    H1176
    0.4866167744487906    0.7155075989822424    0.1486169370855785    H1177
    0.4866167744487906    0.7155075989822424    0.4819502704189120    H1178
    0.4866167744487906    0.7155075989822424    0.8152836037522453    H1179
    0.8199501077821240    0.0488409323155756    0.1486169370855785    H1180
    0.8199501077821240    0.0488409323155756    0.4819502704189120    H1181
    0.8199501077821240    0.0488409323155756    0.8152836037522453    H1182
    0.8199501077821240    0.3821742656489090    0.1486169370855785    H1183
    0.8199501077821240    0.3821742656489090    0.4819502704189120    H1184
    0.8199501077821240    0.3821742656489090    0.8152836037522453    H1185
    0.8199501077821240    0.7155075989822424    0.1486169370855785    H1186
    0.8199501077821240    0.7155075989822424    0.4819502704189120    H1187
    0.8199501077821240    0.7155075989822424    0.8152836037522453    H1188
    0.1656379116779740    0.0141906471940407    0.2320684664321230    H1189
    0.1656379116779740    0.0141906471940407    0.5654017997654563    H1190
    0.1656379116779740    0.0141906471940407    0.8987351330987896    H1191
    0.1656379116779740    0.3475239805273741    0.2320684664321230    H1192
    0.1656379116779740    0.3475239805273741    0.5654017997654563    H1193
    0.1656379116779740    0.3475239805273741    0.8987351330987896    H1194
    0.1656379116779740    0.6808573138607075    0.2320684664321230    H1195
    0.1656379116779740    0.6808573138607075    0.5654017997654563    H1196
    0.1656379116779740    0.6808573138607075    0.8987351330987896    H1197
    0.4989712450113073    0.0141906471940407    0.2320684664321230    H1198
    0.4989712450113073    0.0141906471940407    0.5654017997654563    H1199
    0.4989712450113073    0.0141906471940407    0.8987351330987896    H1200
    0.4989712450113073    0.3475239805273741    0.2320684664321230    H1201
    0.4989712450113073    0.3475239805273741    0.5654017997654563    H1202
    0.4989712450113073    0.3475239805273741    0.8987351330987896    H1203
    0.4989712450113073    0.6808573138607075    0.2320684664321230    H1204
    0.4989712450113073    0.6808573138607075    0.5654017997654563    H1205
    0.4989712450113073    0.6808573138607075    0.8987351330987896    H1206
    0.8323045783446406    0.0141906471940407    0.2320684664321230    H1207
    0.8323045783446406    0.0141906471940407    0.5654017997654563    H1208
    0.8323045783446406    0.0141906471940407    0.8987351330987896    H1209
    0.8323045783446406    0.3475239805273741    0.2320684664321230    H1210
    0.8323045783446406    0.3475239805273741    0.5654017997654563    H1211
    0.8323045783446406    0.3475239805273741    0.8987351330987896    H1212
    0.8323045783446406    0.6808573138607075    0.2320684664321230    H1213
    0.8323045783446406    0.6808573138607075    0.5654017997654563    H1214
    0.8323045783446406    0.6808573138607075    0.8987351330987896    H1215
    0.1225339378370838    0.9511308564454510    0.2402615451600676    H1216
    0.1225339378370838    0.9511308564454510    0.5735948784934010    H1217
    0.1225339378370838    0.9511308564454510    0.9069282118267342    H1218
    0.1225339378370838    0.2844641897787843    0.2402615451600676    H1219
    0.1225339378370838    0.2844641897787843    0.5735948784934010    H1220
    0.1225339378370838    0.2844641897787843    0.9069282118267342    H1221
    0.1225339378370838    0.6177975231121176    0.2402615451600676    H1222
    0.1225339378370838    0.6177975231121176    0.5735948784934010    H1223
    0.1225339378370838    0.6177975231121176    0.9069282118267342    H1224
    0.4558672711704171    0.9511308564454510    0.2402615451600676    H1225
    0.4558672711704171    0.9511308564454510    0.5735948784934010    H1226
    0.4558672711704171    0.9511308564454510    0.9069282118267342    H1227
    0.4558672711704171    0.2844641897787843    0.2402615451600676    H1228
    0.4558672711704171    0.2844641897787843    0.5735948784934010    H1229
    0.4558672711704171    0.2844641897787843    0.9069282118267342    H1230
    0.4558672711704171    0.6177975231121176    0.2402615451600676    H1231
    0.4558672711704171    0.6177975231121176    0.5735948784934010    H1232
    0.4558672711704171    0.6177975231121176    0.9069282118267342    H1233
    0.7892006045037505    0.9511308564454510    0.2402615451600676    H1234
    0.7892006045037505    0.9511308564454510    0.5735948784934010    H1235
    0.7892006045037505    0.9511308564454510    0.9069282118267342    H1236
    0.7892006045037505    0.2844641897787843    0.2402615451600676    H1237
    0.7892006045037505    0.2844641897787843    0.5735948784934010    H1238
    0.7892006045037505    0.2844641897787843    0.9069282118267342    H1239
    0.7892006045037505    0.6177975231121176    0.2402615451600676    H1240
    0.7892006045037505    0.6177975231121176    0.5735948784934010    H1241
    0.7892006045037505    0.6177975231121176    0.9069282118267342    H1242
    0.8796622512172401    0.0277587763263404    0.2115204310912595    H1243
    0.8796622512172401    0.0277587763263404    0.5448537644245928    H1244
    0.8796622512172401    0.0277587763263404    0.8781870977579260    H1245
    0.8796622512172401    0.3610921096596738    0.2115204310912595    H1246
    0.8796622512172401    0.3610921096596738    0.5448537644245928    H1247
    0.8796622512172401    0.3610921096596738    0.8781870977579260    H1248
    0.8796622512172401    0.6944254429930070    0.2115204310912595    H1249
    0.8796622512172401    0.6944254429930070    0.5448537644245928    H1250
    0.8796622512172401    0.6944254429930070    0.8781870977579260    H1251
    0.2129955845505733    0.0277587763263404    0.2115204310912595    H1252
    0.2129955845505733    0.0277587763263404    0.5448537644245928    H1253
    0.2129955845505733    0.0277587763263404    0.8781870977579260    H1254
    0.2129955845505733    0.3610921096596738    0.2115204310912595    H1255
    0.2129955845505733    0.3610921096596738    0.5448537644245928    H1256
    0.2129955845505733    0.3610921096596738    0.8781870977579260    H1257
    0.2129955845505733    0.6944254429930070    0.2115204310912595    H1258
    0.2129955845505733    0.6944254429930070    0.5448537644245928    H1259
    0.2129955845505733    0.6944254429930070    0.8781870977579260    H1260
    0.5463289178839067    0.0277587763263404    0.2115204310912595    H1261
    0.5463289178839067    0.0277587763263404    0.5448537644245928    H1262
    0.5463289178839067    0.0277587763263404    0.8781870977579260    H1263
    0.5463289178839067    0.3610921096596738    0.2115204310912595    H1264
    0.5463289178839067    0.3610921096596738    0.5448537644245928    H1265
    0.5463289178839067    0.3610921096596738    0.8781870977579260    H1266
    0.5463289178839067    0.6944254429930070    0.2115204310912595    H1267
    0.5463289178839067    0.6944254429930070    0.5448537644245928    H1268
    0.5463289178839067    0.6944254429930070    0.8781870977579260    H1269
    0.9915051819025784    0.0260497174137713    0.1206249108382922    H1270
    0.9915051819025784    0.0260497174137713    0.4539582441716256    H1271
    0.9915051819025784    0.0260497174137713    0.7872915775049589    H1272
    0.9915051819025784    0.3593830507471045    0.1206249108382922    H1273
    0.9915051819025784    0.3593830507471045    0.4539582441716256    H1274
    0.9915051819025784    0.3593830507471045    0.7872915775049589    H1275
    0.9915051819025784    0.6927163840804378    0.1206249108382922    H1276
    0.9915051819025784    0.6927163840804378    0.4539582441716256    H1277
    0.9915051819025784    0.6927163840804378    0.7872915775049589    H1278
    0.3248385152359118    0.0260497174137713    0.1206249108382922    H1279
    0.3248385152359118    0.0260497174137713    0.4539582441716256    H1280
    0.3248385152359118    0.0260497174137713    0.7872915775049589    H1281
    0.3248385152359118    0.3593830507471045    0.1206249108382922    H1282
    0.3248385152359118    0.3593830507471045    0.4539582441716256    H1283
    0.3248385152359118    0.3593830507471045    0.7872915775049589    H1284
    0.3248385152359118    0.6927163840804378    0.1206249108382922    H1285
    0.3248385152359118    0.6927163840804378    0.4539582441716256    H1286
    0.3248385152359118    0.6927163840804378    0.7872915775049589    H1287
    0.6581718485692452    0.0260497174137713    0.1206249108382922    H1288
    0.6581718485692452    0.0260497174137713    0.4539582441716256    H1289
    0.6581718485692452    0.0260497174137713    0.7872915775049589    H1290
    0.6581718485692452    0.3593830507471045    0.1206249108382922    H1291
    0.6581718485692452    0.3593830507471045    0.4539582441716256    H1292
    0.6581718485692452    0.3593830507471045    0.7872915775049589    H1293
    0.6581718485692452    0.6927163840804378    0.1206249108382922    H1294
    0.6581718485692452    0.6927163840804378    0.4539582441716256    H1295
    0.6581718485692452    0.6927163840804378    0.7872915775049589    H1296
    0.9017693331862020    0.1404509455454175    0.0683155338920756    H1297
    0.9017693331862020    0.1404509455454175    0.4016488672254089    H1298
    0.9017693331862020    0.1404509455454175    0.7349822005587422    H1299
    0.9017693331862020    0.4737842788787507    0.0683155338920756    H1300
    0.9017693331862020    0.4737842788787507    0.4016488672254089    H1301
    0.9017693331862020    0.4737842788787507    0.7349822005587422    H1302
    0.9017693331862020    0.8071176122120841    0.0683155338920756    H1303
    0.9017693331862020    0.8071176122120841    0.4016488672254089    H1304
    0.9017693331862020    0.8071176122120841    0.7349822005587422    H1305
    0.2351026665195353    0.1404509455454175    0.0683155338920756    H1306
    0.2351026665195353    0.1404509455454175    0.4016488672254089    H1307
    0.2351026665195353    0.1404509455454175    0.7349822005587422    H1308
    0.2351026665195353    0.4737842788787507    0.0683155338920756    H1309
    0.2351026665195353    0.4737842788787507    0.4016488672254089    H1310
    0.2351026665195353    0.4737842788787507    0.7349822005587422    H1311
    0.2351026665195353    0.8071176122120841    0.0683155338920756    H1312
    0.2351026665195353    0.8071176122120841    0.4016488672254089    H1313
    0.2351026665195353    0.8071176122120841    0.7349822005587422    H1314
    0.5684359998528685    0.1404509455454175    0.0683155338920756    H1315
    0.5684359998528685    0.1404509455454175    0.4016488672254089    H1316
    0.5684359998528685    0.1404509455454175    0.7349822005587422    H1317
    0.5684359998528685    0.4737842788787507    0.0683155338920756    H1318
    0.5684359998528685    0.4737842788787507    0.4016488672254089    H1319
    0.5684359998528685    0.4737842788787507    0.7349822005587422    H1320
    0.5684359998528685    0.8071176122120841    0.0683155338920756    H1321
    0.5684359998528685    0.8071176122120841    0.4016488672254089    H1322
    0.5684359998528685    0.8071176122120841    0.7349822005587422    H1323
    0.9378565561652374    0.2644887557533453    0.0362584269171252    H1324
    0.9378565561652374    0.2644887557533453    0.3695917602504586    H1325
    0.9378565561652374    0.2644887557533453    0.7029250935837918    H1326
    0.9378565561652374    0.5978220890866787    0.0362584269171252    H1327
    0.9378565561652374    0.5978220890866787    0.3695917602504586    H1328
    0.9378565561652374    0.5978220890866787    0.7029250935837918    H1329
    0.9378565561652374    0.9311554224200119    0.0362584269171252    H1330
    0.9378565561652374    0.9311554224200119    0.3695917602504586    H1331
    0.9378565561652374    0.9311554224200119    0.7029250935837918    H1332
    0.2711898894985707    0.2644887557533453    0.0362584269171252    H1333
    0.2711898894985707    0.2644887557533453    0.3695917602504586    H1334
    0.2711898894985707    0.2644887557533453    0.7029250935837918    H1335
    0.2711898894985707    0.5978220890866787    0.0362584269171252    H1336
    0.2711898894985707    0.5978220890866787    0.3695917602504586    H1337
    0.2711898894985707    0.5978220890866787    0.7029250935837918    H1338
    0.2711898894985707    0.9311554224200119    0.0362584269171252    H1339
    0.2711898894985707    0.9311554224200119    0.3695917602504586    H1340
    0.2711898894985707    0.9311554224200119    0.7029250935837918    H1341
    0.6045232228319040    0.2644887557533453    0.0362584269171252    H1342
    0.6045232228319040    0.2644887557533453    0.3695917602504586    H1343
    0.6045232228319040    0.2644887557533453    0.7029250935837918    H1344
    0.6045232228319040    0.5978220890866787    0.0362584269171252    H1345
    0.6045232228319040    0.5978220890866787    0.3695917602504586    H1346
    0.6045232228319040    0.5978220890866787    0.7029250935837918    H1347
    0.6045232228319040    0.9311554224200119    0.0362584269171252    H1348
    0.6045232228319040    0.9311554224200119    0.3695917602504586    H1349
    0.6045232228319040    0.9311554224200119    0.7029250935837918    H1350
    0.1180344610611849    0.2722734053371986    0.4377107554030880    H1351
    0.1180344610611849    0.2722734053371986    0.7710440887364214    H1352
    0.1180344610611849    0.2722734053371986    0.1043774220697546    H1353
    0.1180344610611849    0.6056067386705319    0.4377107554030880    H1354
    0.1180344610611849    0.6056067386705319    0.7710440887364214    H1355
    0.1180344610611849    0.6056067386705319    0.1043774220697546    H1356
    0.1180344610611849    0.9389400720038652    0.4377107554030880    H1357
    0.1180344610611849    0.9389400720038652    0.7710440887364214    H1358
    0.1180344610611849    0.9389400720038652    0.1043774220697546    H1359
    0.4513677943945182    0.2722734053371986    0.4377107554030880    H1360
    0.4513677943945182    0.2722734053371986    0.7710440887364214    H1361
    0.4513677943945182    0.2722734053371986    0.1043774220697546    H1362
    0.4513677943945182    0.6056067386705319    0.4377107554030880    H1363
    0.4513677943945182    0.6056067386705319    0.7710440887364214    H1364
    0.4513677943945182    0.6056067386705319    0.1043774220697546    H1365
    0.4513677943945182    0.9389400720038652    0.4377107554030880    H1366
    0.4513677943945182    0.9389400720038652    0.7710440887364214    H1367
    0.4513677943945182    0.9389400720038652    0.1043774220697546    H1368
    0.7847011277278516    0.2722734053371986    0.4377107554030880    H1369
    0.7847011277278516    0.2722734053371986    0.7710440887364214    H1370
    0.7847011277278516    0.2722734053371986    0.1043774220697546    H1371
    0.7847011277278516    0.6056067386705319    0.4377107554030880    H1372
    0.7847011277278516    0.6056067386705319    0.7710440887364214    H1373
    0.7847011277278516    0.6056067386705319    0.1043774220697546    H1374
    0.7847011277278516    0.9389400720038652    0.4377107554030880    H1375
    0.7847011277278516    0.9389400720038652    0.7710440887364214    H1376
    0.7847011277278516    0.9389400720038652    0.1043774220697546    H1377
    0.0582694400806187    0.3037540119399800    0.4161462285991195    H1378
    0.0582694400806187    0.3037540119399800    0.7494795619324528    H1379
    0.0582694400806187    0.3037540119399800    0.0828128952657861    H1380
    0.0582694400806187    0.6370873452733132    0.4161462285991195    H1381
    0.0582694400806187    0.6370873452733132    0.7494795619324528    H1382
    0.0582694400806187    0.6370873452733132    0.0828128952657861    H1383
    0.0582694400806187    0.9704206786066466    0.4161462285991195    H1384
    0.0582694400806187    0.9704206786066466    0.7494795619324528    H1385
    0.0582694400806187    0.9704206786066466    0.0828128952657861    H1386
    0.3916027734139521    0.3037540119399800    0.4161462285991195    H1387
    0.3916027734139521    0.3037540119399800    0.7494795619324528    H1388
    0.3916027734139521    0.3037540119399800    0.0828128952657861    H1389
    0.3916027734139521    0.6370873452733132    0.4161462285991195    H1390
    0.3916027734139521    0.6370873452733132    0.7494795619324528    H1391
    0.3916027734139521    0.6370873452733132    0.0828128952657861    H1392
    0.3916027734139521    0.9704206786066466    0.4161462285991195    H1393
    0.3916027734139521    0.9704206786066466    0.7494795619324528    H1394
    0.3916027734139521    0.9704206786066466    0.0828128952657861    H1395
    0.7249361067472855    0.3037540119399800    0.4161462285991195    H1396
    0.7249361067472855    0.3037540119399800    0.7494795619324528    H1397
    0.7249361067472855    0.3037540119399800    0.0828128952657861    H1398
    0.7249361067472855    0.6370873452733132    0.4161462285991195    H1399
    0.7249361067472855    0.6370873452733132    0.7494795619324528    H1400
    0.7249361067472855    0.6370873452733132    0.0828128952657861    H1401
    0.7249361067472855    0.9704206786066466    0.4161462285991195    H1402
    0.7249361067472855    0.9704206786066466    0.7494795619324528    H1403
    0.7249361067472855    0.9704206786066466    0.0828128952657861    H1404
    0.8810202359193919    0.2327049983330260    0.9869740739945103    H1405
    0.8810202359193919    0.2327049983330260    0.3203074073278436    H1406
    0.8810202359193919    0.2327049983330260    0.6536407406611768    H1407
    0.8810202359193919    0.5660383316663594    0.9869740739945103    H1408
    0.8810202359193919    0.5660383316663594    0.3203074073278436    H1409
    0.8810202359193919    0.5660383316663594    0.6536407406611768    H1410
    0.8810202359193919    0.8993716649996927    0.9869740739945103    H1411
    0.8810202359193919    0.8993716649996927    0.3203074073278436    H1412
    0.8810202359193919    0.8993716649996927    0.6536407406611768    H1413
    0.2143535692527252    0.2327049983330260    0.9869740739945103    H1414
    0.2143535692527252    0.2327049983330260    0.3203074073278436    H1415
    0.2143535692527252    0.2327049983330260    0.6536407406611768    H1416
    0.2143535692527252    0.5660383316663594    0.9869740739945103    H1417
    0.2143535692527252    0.5660383316663594    0.3203074073278436    H1418
    0.2143535692527252    0.5660383316663594    0.6536407406611768    H1419
    0.2143535692527252    0.8993716649996927    0.9869740739945103    H1420
    0.2143535692527252    0.8993716649996927    0.3203074073278436    H1421
    0.2143535692527252    0.8993716649996927    0.6536407406611768    H1422
    0.5476869025860585    0.2327049983330260    0.9869740739945103    H1423
    0.5476869025860585    0.2327049983330260    0.3203074073278436    H1424
    0.5476869025860585    0.2327049983330260    0.6536407406611768    H1425
    0.5476869025860585    0.5660383316663594    0.9869740739945103    H1426
    0.5476869025860585    0.5660383316663594    0.3203074073278436    H1427
    0.5476869025860585    0.5660383316663594    0.6536407406611768    H1428
    0.5476869025860585    0.8993716649996927    0.9869740739945103    H1429
    0.5476869025860585    0.8993716649996927    0.3203074073278436    H1430
    0.5476869025860585    0.8993716649996927    0.6536407406611768    H1431
    0.0888958495240117    0.3310967578158388    0.4263452684417256    H1432
    0.0888958495240117    0.3310967578158388    0.7596786017750590    H1433
    0.0888958495240117    0.3310967578158388    0.0930119351083922    H1434
    0.0888958495240117    0.6644300911491721    0.4263452684417256    H1435
    0.0888958495240117    0.6644300911491721    0.7596786017750590    H1436
    0.0888958495240117    0.6644300911491721    0.0930119351083922    H1437
    0.0888958495240117    0.9977634244825054    0.4263452684417256    H1438
    0.0888958495240117    0.9977634244825054    0.7596786017750590    H1439
    0.0888958495240117    0.9977634244825054    0.0930119351083922    H1440
    0.4222291828573450    0.3310967578158388    0.4263452684417256    H1441
    0.4222291828573450    0.3310967578158388    0.7596786017750590    H1442
    0.4222291828573450    0.3310967578158388    0.0930119351083922    H1443
    0.4222291828573450    0.6644300911491721    0.4263452684417256    H1444
    0.4222291828573450    0.6644300911491721    0.7596786017750590    H1445
    0.4222291828573450    0.6644300911491721    0.0930119351083922    H1446
    0.4222291828573450    0.9977634244825054    0.4263452684417256    H1447
    0.4222291828573450    0.9977634244825054    0.7596786017750590    H1448
    0.4222291828573450    0.9977634244825054    0.0930119351083922    H1449
    0.7555625161906783    0.3310967578158388    0.4263452684417256    H1450
    0.7555625161906783    0.3310967578158388    0.7596786017750590    H1451
    0.7555625161906783    0.3310967578158388    0.0930119351083922    H1452
    0.7555625161906783    0.6644300911491721    0.4263452684417256    H1453
    0.7555625161906783    0.6644300911491721    0.7596786017750590    H1454
    0.7555625161906783    0.6644300911491721    0.0930119351083922    H1455
    0.7555625161906783    0.9977634244825054    0.4263452684417256    H1456
    0.7555625161906783    0.9977634244825054    0.7596786017750590    H1457
    0.7555625161906783    0.9977634244825054    0.0930119351083922    H1458
    0.8782778552064323    0.2815688005667090    0.9731598647372630    H1459
    0.8782778552064323    0.2815688005667090    0.3064931980705963    H1460
    0.8782778552064323    0.2815688005667090    0.6398265314039296    H1461
    0.8782778552064323    0.6149021339000423    0.9731598647372630    H1462
    0.8782778552064323    0.6149021339000423    0.3064931980705963    H1463
    0.8782778552064323    0.6149021339000423    0.6398265314039296    H1464
    0.8782778552064323    0.9482354672333757    0.9731598647372630    H1465
    0.8782778552064323    0.9482354672333757    0.3064931980705963    H1466
    0.8782778552064323    0.9482354672333757    0.6398265314039296    H1467
    0.2116111885397656    0.2815688005667090    0.9731598647372630    H1468
    0.2116111885397656    0.2815688005667090    0.3064931980705963    H1469
    0.2116111885397656    0.2815688005667090    0.6398265314039296    H1470
    0.2116111885397656    0.6149021339000423    0.9731598647372630    H1471
    0.2116111885397656    0.6149021339000423    0.3064931980705963    H1472
    0.2116111885397656    0.6149021339000423    0.6398265314039296    H1473
    0.2116111885397656    0.9482354672333757    0.9731598647372630    H1474
    0.2116111885397656    0.9482354672333757    0.3064931980705963    H1475
    0.2116111885397656    0.9482354672333757    0.6398265314039296    H1476
    0.5449445218730991    0.2815688005667090    0.9731598647372630    H1477
    0.5449445218730991    0.2815688005667090    0.3064931980705963    H1478
    0.5449445218730991    0.2815688005667090    0.6398265314039296    H1479
    0.5449445218730991    0.6149021339000423    0.9731598647372630    H1480
    0.5449445218730991    0.6149021339000423    0.3064931980705963    H1481
    0.5449445218730991    0.6149021339000423    0.6398265314039296    H1482
    0.5449445218730991    0.9482354672333757    0.9731598647372630    H1483
    0.5449445218730991    0.9482354672333757    0.3064931980705963    H1484
    0.5449445218730991    0.9482354672333757    0.6398265314039296    H1485
    0.0859925390666122    0.2246756907185758    0.4507359123912542    H1486
    0.0859925390666122    0.2246756907185758    0.7840692457245875    H1487
    0.0859925390666122    0.2246756907185758    0.1174025790579208    H1488
    0.0859925390666122    0.5580090240519091    0.4507359123912542    H1489
    0.0859925390666122    0.5580090240519091    0.7840692457245875    H1490
    0.0859925390666122    0.5580090240519091    0.1174025790579208    H1491
    0.0859925390666122    0.8913423573852424    0.4507359123912542    H1492
    0.0859925390666122    0.8913423573852424    0.7840692457245875    H1493
    0.0859925390666122    0.8913423573852424    0.1174025790579208    H1494
    0.4193258723999455    0.2246756907185758    0.4507359123912542    H1495
    0.4193258723999455    0.2246756907185758    0.7840692457245875    H1496
    0.4193258723999455    0.2246756907185758    0.1174025790579208    H1497
    0.4193258723999455    0.5580090240519091    0.4507359123912542    H1498
    0.4193258723999455    0.5580090240519091    0.7840692457245875    H1499
    0.4193258723999455    0.5580090240519091    0.1174025790579208    H1500
    0.4193258723999455    0.8913423573852424    0.4507359123912542    H1501
    0.4193258723999455    0.8913423573852424    0.7840692457245875    H1502
    0.4193258723999455    0.8913423573852424    0.1174025790579208    H1503
    0.7526592057332788    0.2246756907185758    0.4507359123912542    H1504
    0.7526592057332788    0.2246756907185758    0.7840692457245875    H1505
    0.7526592057332788    0.2246756907185758    0.1174025790579208    H1506
    0.7526592057332788    0.5580090240519091    0.4507359123912542    H1507
    0.7526592057332788    0.5580090240519091    0.7840692457245875    H1508
    0.7526592057332788    0.5580090240519091    0.1174025790579208    H1509
    0.7526592057332788    0.8913423573852424    0.4507359123912542    H1510
    0.7526592057332788    0.8913423573852424    0.7840692457245875    H1511
    0.7526592057332788    0.8913423573852424    0.1174025790579208    H1512
    0.0561107932142536    0.2721333453577932    0.4558994999441054    H1513
    0.0561107932142536    0.2721333453577932    0.7892328332774388    H1514
    0.0561107932142536    0.2721333453577932    0.1225661666107720    H1515
    0.0561107932142536    0.6054666786911266    0.4558994999441054    H1516
    0.0561107932142536    0.6054666786911266    0.7892328332774388    H1517
    0.0561107932142536    0.6054666786911266    0.1225661666107720    H1518
    0.0561107932142536    0.9388000120244598    0.4558994999441054    H1519
    0.0561107932142536    0.9388000120244598    0.7892328332774388    H1520
    0.0561107932142536    0.9388000120244598    0.1225661666107720    H1521
    0.3894441265475870    0.2721333453577932    0.4558994999441054    H1522
    0.3894441265475870    0.2721333453577932    0.7892328332774388    H1523
    0.3894441265475870    0.2721333453577932    0.1225661666107720    H1524
    0.3894441265475870    0.6054666786911266    0.4558994999441054    H1525
    0.3894441265475870    0.6054666786911266    0.7892328332774388    H1526
    0.3894441265475870    0.6054666786911266    0.1225661666107720    H1527
    0.3894441265475870    0.9388000120244598    0.4558994999441054    H1528
    0.3894441265475870    0.9388000120244598    0.7892328332774388    H1529
    0.3894441265475870    0.9388000120244598    0.1225661666107720    H1530
    0.7227774598809202    0.2721333453577932    0.4558994999441054    H1531
    0.7227774598809202    0.2721333453577932    0.7892328332774388    H1532
    0.7227774598809202    0.2721333453577932    0.1225661666107720    H1533
    0.7227774598809202    0.6054666786911266    0.4558994999441054    H1534
    0.7227774598809202    0.6054666786911266    0.7892328332774388    H1535
    0.7227774598809202    0.6054666786911266    0.1225661666107720    H1536
    0.7227774598809202    0.9388000120244598    0.4558994999441054    H1537
    0.7227774598809202    0.9388000120244598    0.7892328332774388    H1538
    0.7227774598809202    0.9388000120244598    0.1225661666107720    H1539
    0.1134957053328607    0.0200292245930895    0.1611636545790404    H1540
    0.1134957053328607    0.0200292245930895    0.4944969879123737    H1541
    0.1134957053328607    0.0200292245930895    0.8278303212457070    H1542
    0.1134957053328607    0.3533625579264229    0.1611636545790404    H1543
    0.1134957053328607    0.3533625579264229    0.4944969879123737    H1544
    0.1134957053328607    0.3533625579264229    0.8278303212457070    H1545
    0.1134957053328607    0.6866958912597562    0.1611636545790404    H1546
    0.1134957053328607    0.6866958912597562    0.4944969879123737    H1547
    0.1134957053328607    0.6866958912597562    0.8278303212457070    H1548
    0.4468290386661939    0.0200292245930895    0.1611636545790404    H1549
    0.4468290386661939    0.0200292245930895    0.4944969879123737    H1550
    0.4468290386661939    0.0200292245930895    0.8278303212457070    H1551
    0.4468290386661939    0.3533625579264229    0.1611636545790404    H1552
    0.4468290386661939    0.3533625579264229    0.4944969879123737    H1553
    0.4468290386661939    0.3533625579264229    0.8278303212457070    H1554
    0.4468290386661939    0.6866958912597562    0.1611636545790404    H1555
    0.4468290386661939    0.6866958912597562    0.4944969879123737    H1556
    0.4468290386661939    0.6866958912597562    0.8278303212457070    H1557
    0.7801623719995273    0.0200292245930895    0.1611636545790404    H1558
    0.7801623719995273    0.0200292245930895    0.4944969879123737    H1559
    0.7801623719995273    0.0200292245930895    0.8278303212457070    H1560
    0.7801623719995273    0.3533625579264229    0.1611636545790404    H1561
    0.7801623719995273    0.3533625579264229    0.4944969879123737    H1562
    0.7801623719995273    0.3533625579264229    0.8278303212457070    H1563
    0.7801623719995273    0.6866958912597562    0.1611636545790404    H1564
    0.7801623719995273    0.6866958912597562    0.4944969879123737    H1565
    0.7801623719995273    0.6866958912597562    0.8278303212457070    H1566
    0.1036401492353639    0.8800359966723243    0.3741253949731719    H1567
    0.1036401492353639    0.8800359966723243    0.7074587283065052    H1568
    0.1036401492353639    0.8800359966723243    0.0407920616398385    H1569
    0.1036401492353639    0.2133693300056576    0.3741253949731719    H1570
    0.1036401492353639    0.2133693300056576    0.7074587283065052    H1571
    0.1036401492353639    0.2133693300056576    0.0407920616398385    H1572
    0.1036401492353639    0.5467026633389911    0.3741253949731719    H1573
    0.1036401492353639    0.5467026633389911    0.7074587283065052    H1574
    0.1036401492353639    0.5467026633389911    0.0407920616398385    H1575
    0.4369734825686973    0.8800359966723243    0.3741253949731719    H1576
    0.4369734825686973    0.8800359966723243    0.7074587283065052    H1577
    0.4369734825686973    0.8800359966723243    0.0407920616398385    H1578
    0.4369734825686973    0.2133693300056576    0.3741253949731719    H1579
    0.4369734825686973    0.2133693300056576    0.7074587283065052    H1580
    0.4369734825686973    0.2133693300056576    0.0407920616398385    H1581
    0.4369734825686973    0.5467026633389911    0.3741253949731719    H1582
    0.4369734825686973    0.5467026633389911    0.7074587283065052    H1583
    0.4369734825686973    0.5467026633389911    0.0407920616398385    H1584
    0.7703068159020305    0.8800359966723243    0.3741253949731719    H1585
    0.7703068159020305    0.8800359966723243    0.7074587283065052    H1586
    0.7703068159020305    0.8800359966723243    0.0407920616398385    H1587
    0.7703068159020305    0.2133693300056576    0.3741253949731719    H1588
    0.7703068159020305    0.2133693300056576    0.7074587283065052    H1589
    0.7703068159020305    0.2133693300056576    0.0407920616398385    H1590
    0.7703068159020305    0.5467026633389911    0.3741253949731719    H1591
    0.7703068159020305    0.5467026633389911    0.7074587283065052    H1592
    0.7703068159020305    0.5467026633389911    0.0407920616398385    H1593
    0.1815968095406770    0.8063286330254205    0.3807405596901046    H1594
    0.1815968095406770    0.8063286330254205    0.7140738930234379    H1595
    0.1815968095406770    0.8063286330254205    0.0474072263567712    H1596
    0.1815968095406770    0.1396619663587537    0.3807405596901046    H1597
    0.1815968095406770    0.1396619663587537    0.7140738930234379    H1598
    0.1815968095406770    0.1396619663587537    0.0474072263567712    H1599
    0.1815968095406770    0.4729952996920871    0.3807405596901046    H1600
    0.1815968095406770    0.4729952996920871    0.7140738930234379    H1601
    0.1815968095406770    0.4729952996920871    0.0474072263567712    H1602
    0.5149301428740104    0.8063286330254205    0.3807405596901046    H1603
    0.5149301428740104    0.8063286330254205    0.7140738930234379    H1604
    0.5149301428740104    0.8063286330254205    0.0474072263567712    H1605
    0.5149301428740104    0.1396619663587537    0.3807405596901046    H1606
    0.5149301428740104    0.1396619663587537    0.7140738930234379    H1607
    0.5149301428740104    0.1396619663587537    0.0474072263567712    H1608
    0.5149301428740104    0.4729952996920871    0.3807405596901046    H1609
    0.5149301428740104    0.4729952996920871    0.7140738930234379    H1610
    0.5149301428740104    0.4729952996920871    0.0474072263567712    H1611
    0.8482634762073438    0.8063286330254205    0.3807405596901046    H1612
    0.8482634762073438    0.8063286330254205    0.7140738930234379    H1613
    0.8482634762073438    0.8063286330254205    0.0474072263567712    H1614
    0.8482634762073438    0.1396619663587537    0.3807405596901046    H1615
    0.8482634762073438    0.1396619663587537    0.7140738930234379    H1616
    0.8482634762073438    0.1396619663587537    0.0474072263567712    H1617
    0.8482634762073438    0.4729952996920871    0.3807405596901046    H1618
    0.8482634762073438    0.4729952996920871    0.7140738930234379    H1619
    0.8482634762073438    0.4729952996920871    0.0474072263567712    H1620
    0.8581533028968724    0.9067807018417686    0.2837569006347151    H1621
    0.8581533028968724    0.9067807018417686    0.6170902339680485    H1622
    0.8581533028968724    0.9067807018417686    0.9504235673013818    H1623
    0.8581533028968724    0.2401140351751020    0.2837569006347151    H1624
    0.8581533028968724    0.2401140351751020    0.6170902339680485    H1625
    0.8581533028968724    0.2401140351751020    0.9504235673013818    H1626
    0.8581533028968724    0.5734473685084354    0.2837569006347151    H1627
    0.8581533028968724    0.5734473685084354    0.6170902339680485    H1628
    0.8581533028968724    0.5734473685084354    0.9504235673013818    H1629
    0.1914866362302057    0.9067807018417686    0.2837569006347151    H1630
    0.1914866362302057    0.9067807018417686    0.6170902339680485    H1631
    0.1914866362302057    0.9067807018417686    0.9504235673013818    H1632
    0.1914866362302057    0.2401140351751020    0.2837569006347151    H1633
    0.1914866362302057    0.2401140351751020    0.6170902339680485    H1634
    0.1914866362302057    0.2401140351751020    0.9504235673013818    H1635
    0.1914866362302057    0.5734473685084354    0.2837569006347151    H1636
    0.1914866362302057    0.5734473685084354    0.6170902339680485    H1637
    0.1914866362302057    0.5734473685084354    0.9504235673013818    H1638
    0.5248199695635390    0.9067807018417686    0.2837569006347151    H1639
    0.5248199695635390    0.9067807018417686    0.6170902339680485    H1640
    0.5248199695635390    0.9067807018417686    0.9504235673013818    H1641
    0.5248199695635390    0.2401140351751020    0.2837569006347151    H1642
    0.5248199695635390    0.2401140351751020    0.6170902339680485    H1643
    0.5248199695635390    0.2401140351751020    0.9504235673013818    H1644
    0.5248199695635390    0.5734473685084354    0.2837569006347151    H1645
    0.5248199695635390    0.5734473685084354    0.6170902339680485    H1646
    0.5248199695635390    0.5734473685084354    0.9504235673013818    H1647
    0.0506199402241834    0.9046130154258218    0.3193325672801701    H1648
    0.0506199402241834    0.9046130154258218    0.6526659006135035    H1649
    0.0506199402241834    0.9046130154258218    0.9859992339468369    H1650
    0.0506199402241834    0.2379463487591551    0.3193325672801701    H1651
    0.0506199402241834    0.2379463487591551    0.6526659006135035    H1652
    0.0506199402241834    0.2379463487591551    0.9859992339468369    H1653
    0.0506199402241834    0.5712796820924884    0.3193325672801701    H1654
    0.0506199402241834    0.5712796820924884    0.6526659006135035    H1655
    0.0506199402241834    0.5712796820924884    0.9859992339468369    H1656
    0.3839532735575166    0.9046130154258218    0.3193325672801701    H1657
    0.3839532735575166    0.9046130154258218    0.6526659006135035    H1658
    0.3839532735575166    0.9046130154258218    0.9859992339468369    H1659
    0.3839532735575166    0.2379463487591551    0.3193325672801701    H1660
    0.3839532735575166    0.2379463487591551    0.6526659006135035    H1661
    0.3839532735575166    0.2379463487591551    0.9859992339468369    H1662
    0.3839532735575166    0.5712796820924884    0.3193325672801701    H1663
    0.3839532735575166    0.5712796820924884    0.6526659006135035    H1664
    0.3839532735575166    0.5712796820924884    0.9859992339468369    H1665
    0.7172866068908500    0.9046130154258218    0.3193325672801701    H1666
    0.7172866068908500    0.9046130154258218    0.6526659006135035    H1667
    0.7172866068908500    0.9046130154258218    0.9859992339468369    H1668
    0.7172866068908500    0.2379463487591551    0.3193325672801701    H1669
    0.7172866068908500    0.2379463487591551    0.6526659006135035    H1670
    0.7172866068908500    0.2379463487591551    0.9859992339468369    H1671
    0.7172866068908500    0.5712796820924884    0.3193325672801701    H1672
    0.7172866068908500    0.5712796820924884    0.6526659006135035    H1673
    0.7172866068908500    0.5712796820924884    0.9859992339468369    H1674
    0.0091916904393611    0.8613861161340317    0.2752085074261065    H1675
    0.0091916904393611    0.8613861161340317    0.6085418407594398    H1676
    0.0091916904393611    0.8613861161340317    0.9418751740927731    H1677
    0.0091916904393611    0.1947194494673650    0.2752085074261065    H1678
    0.0091916904393611    0.1947194494673650    0.6085418407594398    H1679
    0.0091916904393611    0.1947194494673650    0.9418751740927731    H1680
    0.0091916904393611    0.5280527828006982    0.2752085074261065    H1681
    0.0091916904393611    0.5280527828006982    0.6085418407594398    H1682
    0.0091916904393611    0.5280527828006982    0.9418751740927731    H1683
    0.3425250237726944    0.8613861161340317    0.2752085074261065    H1684
    0.3425250237726944    0.8613861161340317    0.6085418407594398    H1685
    0.3425250237726944    0.8613861161340317    0.9418751740927731    H1686
    0.3425250237726944    0.1947194494673650    0.2752085074261065    H1687
    0.3425250237726944    0.1947194494673650    0.6085418407594398    H1688
    0.3425250237726944    0.1947194494673650    0.9418751740927731    H1689
    0.3425250237726944    0.5280527828006982    0.2752085074261065    H1690
    0.3425250237726944    0.5280527828006982    0.6085418407594398    H1691
    0.3425250237726944    0.5280527828006982    0.9418751740927731    H1692
    0.6758583571060277    0.8613861161340317    0.2752085074261065    H1693
    0.6758583571060277    0.8613861161340317    0.6085418407594398    H1694
    0.6758583571060277    0.8613861161340317    0.9418751740927731    H1695
    0.6758583571060277    0.1947194494673650    0.2752085074261065    H1696
    0.6758583571060277    0.1947194494673650    0.6085418407594398    H1697
    0.6758583571060277    0.1947194494673650    0.9418751740927731    H1698
    0.6758583571060277    0.5280527828006982    0.2752085074261065    H1699
    0.6758583571060277    0.5280527828006982    0.6085418407594398    H1700
    0.6758583571060277    0.5280527828006982    0.9418751740927731    H1701
    0.0934039584474649    0.1823583578366406    0.2693765989224703    H1702
    0.0934039584474649    0.1823583578366406    0.6027099322558036    H1703
    0.0934039584474649    0.1823583578366406    0.9360432655891369    H1704
    0.0934039584474649    0.5156916911699739    0.2693765989224703    H1705
    0.0934039584474649    0.5156916911699739    0.6027099322558036    H1706
    0.0934039584474649    0.5156916911699739    0.9360432655891369    H1707
    0.0934039584474649    0.8490250245033073    0.2693765989224703    H1708
    0.0934039584474649    0.8490250245033073    0.6027099322558036    H1709
    0.0934039584474649    0.8490250245033073    0.9360432655891369    H1710
    0.4267372917807982    0.1823583578366406    0.2693765989224703    H1711
    0.4267372917807982    0.1823583578366406    0.6027099322558036    H1712
    0.4267372917807982    0.1823583578366406    0.9360432655891369    H1713
    0.4267372917807982    0.5156916911699739    0.2693765989224703    H1714
    0.4267372917807982    0.5156916911699739    0.6027099322558036    H1715
    0.4267372917807982    0.5156916911699739    0.9360432655891369    H1716
    0.4267372917807982    0.8490250245033073    0.2693765989224703    H1717
    0.4267372917807982    0.8490250245033073    0.6027099322558036    H1718
    0.4267372917807982    0.8490250245033073    0.9360432655891369    H1719
    0.7600706251141316    0.1823583578366406    0.2693765989224703    H1720
    0.7600706251141316    0.1823583578366406    0.6027099322558036    H1721
    0.7600706251141316    0.1823583578366406    0.9360432655891369    H1722
    0.7600706251141316    0.5156916911699739    0.2693765989224703    H1723
    0.7600706251141316    0.5156916911699739    0.6027099322558036    H1724
    0.7600706251141316    0.5156916911699739    0.9360432655891369    H1725
    0.7600706251141316    0.8490250245033073    0.2693765989224703    H1726
    0.7600706251141316    0.8490250245033073    0.6027099322558036    H1727
    0.7600706251141316    0.8490250245033073    0.9360432655891369    H1728
    0.6652558541043336    0.9134997817737394    0.4916622954633045    H1729
    0.6652558541043336    0.9134997817737394    0.8249956287966379    H1730
    0.6652558541043336    0.9134997817737394    0.1583289621299712    H1731
    0.6652558541043336    0.2468331151070727    0.4916622954633045    H1732
    0.6652558541043336    0.2468331151070727    0.8249956287966379    H1733
    0.6652558541043336    0.2468331151070727    0.1583289621299712    H1734
    0.6652558541043336    0.5801664484404061    0.4916622954633045    H1735
    0.6652558541043336    0.5801664484404061    0.8249956287966379    H1736
    0.6652558541043336    0.5801664484404061    0.1583289621299712    H1737
    0.9985891874376667    0.9134997817737394    0.4916622954633045    H1738
    0.9985891874376667    0.9134997817737394    0.8249956287966379    H1739
    0.9985891874376667    0.9134997817737394    0.1583289621299712    H1740
    0.9985891874376667    0.2468331151070727    0.4916622954633045    H1741
    0.9985891874376667    0.2468331151070727    0.8249956287966379    H1742
    0.9985891874376667    0.2468331151070727    0.1583289621299712    H1743
    0.9985891874376667    0.5801664484404061    0.4916622954633045    H1744
    0.9985891874376667    0.5801664484404061    0.8249956287966379    H1745
    0.9985891874376667    0.5801664484404061    0.1583289621299712    H1746
    0.3319225207710000    0.9134997817737394    0.4916622954633045    H1747
    0.3319225207710000    0.9134997817737394    0.8249956287966379    H1748
    0.3319225207710000    0.9134997817737394    0.1583289621299712    H1749
    0.3319225207710000    0.2468331151070727    0.4916622954633045    H1750
    0.3319225207710000    0.2468331151070727    0.8249956287966379    H1751
    0.3319225207710000    0.2468331151070727    0.1583289621299712    H1752
    0.3319225207710000    0.5801664484404061    0.4916622954633045    H1753
    0.3319225207710000    0.5801664484404061    0.8249956287966379    H1754
    0.3319225207710000    0.5801664484404061    0.1583289621299712    H1755
    0.8960358540364193    0.7527098625164452    0.2653533724685645    H1756
    0.8960358540364193    0.7527098625164452    0.5986867058018979    H1757
    0.8960358540364193    0.7527098625164452    0.9320200391352311    H1758
    0.8960358540364193    0.0860431958497786    0.2653533724685645    H1759
    0.8960358540364193    0.0860431958497786    0.5986867058018979    H1760
    0.8960358540364193    0.0860431958497786    0.9320200391352311    H1761
    0.8960358540364193    0.4193765291831120    0.2653533724685645    H1762
    0.8960358540364193    0.4193765291831120    0.5986867058018979    H1763
    0.8960358540364193    0.4193765291831120    0.9320200391352311    H1764
    0.2293691873697525    0.7527098625164452    0.2653533724685645    H1765
    0.2293691873697525    0.7527098625164452    0.5986867058018979    H1766
    0.2293691873697525    0.7527098625164452    0.9320200391352311    H1767
    0.2293691873697525    0.0860431958497786    0.2653533724685645    H1768
    0.2293691873697525    0.0860431958497786    0.5986867058018979    H1769
    0.2293691873697525    0.0860431958497786    0.9320200391352311    H1770
    0.2293691873697525    0.4193765291831120    0.2653533724685645    H1771
    0.2293691873697525    0.4193765291831120    0.5986867058018979    H1772
    0.2293691873697525    0.4193765291831120    0.9320200391352311    H1773
    0.5627025207030858    0.7527098625164452    0.2653533724685645    H1774
    0.5627025207030858    0.7527098625164452    0.5986867058018979    H1775
    0.5627025207030858    0.7527098625164452    0.9320200391352311    H1776
    0.5627025207030858    0.0860431958497786    0.2653533724685645    H1777
    0.5627025207030858    0.0860431958497786    0.5986867058018979    H1778
    0.5627025207030858    0.0860431958497786    0.9320200391352311    H1779
    0.5627025207030858    0.4193765291831120    0.2653533724685645    H1780
    0.5627025207030858    0.4193765291831120    0.5986867058018979    H1781
    0.5627025207030858    0.4193765291831120    0.9320200391352311    H1782
    0.9956485152752039    0.8683402272956542    0.3715794322916302    H1783
    0.9956485152752039    0.8683402272956542    0.7049127656249634    H1784
    0.9956485152752039    0.8683402272956542    0.0382460989582967    H1785
    0.9956485152752039    0.2016735606289876    0.3715794322916302    H1786
    0.9956485152752039    0.2016735606289876    0.7049127656249634    H1787
    0.9956485152752039    0.2016735606289876    0.0382460989582967    H1788
    0.9956485152752039    0.5350068939623209    0.3715794322916302    H1789
    0.9956485152752039    0.5350068939623209    0.7049127656249634    H1790
    0.9956485152752039    0.5350068939623209    0.0382460989582967    H1791
    0.3289818486085373    0.8683402272956542    0.3715794322916302    H1792
    0.3289818486085373    0.8683402272956542    0.7049127656249634    H1793
    0.3289818486085373    0.8683402272956542    0.0382460989582967    H1794
    0.3289818486085373    0.2016735606289876    0.3715794322916302    H1795
    0.3289818486085373    0.2016735606289876    0.7049127656249634    H1796
    0.3289818486085373    0.2016735606289876    0.0382460989582967    H1797
    0.3289818486085373    0.5350068939623209    0.3715794322916302    H1798
    0.3289818486085373    0.5350068939623209    0.7049127656249634    H1799
    0.3289818486085373    0.5350068939623209    0.0382460989582967    H1800
    0.6623151819418706    0.8683402272956542    0.3715794322916302    H1801
    0.6623151819418706    0.8683402272956542    0.7049127656249634    H1802
    0.6623151819418706    0.8683402272956542    0.0382460989582967    H1803
    0.6623151819418706    0.2016735606289876    0.3715794322916302    H1804
    0.6623151819418706    0.2016735606289876    0.7049127656249634    H1805
    0.6623151819418706    0.2016735606289876    0.0382460989582967    H1806
    0.6623151819418706    0.5350068939623209    0.3715794322916302    H1807
    0.6623151819418706    0.5350068939623209    0.7049127656249634    H1808
    0.6623151819418706    0.5350068939623209    0.0382460989582967    H1809
    0.1283559156162599    0.2260426954156042    0.2436954034589704    H1810
    0.1283559156162599    0.2260426954156042    0.5770287367923038    H1811
    0.1283559156162599    0.2260426954156042    0.9103620701256372    H1812
    0.1283559156162599    0.5593760287489374    0.2436954034589704    H1813
    0.1283559156162599    0.5593760287489374    0.5770287367923038    H1814
    0.1283559156162599    0.5593760287489374    0.9103620701256372    H1815
    0.1283559156162599    0.8927093620822707    0.2436954034589704    H1816
    0.1283559156162599    0.8927093620822707    0.5770287367923038    H1817
    0.1283559156162599    0.8927093620822707    0.9103620701256372    H1818
    0.4616892489495932    0.2260426954156042    0.2436954034589704    H1819
    0.4616892489495932    0.2260426954156042    0.5770287367923038    H1820
    0.4616892489495932    0.2260426954156042    0.9103620701256372    H1821
    0.4616892489495932    0.5593760287489374    0.2436954034589704    H1822
    0.4616892489495932    0.5593760287489374    0.5770287367923038    H1823
    0.4616892489495932    0.5593760287489374    0.9103620701256372    H1824
    0.4616892489495932    0.8927093620822707    0.2436954034589704    H1825
    0.4616892489495932    0.8927093620822707    0.5770287367923038    H1826
    0.4616892489495932    0.8927093620822707    0.9103620701256372    H1827
    0.7950225822829265    0.2260426954156042    0.2436954034589704    H1828
    0.7950225822829265    0.2260426954156042    0.5770287367923038    H1829
    0.7950225822829265    0.2260426954156042    0.9103620701256372    H1830
    0.7950225822829265    0.5593760287489374    0.2436954034589704    H1831
    0.7950225822829265    0.5593760287489374    0.5770287367923038    H1832
    0.7950225822829265    0.5593760287489374    0.9103620701256372    H1833
    0.7950225822829265    0.8927093620822707    0.2436954034589704    H1834
    0.7950225822829265    0.8927093620822707    0.5770287367923038    H1835
    0.7950225822829265    0.8927093620822707    0.9103620701256372    H1836
    0.1275679428772792    0.1780489106104626    0.2434723656260722    H1837
    0.1275679428772792    0.1780489106104626    0.5768056989594056    H1838
    0.1275679428772792    0.1780489106104626    0.9101390322927390    H1839
    0.1275679428772792    0.5113822439437959    0.2434723656260722    H1840
    0.1275679428772792    0.5113822439437959    0.5768056989594056    H1841
    0.1275679428772792    0.5113822439437959    0.9101390322927390    H1842
    0.1275679428772792    0.8447155772771292    0.2434723656260722    H1843
    0.1275679428772792    0.8447155772771292    0.5768056989594056    H1844
    0.1275679428772792    0.8447155772771292    0.9101390322927390    H1845
    0.4609012762106126    0.1780489106104626    0.2434723656260722    H1846
    0.4609012762106126    0.1780489106104626    0.5768056989594056    H1847
    0.4609012762106126    0.1780489106104626    0.9101390322927390    H1848
    0.4609012762106126    0.5113822439437959    0.2434723656260722    H1849
    0.4609012762106126    0.5113822439437959    0.5768056989594056    H1850
    0.4609012762106126    0.5113822439437959    0.9101390322927390    H1851
    0.4609012762106126    0.8447155772771292    0.2434723656260722    H1852
    0.4609012762106126    0.8447155772771292    0.5768056989594056    H1853
    0.4609012762106126    0.8447155772771292    0.9101390322927390    H1854
    0.7942346095439460    0.1780489106104626    0.2434723656260722    H1855
    0.7942346095439460    0.1780489106104626    0.5768056989594056    H1856
    0.7942346095439460    0.1780489106104626    0.9101390322927390    H1857
    0.7942346095439460    0.5113822439437959    0.2434723656260722    H1858
    0.7942346095439460    0.5113822439437959    0.5768056989594056    H1859
    0.7942346095439460    0.5113822439437959    0.9101390322927390    H1860
    0.7942346095439460    0.8447155772771292    0.2434723656260722    H1861
    0.7942346095439460    0.8447155772771292    0.5768056989594056    H1862
    0.7942346095439460    0.8447155772771292    0.9101390322927390    H1863
    0.9143615459672185    0.7170097547462966    0.2644449553179608    H1864
    0.9143615459672185    0.7170097547462966    0.5977782886512941    H1865
    0.9143615459672185    0.7170097547462966    0.9311116219846274    H1866
    0.9143615459672185    0.0503430880796299    0.2644449553179608    H1867
    0.9143615459672185    0.0503430880796299    0.5977782886512941    H1868
    0.9143615459672185    0.0503430880796299    0.9311116219846274    H1869
    0.9143615459672185    0.3836764214129633    0.2644449553179608    H1870
    0.9143615459672185    0.3836764214129633    0.5977782886512941    H1871
    0.9143615459672185    0.3836764214129633    0.9311116219846274    H1872
    0.2476948793005519    0.7170097547462966    0.2644449553179608    H1873
    0.2476948793005519    0.7170097547462966    0.5977782886512941    H1874
    0.2476948793005519    0.7170097547462966    0.9311116219846274    H1875
    0.2476948793005519    0.0503430880796299    0.2644449553179608    H1876
    0.2476948793005519    0.0503430880796299    0.5977782886512941    H1877
    0.2476948793005519    0.0503430880796299    0.9311116219846274    H1878
    0.2476948793005519    0.3836764214129633    0.2644449553179608    H1879
    0.2476948793005519    0.3836764214129633    0.5977782886512941    H1880
    0.2476948793005519    0.3836764214129633    0.9311116219846274    H1881
    0.5810282126338853    0.7170097547462966    0.2644449553179608    H1882
    0.5810282126338853    0.7170097547462966    0.5977782886512941    H1883
    0.5810282126338853    0.7170097547462966    0.9311116219846274    H1884
    0.5810282126338853    0.0503430880796299    0.2644449553179608    H1885
    0.5810282126338853    0.0503430880796299    0.5977782886512941    H1886
    0.5810282126338853    0.0503430880796299    0.9311116219846274    H1887
    0.5810282126338853    0.3836764214129633    0.2644449553179608    H1888
    0.5810282126338853    0.3836764214129633    0.5977782886512941    H1889
    0.5810282126338853    0.3836764214129633    0.9311116219846274    H1890
    0.0327718101097115    0.9368508824849457    0.3331428530992593    H1891
    0.0327718101097115    0.9368508824849457    0.6664761864325927    H1892
    0.0327718101097115    0.9368508824849457    0.9998095197659259    H1893
    0.0327718101097115    0.2701842158182791    0.3331428530992593    H1894
    0.0327718101097115    0.2701842158182791    0.6664761864325927    H1895
    0.0327718101097115    0.2701842158182791    0.9998095197659259    H1896
    0.0327718101097115    0.6035175491516125    0.3331428530992593    H1897
    0.0327718101097115    0.6035175491516125    0.6664761864325927    H1898
    0.0327718101097115    0.6035175491516125    0.9998095197659259    H1899
    0.3661051434430449    0.9368508824849457    0.3331428530992593    H1900
    0.3661051434430449    0.9368508824849457    0.6664761864325927    H1901
    0.3661051434430449    0.9368508824849457    0.9998095197659259    H1902
    0.3661051434430449    0.2701842158182791    0.3331428530992593    H1903
    0.3661051434430449    0.2701842158182791    0.6664761864325927    H1904
    0.3661051434430449    0.2701842158182791    0.9998095197659259    H1905
    0.3661051434430449    0.6035175491516125    0.3331428530992593    H1906
    0.3661051434430449    0.6035175491516125    0.6664761864325927    H1907
    0.3661051434430449    0.6035175491516125    0.9998095197659259    H1908
    0.6994384767763782    0.9368508824849457    0.3331428530992593    H1909
    0.6994384767763782    0.9368508824849457    0.6664761864325927    H1910
    0.6994384767763782    0.9368508824849457    0.9998095197659259    H1911
    0.6994384767763782    0.2701842158182791    0.3331428530992593    H1912
    0.6994384767763782    0.2701842158182791    0.6664761864325927    H1913
    0.6994384767763782    0.2701842158182791    0.9998095197659259    H1914
    0.6994384767763782    0.6035175491516125    0.3331428530992593    H1915
    0.6994384767763782    0.6035175491516125    0.6664761864325927    H1916
    0.6994384767763782    0.6035175491516125    0.9998095197659259    H1917
    0.9442458608394655    0.8055592728286152    0.2719450475557464    H1918
    0.9442458608394655    0.8055592728286152    0.6052783808890798    H1919
    0.9442458608394655    0.8055592728286152    0.9386117142224131    H1920
    0.9442458608394655    0.1388926061619484    0.2719450475557464    H1921
    0.9442458608394655    0.1388926061619484    0.6052783808890798    H1922
    0.9442458608394655    0.1388926061619484    0.9386117142224131    H1923
    0.9442458608394655    0.4722259394952818    0.2719450475557464    H1924
    0.9442458608394655    0.4722259394952818    0.6052783808890798    H1925
    0.9442458608394655    0.4722259394952818    0.9386117142224131    H1926
    0.2775791941727989    0.8055592728286152    0.2719450475557464    H1927
    0.2775791941727989    0.8055592728286152    0.6052783808890798    H1928
    0.2775791941727989    0.8055592728286152    0.9386117142224131    H1929
    0.2775791941727989    0.1388926061619484    0.2719450475557464    H1930
    0.2775791941727989    0.1388926061619484    0.6052783808890798    H1931
    0.2775791941727989    0.1388926061619484    0.9386117142224131    H1932
    0.2775791941727989    0.4722259394952818    0.2719450475557464    H1933
    0.2775791941727989    0.4722259394952818    0.6052783808890798    H1934
    0.2775791941727989    0.4722259394952818    0.9386117142224131    H1935
    0.6109125275061322    0.8055592728286152    0.2719450475557464    H1936
    0.6109125275061322    0.8055592728286152    0.6052783808890798    H1937
    0.6109125275061322    0.8055592728286152    0.9386117142224131    H1938
    0.6109125275061322    0.1388926061619484    0.2719450475557464    H1939
    0.6109125275061322    0.1388926061619484    0.6052783808890798    H1940
    0.6109125275061322    0.1388926061619484    0.9386117142224131    H1941
    0.6109125275061322    0.4722259394952818    0.2719450475557464    H1942
    0.6109125275061322    0.4722259394952818    0.6052783808890798    H1943
    0.6109125275061322    0.4722259394952818    0.9386117142224131    H1944
    0.9266528765473094    0.2167868767318764    0.0972611447492356    H1945
    0.9266528765473094    0.2167868767318764    0.4305944780825690    H1946
    0.9266528765473094    0.2167868767318764    0.7639278114159023    H1947
    0.9266528765473094    0.5501202100652097    0.0972611447492356    H1948
    0.9266528765473094    0.5501202100652097    0.4305944780825690    H1949
    0.9266528765473094    0.5501202100652097    0.7639278114159023    H1950
    0.9266528765473094    0.8834535433985430    0.0972611447492356    H1951
    0.9266528765473094    0.8834535433985430    0.4305944780825690    H1952
    0.9266528765473094    0.8834535433985430    0.7639278114159023    H1953
    0.2599862098806427    0.2167868767318764    0.0972611447492356    H1954
    0.2599862098806427    0.2167868767318764    0.4305944780825690    H1955
    0.2599862098806427    0.2167868767318764    0.7639278114159023    H1956
    0.2599862098806427    0.5501202100652097    0.0972611447492356    H1957
    0.2599862098806427    0.5501202100652097    0.4305944780825690    H1958
    0.2599862098806427    0.5501202100652097    0.7639278114159023    H1959
    0.2599862098806427    0.8834535433985430    0.0972611447492356    H1960
    0.2599862098806427    0.8834535433985430    0.4305944780825690    H1961
    0.2599862098806427    0.8834535433985430    0.7639278114159023    H1962
    0.5933195432139761    0.2167868767318764    0.0972611447492356    H1963
    0.5933195432139761    0.2167868767318764    0.4305944780825690    H1964
    0.5933195432139761    0.2167868767318764    0.7639278114159023    H1965
    0.5933195432139761    0.5501202100652097    0.0972611447492356    H1966
    0.5933195432139761    0.5501202100652097    0.4305944780825690    H1967
    0.5933195432139761    0.5501202100652097    0.7639278114159023    H1968
    0.5933195432139761    0.8834535433985430    0.0972611447492356    H1969
    0.5933195432139761    0.8834535433985430    0.4305944780825690    H1970
    0.5933195432139761    0.8834535433985430    0.7639278114159023    H1971
    0.0435956037559485    0.0359592938338966    0.2241062618755051    H1972
    0.0435956037559485    0.0359592938338966    0.5574395952088385    H1973
    0.0435956037559485    0.0359592938338966    0.8907729285421717    H1974
    0.0435956037559485    0.3692926271672299    0.2241062618755051    H1975
    0.0435956037559485    0.3692926271672299    0.5574395952088385    H1976
    0.0435956037559485    0.3692926271672299    0.8907729285421717    H1977
    0.0435956037559485    0.7026259605005633    0.2241062618755051    H1978
    0.0435956037559485    0.7026259605005633    0.5574395952088385    H1979
    0.0435956037559485    0.7026259605005633    0.8907729285421717    H1980
    0.3769289370892819    0.0359592938338966    0.2241062618755051    H1981
    0.3769289370892819    0.0359592938338966    0.5574395952088385    H1982
    0.3769289370892819    0.0359592938338966    0.8907729285421717    H1983
    0.3769289370892819    0.3692926271672299    0.2241062618755051    H1984
    0.3769289370892819    0.3692926271672299    0.5574395952088385    H1985
    0.3769289370892819    0.3692926271672299    0.8907729285421717    H1986
    0.3769289370892819    0.7026259605005633    0.2241062618755051    H1987
    0.3769289370892819    0.7026259605005633    0.5574395952088385    H1988
    0.3769289370892819    0.7026259605005633    0.8907729285421717    H1989
    0.7102622704226151    0.0359592938338966    0.2241062618755051    H1990
    0.7102622704226151    0.0359592938338966    0.5574395952088385    H1991
    0.7102622704226151    0.0359592938338966    0.8907729285421717    H1992
    0.7102622704226151    0.3692926271672299    0.2241062618755051    H1993
    0.7102622704226151    0.3692926271672299    0.5574395952088385    H1994
    0.7102622704226151    0.3692926271672299    0.8907729285421717    H1995
    0.7102622704226151    0.7026259605005633    0.2241062618755051    H1996
    0.7102622704226151    0.7026259605005633    0.5574395952088385    H1997
    0.7102622704226151    0.7026259605005633    0.8907729285421717    H1998
    0.9907115905029946    0.2682896932691156    0.9697450242241892    H1999
    0.9907115905029946    0.2682896932691156    0.3030783575575224    H2000
    0.9907115905029946    0.2682896932691156    0.6364116908908558    H2001
    0.9907115905029946    0.6016230266024489    0.9697450242241892    H2002
    0.9907115905029946    0.6016230266024489    0.3030783575575224    H2003
    0.9907115905029946    0.6016230266024489    0.6364116908908558    H2004
    0.9907115905029946    0.9349563599357823    0.9697450242241892    H2005
    0.9907115905029946    0.9349563599357823    0.3030783575575224    H2006
    0.9907115905029946    0.9349563599357823    0.6364116908908558    H2007
    0.3240449238363279    0.2682896932691156    0.9697450242241892    H2008
    0.3240449238363279    0.2682896932691156    0.3030783575575224    H2009
    0.3240449238363279    0.2682896932691156    0.6364116908908558    H2010
    0.3240449238363279    0.6016230266024489    0.9697450242241892    H2011
    0.3240449238363279    0.6016230266024489    0.3030783575575224    H2012
    0.3240449238363279    0.6016230266024489    0.6364116908908558    H2013
    0.3240449238363279    0.9349563599357823    0.9697450242241892    H2014
    0.3240449238363279    0.9349563599357823    0.3030783575575224    H2015
    0.3240449238363279    0.9349563599357823    0.6364116908908558    H2016
    0.6573782571696611    0.2682896932691156    0.9697450242241892    H2017
    0.6573782571696611    0.2682896932691156    0.3030783575575224    H2018
    0.6573782571696611    0.2682896932691156    0.6364116908908558    H2019
    0.6573782571696611    0.6016230266024489    0.9697450242241892    H2020
    0.6573782571696611    0.6016230266024489    0.3030783575575224    H2021
    0.6573782571696611    0.6016230266024489    0.6364116908908558    H2022
    0.6573782571696611    0.9349563599357823    0.9697450242241892    H2023
    0.6573782571696611    0.9349563599357823    0.3030783575575224    H2024
    0.6573782571696611    0.9349563599357823    0.6364116908908558    H2025
    0.0403292861005310    0.0114180166849515    0.1854150156876302    H2026
    0.0403292861005310    0.0114180166849515    0.5187483490209636    H2027
    0.0403292861005310    0.0114180166849515    0.8520816823542969    H2028
    0.0403292861005310    0.3447513500182848    0.1854150156876302    H2029
    0.0403292861005310    0.3447513500182848    0.5187483490209636    H2030
    0.0403292861005310    0.3447513500182848    0.8520816823542969    H2031
    0.0403292861005310    0.6780846833516181    0.1854150156876302    H2032
    0.0403292861005310    0.6780846833516181    0.5187483490209636    H2033
    0.0403292861005310    0.6780846833516181    0.8520816823542969    H2034
    0.3736626194338643    0.0114180166849515    0.1854150156876302    H2035
    0.3736626194338643    0.0114180166849515    0.5187483490209636    H2036
    0.3736626194338643    0.0114180166849515    0.8520816823542969    H2037
    0.3736626194338643    0.3447513500182848    0.1854150156876302    H2038
    0.3736626194338643    0.3447513500182848    0.5187483490209636    H2039
    0.3736626194338643    0.3447513500182848    0.8520816823542969    H2040
    0.3736626194338643    0.6780846833516181    0.1854150156876302    H2041
    0.3736626194338643    0.6780846833516181    0.5187483490209636    H2042
    0.3736626194338643    0.6780846833516181    0.8520816823542969    H2043
    0.7069959527671976    0.0114180166849515    0.1854150156876302    H2044
    0.7069959527671976    0.0114180166849515    0.5187483490209636    H2045
    0.7069959527671976    0.0114180166849515    0.8520816823542969    H2046
    0.7069959527671976    0.3447513500182848    0.1854150156876302    H2047
    0.7069959527671976    0.3447513500182848    0.5187483490209636    H2048
    0.7069959527671976    0.3447513500182848    0.8520816823542969    H2049
    0.7069959527671976    0.6780846833516181    0.1854150156876302    H2050
    0.7069959527671976    0.6780846833516181    0.5187483490209636    H2051
    0.7069959527671976    0.6780846833516181    0.8520816823542969    H2052
    0.0105442897428658    0.2976228166968985    0.9175566778007469    H2053
    0.0105442897428658    0.2976228166968985    0.2508900111340802    H2054
    0.0105442897428658    0.2976228166968985    0.5842233444674134    H2055
    0.0105442897428658    0.6309561500302319    0.9175566778007469    H2056
    0.0105442897428658    0.6309561500302319    0.2508900111340802    H2057
    0.0105442897428658    0.6309561500302319    0.5842233444674134    H2058
    0.0105442897428658    0.9642894833635652    0.9175566778007469    H2059
    0.0105442897428658    0.9642894833635652    0.2508900111340802    H2060
    0.0105442897428658    0.9642894833635652    0.5842233444674134    H2061
    0.3438776230761991    0.2976228166968985    0.9175566778007469    H2062
    0.3438776230761991    0.2976228166968985    0.2508900111340802    H2063
    0.3438776230761991    0.2976228166968985    0.5842233444674134    H2064
    0.3438776230761991    0.6309561500302319    0.9175566778007469    H2065
    0.3438776230761991    0.6309561500302319    0.2508900111340802    H2066
    0.3438776230761991    0.6309561500302319    0.5842233444674134    H2067
    0.3438776230761991    0.9642894833635652    0.9175566778007469    H2068
    0.3438776230761991    0.9642894833635652    0.2508900111340802    H2069
    0.3438776230761991    0.9642894833635652    0.5842233444674134    H2070
    0.6772109564095323    0.2976228166968985    0.9175566778007469    H2071
    0.6772109564095323    0.2976228166968985    0.2508900111340802    H2072
    0.6772109564095323    0.2976228166968985    0.5842233444674134    H2073
    0.6772109564095323    0.6309561500302319    0.9175566778007469    H2074
    0.6772109564095323    0.6309561500302319    0.2508900111340802    H2075
    0.6772109564095323    0.6309561500302319    0.5842233444674134    H2076
    0.6772109564095323    0.9642894833635652    0.9175566778007469    H2077
    0.6772109564095323    0.9642894833635652    0.2508900111340802    H2078
    0.6772109564095323    0.9642894833635652    0.5842233444674134    H2079
    0.8393620679973419    0.1276978412775645    0.2532698857151521    H2080
    0.8393620679973419    0.1276978412775645    0.5866032190484853    H2081
    0.8393620679973419    0.1276978412775645    0.9199365523818186    H2082
    0.8393620679973419    0.4610311746108978    0.2532698857151521    H2083
    0.8393620679973419    0.4610311746108978    0.5866032190484853    H2084
    0.8393620679973419    0.4610311746108978    0.9199365523818186    H2085
    0.8393620679973419    0.7943645079442312    0.2532698857151521    H2086
    0.8393620679973419    0.7943645079442312    0.5866032190484853    H2087
    0.8393620679973419    0.7943645079442312    0.9199365523818186    H2088
    0.1726954013306752    0.1276978412775645    0.2532698857151521    H2089
    0.1726954013306752    0.1276978412775645    0.5866032190484853    H2090
    0.1726954013306752    0.1276978412775645    0.9199365523818186    H2091
    0.1726954013306752    0.4610311746108978    0.2532698857151521    H2092
    0.1726954013306752    0.4610311746108978    0.5866032190484853    H2093
    0.1726954013306752    0.4610311746108978    0.9199365523818186    H2094
    0.1726954013306752    0.7943645079442312    0.2532698857151521    H2095
    0.1726954013306752    0.7943645079442312    0.5866032190484853    H2096
    0.1726954013306752    0.7943645079442312    0.9199365523818186    H2097
    0.5060287346640086    0.1276978412775645    0.2532698857151521    H2098
    0.5060287346640086    0.1276978412775645    0.5866032190484853    H2099
    0.5060287346640086    0.1276978412775645    0.9199365523818186    H2100
    0.5060287346640086    0.4610311746108978    0.2532698857151521    H2101
    0.5060287346640086    0.4610311746108978    0.5866032190484853    H2102
    0.5060287346640086    0.4610311746108978    0.9199365523818186    H2103
    0.5060287346640086    0.7943645079442312    0.2532698857151521    H2104
    0.5060287346640086    0.7943645079442312    0.5866032190484853    H2105
    0.5060287346640086    0.7943645079442312    0.9199365523818186    H2106
    0.9671426484197045    0.8363496005795015    0.3000738507387517    H2107
    0.9671426484197045    0.8363496005795015    0.6334071840720851    H2108
    0.9671426484197045    0.8363496005795015    0.9667405174054183    H2109
    0.9671426484197045    0.1696829339128348    0.3000738507387517    H2110
    0.9671426484197045    0.1696829339128348    0.6334071840720851    H2111
    0.9671426484197045    0.1696829339128348    0.9667405174054183    H2112
    0.9671426484197045    0.5030162672461682    0.3000738507387517    H2113
    0.9671426484197045    0.5030162672461682    0.6334071840720851    H2114
    0.9671426484197045    0.5030162672461682    0.9667405174054183    H2115
    0.3004759817530379    0.8363496005795015    0.3000738507387517    H2116
    0.3004759817530379    0.8363496005795015    0.6334071840720851    H2117
    0.3004759817530379    0.8363496005795015    0.9667405174054183    H2118
    0.3004759817530379    0.1696829339128348    0.3000738507387517    H2119
    0.3004759817530379    0.1696829339128348    0.6334071840720851    H2120
    0.3004759817530379    0.1696829339128348    0.9667405174054183    H2121
    0.3004759817530379    0.5030162672461682    0.3000738507387517    H2122
    0.3004759817530379    0.5030162672461682    0.6334071840720851    H2123
    0.3004759817530379    0.5030162672461682    0.9667405174054183    H2124
    0.6338093150863713    0.8363496005795015    0.3000738507387517    H2125
    0.6338093150863713    0.8363496005795015    0.6334071840720851    H2126
    0.6338093150863713    0.8363496005795015    0.9667405174054183    H2127
    0.6338093150863713    0.1696829339128348    0.3000738507387517    H2128
    0.6338093150863713    0.1696829339128348    0.6334071840720851    H2129
    0.6338093150863713    0.1696829339128348    0.9667405174054183    H2130
    0.6338093150863713    0.5030162672461682    0.3000738507387517    H2131
    0.6338093150863713    0.5030162672461682    0.6334071840720851    H2132
    0.6338093150863713    0.5030162672461682    0.9667405174054183    H2133
    0.1117213819434759    0.1306624710427389    0.2252676921862313    H2134
    0.1117213819434759    0.1306624710427389    0.5586010255195646    H2135
    0.1117213819434759    0.1306624710427389    0.8919343588528980    H2136
    0.1117213819434759    0.4639958043760722    0.2252676921862313    H2137
    0.1117213819434759    0.4639958043760722    0.5586010255195646    H2138
    0.1117213819434759    0.4639958043760722    0.8919343588528980    H2139
    0.1117213819434759    0.7973291377094056    0.2252676921862313    H2140
    0.1117213819434759    0.7973291377094056    0.5586010255195646    H2141
    0.1117213819434759    0.7973291377094056    0.8919343588528980    H2142
    0.4450547152768092    0.1306624710427389    0.2252676921862313    H2143
    0.4450547152768092    0.1306624710427389    0.5586010255195646    H2144
    0.4450547152768092    0.1306624710427389    0.8919343588528980    H2145
    0.4450547152768092    0.4639958043760722    0.2252676921862313    H2146
    0.4450547152768092    0.4639958043760722    0.5586010255195646    H2147
    0.4450547152768092    0.4639958043760722    0.8919343588528980    H2148
    0.4450547152768092    0.7973291377094056    0.2252676921862313    H2149
    0.4450547152768092    0.7973291377094056    0.5586010255195646    H2150
    0.4450547152768092    0.7973291377094056    0.8919343588528980    H2151
    0.7783880486101424    0.1306624710427389    0.2252676921862313    H2152
    0.7783880486101424    0.1306624710427389    0.5586010255195646    H2153
    0.7783880486101424    0.1306624710427389    0.8919343588528980    H2154
    0.7783880486101424    0.4639958043760722    0.2252676921862313    H2155
    0.7783880486101424    0.4639958043760722    0.5586010255195646    H2156
    0.7783880486101424    0.4639958043760722    0.8919343588528980    H2157
    0.7783880486101424    0.7973291377094056    0.2252676921862313    H2158
    0.7783880486101424    0.7973291377094056    0.5586010255195646    H2159
    0.7783880486101424    0.7973291377094056    0.8919343588528980    H2160
    0.8964508763724868    0.0495624440322728    0.1224513723106132    H2161
    0.8964508763724868    0.0495624440322728    0.4557847056439466    H2162
    0.8964508763724868    0.0495624440322728    0.7891180389772798    H2163
    0.8964508763724868    0.3828957773656061    0.1224513723106132    H2164
    0.8964508763724868    0.3828957773656061    0.4557847056439466    H2165
    0.8964508763724868    0.3828957773656061    0.7891180389772798    H2166
    0.8964508763724868    0.7162291106989395    0.1224513723106132    H2167
    0.8964508763724868    0.7162291106989395    0.4557847056439466    H2168
    0.8964508763724868    0.7162291106989395    0.7891180389772798    H2169
    0.2297842097058200    0.0495624440322728    0.1224513723106132    H2170
    0.2297842097058200    0.0495624440322728    0.4557847056439466    H2171
    0.2297842097058200    0.0495624440322728    0.7891180389772798    H2172
    0.2297842097058200    0.3828957773656061    0.1224513723106132    H2173
    0.2297842097058200    0.3828957773656061    0.4557847056439466    H2174
    0.2297842097058200    0.3828957773656061    0.7891180389772798    H2175
    0.2297842097058200    0.7162291106989395    0.1224513723106132    H2176
    0.2297842097058200    0.7162291106989395    0.4557847056439466    H2177
    0.2297842097058200    0.7162291106989395    0.7891180389772798    H2178
    0.5631175430391534    0.0495624440322728    0.1224513723106132    H2179
    0.5631175430391534    0.0495624440322728    0.4557847056439466    H2180
    0.5631175430391534    0.0495624440322728    0.7891180389772798    H2181
    0.5631175430391534    0.3828957773656061    0.1224513723106132    H2182
    0.5631175430391534    0.3828957773656061    0.4557847056439466    H2183
    0.5631175430391534    0.3828957773656061    0.7891180389772798    H2184
    0.5631175430391534    0.7162291106989395    0.1224513723106132    H2185
    0.5631175430391534    0.7162291106989395    0.4557847056439466    H2186
    0.5631175430391534    0.7162291106989395    0.7891180389772798    H2187
    0.1208474450795877    0.2079180805532681    0.1863620028576196    H2188
    0.1208474450795877    0.2079180805532681    0.5196953361909529    H2189
    0.1208474450795877    0.2079180805532681    0.8530286695242861    H2190
    0.1208474450795877    0.5412514138866014    0.1863620028576196    H2191
    0.1208474450795877    0.5412514138866014    0.5196953361909529    H2192
    0.1208474450795877    0.5412514138866014    0.8530286695242861    H2193
    0.1208474450795877    0.8745847472199346    0.1863620028576196    H2194
    0.1208474450795877    0.8745847472199346    0.5196953361909529    H2195
    0.1208474450795877    0.8745847472199346    0.8530286695242861    H2196
    0.4541807784129210    0.2079180805532681    0.1863620028576196    H2197
    0.4541807784129210    0.2079180805532681    0.5196953361909529    H2198
    0.4541807784129210    0.2079180805532681    0.8530286695242861    H2199
    0.4541807784129210    0.5412514138866014    0.1863620028576196    H2200
    0.4541807784129210    0.5412514138866014    0.5196953361909529    H2201
    0.4541807784129210    0.5412514138866014    0.8530286695242861    H2202
    0.4541807784129210    0.8745847472199346    0.1863620028576196    H2203
    0.4541807784129210    0.8745847472199346    0.5196953361909529    H2204
    0.4541807784129210    0.8745847472199346    0.8530286695242861    H2205
    0.7875141117462543    0.2079180805532681    0.1863620028576196    H2206
    0.7875141117462543    0.2079180805532681    0.5196953361909529    H2207
    0.7875141117462543    0.2079180805532681    0.8530286695242861    H2208
    0.7875141117462543    0.5412514138866014    0.1863620028576196    H2209
    0.7875141117462543    0.5412514138866014    0.5196953361909529    H2210
    0.7875141117462543    0.5412514138866014    0.8530286695242861    H2211
    0.7875141117462543    0.8745847472199346    0.1863620028576196    H2212
    0.7875141117462543    0.8745847472199346    0.5196953361909529    H2213
    0.7875141117462543    0.8745847472199346    0.8530286695242861    H2214
    0.8508657384323972    0.7727763233228540    0.1804286798105069    H2215
    0.8508657384323972    0.7727763233228540    0.5137620131438403    H2216
    0.8508657384323972    0.7727763233228540    0.8470953464771735    H2217
    0.8508657384323972    0.1061096566561872    0.1804286798105069    H2218
    0.8508657384323972    0.1061096566561872    0.5137620131438403    H2219
    0.8508657384323972    0.1061096566561872    0.8470953464771735    H2220
    0.8508657384323972    0.4394429899895205    0.1804286798105069    H2221
    0.8508657384323972    0.4394429899895205    0.5137620131438403    H2222
    0.8508657384323972    0.4394429899895205    0.8470953464771735    H2223
    0.1841990717657305    0.7727763233228540    0.1804286798105069    H2224
    0.1841990717657305    0.7727763233228540    0.5137620131438403    H2225
    0.1841990717657305    0.7727763233228540    0.8470953464771735    H2226
    0.1841990717657305    0.1061096566561872    0.1804286798105069    H2227
    0.1841990717657305    0.1061096566561872    0.5137620131438403    H2228
    0.1841990717657305    0.1061096566561872    0.8470953464771735    H2229
    0.1841990717657305    0.4394429899895205    0.1804286798105069    H2230
    0.1841990717657305    0.4394429899895205    0.5137620131438403    H2231
    0.1841990717657305    0.4394429899895205    0.8470953464771735    H2232
    0.5175324050990637    0.7727763233228540    0.1804286798105069    H2233
    0.5175324050990637    0.7727763233228540    0.5137620131438403    H2234
    0.5175324050990637    0.7727763233228540    0.8470953464771735    H2235
    0.5175324050990637    0.1061096566561872    0.1804286798105069    H2236
    0.5175324050990637    0.1061096566561872    0.5137620131438403    H2237
    0.5175324050990637    0.1061096566561872    0.8470953464771735    H2238
    0.5175324050990637    0.4394429899895205    0.1804286798105069    H2239
    0.5175324050990637    0.4394429899895205    0.5137620131438403    H2240
    0.5175324050990637    0.4394429899895205    0.8470953464771735    H2241
    0.8654752334577984    0.8045895506403034    0.1297712194904035    H2242
    0.8654752334577984    0.8045895506403034    0.4631045528237370    H2243
    0.8654752334577984    0.8045895506403034    0.7964378861570702    H2244
    0.8654752334577984    0.1379228839736366    0.1297712194904035    H2245
    0.8654752334577984    0.1379228839736366    0.4631045528237370    H2246
    0.8654752334577984    0.1379228839736366    0.7964378861570702    H2247
    0.8654752334577984    0.4712562173069700    0.1297712194904035    H2248
    0.8654752334577984    0.4712562173069700    0.4631045528237370    H2249
    0.8654752334577984    0.4712562173069700    0.7964378861570702    H2250
    0.1988085667911317    0.8045895506403034    0.1297712194904035    H2251
    0.1988085667911317    0.8045895506403034    0.4631045528237370    H2252
    0.1988085667911317    0.8045895506403034    0.7964378861570702    H2253
    0.1988085667911317    0.1379228839736366    0.1297712194904035    H2254
    0.1988085667911317    0.1379228839736366    0.4631045528237370    H2255
    0.1988085667911317    0.1379228839736366    0.7964378861570702    H2256
    0.1988085667911317    0.4712562173069700    0.1297712194904035    H2257
    0.1988085667911317    0.4712562173069700    0.4631045528237370    H2258
    0.1988085667911317    0.4712562173069700    0.7964378861570702    H2259
    0.5321419001244651    0.8045895506403034    0.1297712194904035    H2260
    0.5321419001244651    0.8045895506403034    0.4631045528237370    H2261
    0.5321419001244651    0.8045895506403034    0.7964378861570702    H2262
    0.5321419001244651    0.1379228839736366    0.1297712194904035    H2263
    0.5321419001244651    0.1379228839736366    0.4631045528237370    H2264
    0.5321419001244651    0.1379228839736366    0.7964378861570702    H2265
    0.5321419001244651    0.4712562173069700    0.1297712194904035    H2266
    0.5321419001244651    0.4712562173069700    0.4631045528237370    H2267
    0.5321419001244651    0.4712562173069700    0.7964378861570702    H2268
    0.8652528488254976    0.9106929052560209    0.1117968921080100    H2269
    0.8652528488254976    0.9106929052560209    0.4451302254413434    H2270
    0.8652528488254976    0.9106929052560209    0.7784635587746767    H2271
    0.8652528488254976    0.2440262385893541    0.1117968921080100    H2272
    0.8652528488254976    0.2440262385893541    0.4451302254413434    H2273
    0.8652528488254976    0.2440262385893541    0.7784635587746767    H2274
    0.8652528488254976    0.5773595719226874    0.1117968921080100    H2275
    0.8652528488254976    0.5773595719226874    0.4451302254413434    H2276
    0.8652528488254976    0.5773595719226874    0.7784635587746767    H2277
    0.1985861821588308    0.9106929052560209    0.1117968921080100    H2278
    0.1985861821588308    0.9106929052560209    0.4451302254413434    H2279
    0.1985861821588308    0.9106929052560209    0.7784635587746767    H2280
    0.1985861821588308    0.2440262385893541    0.1117968921080100    H2281
    0.1985861821588308    0.2440262385893541    0.4451302254413434    H2282
    0.1985861821588308    0.2440262385893541    0.7784635587746767    H2283
    0.1985861821588308    0.5773595719226874    0.1117968921080100    H2284
    0.1985861821588308    0.5773595719226874    0.4451302254413434    H2285
    0.1985861821588308    0.5773595719226874    0.7784635587746767    H2286
    0.5319195154921642    0.9106929052560209    0.1117968921080100    H2287
    0.5319195154921642    0.9106929052560209    0.4451302254413434    H2288
    0.5319195154921642    0.9106929052560209    0.7784635587746767    H2289
    0.5319195154921642    0.2440262385893541    0.1117968921080100    H2290
    0.5319195154921642    0.2440262385893541    0.4451302254413434    H2291
    0.5319195154921642    0.2440262385893541    0.7784635587746767    H2292
    0.5319195154921642    0.5773595719226874    0.1117968921080100    H2293
    0.5319195154921642    0.5773595719226874    0.4451302254413434    H2294
    0.5319195154921642    0.5773595719226874    0.7784635587746767    H2295
    0.8902026835713761    0.9342766729609988    0.1729416901034714    H2296
    0.8902026835713761    0.9342766729609988    0.5062750234368047    H2297
    0.8902026835713761    0.9342766729609988    0.8396083567701380    H2298
    0.8902026835713761    0.2676100062943321    0.1729416901034714    H2299
    0.8902026835713761    0.2676100062943321    0.5062750234368047    H2300
    0.8902026835713761    0.2676100062943321    0.8396083567701380    H2301
    0.8902026835713761    0.6009433396276656    0.1729416901034714    H2302
    0.8902026835713761    0.6009433396276656    0.5062750234368047    H2303
    0.8902026835713761    0.6009433396276656    0.8396083567701380    H2304
    0.2235360169047094    0.9342766729609988    0.1729416901034714    H2305
    0.2235360169047094    0.9342766729609988    0.5062750234368047    H2306
    0.2235360169047094    0.9342766729609988    0.8396083567701380    H2307
    0.2235360169047094    0.2676100062943321    0.1729416901034714    H2308
    0.2235360169047094    0.2676100062943321    0.5062750234368047    H2309
    0.2235360169047094    0.2676100062943321    0.8396083567701380    H2310
    0.2235360169047094    0.6009433396276656    0.1729416901034714    H2311
    0.2235360169047094    0.6009433396276656    0.5062750234368047    H2312
    0.2235360169047094    0.6009433396276656    0.8396083567701380    H2313
    0.5568693502380427    0.9342766729609988    0.1729416901034714    H2314
    0.5568693502380427    0.9342766729609988    0.5062750234368047    H2315
    0.5568693502380427    0.9342766729609988    0.8396083567701380    H2316
    0.5568693502380427    0.2676100062943321    0.1729416901034714    H2317
    0.5568693502380427    0.2676100062943321    0.5062750234368047    H2318
    0.5568693502380427    0.2676100062943321    0.8396083567701380    H2319
    0.5568693502380427    0.6009433396276656    0.1729416901034714    H2320
    0.5568693502380427    0.6009433396276656    0.5062750234368047    H2321
    0.5568693502380427    0.6009433396276656    0.8396083567701380    H2322
    0.8302258288552735    0.7887834581556394    0.3020678029767859    H2323
    0.8302258288552735    0.7887834581556394    0.6354011363101192    H2324
    0.8302258288552735    0.7887834581556394    0.9687344696434524    H2325
    0.8302258288552735    0.1221167914889727    0.3020678029767859    H2326
    0.8302258288552735    0.1221167914889727    0.6354011363101192    H2327
    0.8302258288552735    0.1221167914889727    0.9687344696434524    H2328
    0.8302258288552735    0.4554501248223061    0.3020678029767859    H2329
    0.8302258288552735    0.4554501248223061    0.6354011363101192    H2330
    0.8302258288552735    0.4554501248223061    0.9687344696434524    H2331
    0.1635591621886068    0.7887834581556394    0.3020678029767859    H2332
    0.1635591621886068    0.7887834581556394    0.6354011363101192    H2333
    0.1635591621886068    0.7887834581556394    0.9687344696434524    H2334
    0.1635591621886068    0.1221167914889727    0.3020678029767859    H2335
    0.1635591621886068    0.1221167914889727    0.6354011363101192    H2336
    0.1635591621886068    0.1221167914889727    0.9687344696434524    H2337
    0.1635591621886068    0.4554501248223061    0.3020678029767859    H2338
    0.1635591621886068    0.4554501248223061    0.6354011363101192    H2339
    0.1635591621886068    0.4554501248223061    0.9687344696434524    H2340
    0.4968924955219401    0.7887834581556394    0.3020678029767859    H2341
    0.4968924955219401    0.7887834581556394    0.6354011363101192    H2342
    0.4968924955219401    0.7887834581556394    0.9687344696434524    H2343
    0.4968924955219401    0.1221167914889727    0.3020678029767859    H2344
    0.4968924955219401    0.1221167914889727    0.6354011363101192    H2345
    0.4968924955219401    0.1221167914889727    0.9687344696434524    H2346
    0.4968924955219401    0.4554501248223061    0.3020678029767859    H2347
    0.4968924955219401    0.4554501248223061    0.6354011363101192    H2348
    0.4968924955219401    0.4554501248223061    0.9687344696434524    H2349
    0.6804861688680861    0.8963687742351736    0.1879620599058649    H2350
    0.6804861688680861    0.8963687742351736    0.5212953932391984    H2351
    0.6804861688680861    0.8963687742351736    0.8546287265725316    H2352
    0.6804861688680861    0.2297021075685068    0.1879620599058649    H2353
    0.6804861688680861    0.2297021075685068    0.5212953932391984    H2354
    0.6804861688680861    0.2297021075685068    0.8546287265725316    H2355
    0.6804861688680861    0.5630354409018401    0.1879620599058649    H2356
    0.6804861688680861    0.5630354409018401    0.5212953932391984    H2357
    0.6804861688680861    0.5630354409018401    0.8546287265725316    H2358
    0.0138195022014194    0.8963687742351736    0.1879620599058649    H2359
    0.0138195022014194    0.8963687742351736    0.5212953932391984    H2360
    0.0138195022014194    0.8963687742351736    0.8546287265725316    H2361
    0.0138195022014194    0.2297021075685068    0.1879620599058649    H2362
    0.0138195022014194    0.2297021075685068    0.5212953932391984    H2363
    0.0138195022014194    0.2297021075685068    0.8546287265725316    H2364
    0.0138195022014194    0.5630354409018401    0.1879620599058649    H2365
    0.0138195022014194    0.5630354409018401    0.5212953932391984    H2366
    0.0138195022014194    0.5630354409018401    0.8546287265725316    H2367
    0.3471528355347527    0.8963687742351736    0.1879620599058649    H2368
    0.3471528355347527    0.8963687742351736    0.5212953932391984    H2369
    0.3471528355347527    0.8963687742351736    0.8546287265725316    H2370
    0.3471528355347527    0.2297021075685068    0.1879620599058649    H2371
    0.3471528355347527    0.2297021075685068    0.5212953932391984    H2372
    0.3471528355347527    0.2297021075685068    0.8546287265725316    H2373
    0.3471528355347527    0.5630354409018401    0.1879620599058649    H2374
    0.3471528355347527    0.5630354409018401    0.5212953932391984    H2375
    0.3471528355347527    0.5630354409018401    0.8546287265725316    H2376
    0.8973123363641067    0.9824194014958265    0.1383196289165326    H2377
    0.8973123363641067    0.9824194014958265    0.4716529622498660    H2378
    0.8973123363641067    0.9824194014958265    0.8049862955831992    H2379
    0.8973123363641067    0.3157527348291598    0.1383196289165326    H2380
    0.8973123363641067    0.3157527348291598    0.4716529622498660    H2381
    0.8973123363641067    0.3157527348291598    0.8049862955831992    H2382
    0.8973123363641067    0.6490860681624930    0.1383196289165326    H2383
    0.8973123363641067    0.6490860681624930    0.4716529622498660    H2384
    0.8973123363641067    0.6490860681624930    0.8049862955831992    H2385
    0.2306456696974399    0.9824194014958265    0.1383196289165326    H2386
    0.2306456696974399    0.9824194014958265    0.4716529622498660    H2387
    0.2306456696974399    0.9824194014958265    0.8049862955831992    H2388
    0.2306456696974399    0.3157527348291598    0.1383196289165326    H2389
    0.2306456696974399    0.3157527348291598    0.4716529622498660    H2390
    0.2306456696974399    0.3157527348291598    0.8049862955831992    H2391
    0.2306456696974399    0.6490860681624930    0.1383196289165326    H2392
    0.2306456696974399    0.6490860681624930    0.4716529622498660    H2393
    0.2306456696974399    0.6490860681624930    0.8049862955831992    H2394
    0.5639790030307732    0.9824194014958265    0.1383196289165326    H2395
    0.5639790030307732    0.9824194014958265    0.4716529622498660    H2396
    0.5639790030307732    0.9824194014958265    0.8049862955831992    H2397
    0.5639790030307732    0.3157527348291598    0.1383196289165326    H2398
    0.5639790030307732    0.3157527348291598    0.4716529622498660    H2399
    0.5639790030307732    0.3157527348291598    0.8049862955831992    H2400
    0.5639790030307732    0.6490860681624930    0.1383196289165326    H2401
    0.5639790030307732    0.6490860681624930    0.4716529622498660    H2402
    0.5639790030307732    0.6490860681624930    0.8049862955831992    H2403
    0.0726165120282184    0.0801443843303975    0.2473922105152921    H2404
    0.0726165120282184    0.0801443843303975    0.5807255438486254    H2405
    0.0726165120282184    0.0801443843303975    0.9140588771819588    H2406
    0.0726165120282184    0.4134777176637309    0.2473922105152921    H2407
    0.0726165120282184    0.4134777176637309    0.5807255438486254    H2408
    0.0726165120282184    0.4134777176637309    0.9140588771819588    H2409
    0.0726165120282184    0.7468110509970642    0.2473922105152921    H2410
    0.0726165120282184    0.7468110509970642    0.5807255438486254    H2411
    0.0726165120282184    0.7468110509970642    0.9140588771819588    H2412
    0.4059498453615518    0.0801443843303975    0.2473922105152921    H2413
    0.4059498453615518    0.0801443843303975    0.5807255438486254    H2414
    0.4059498453615518    0.0801443843303975    0.9140588771819588    H2415
    0.4059498453615518    0.4134777176637309    0.2473922105152921    H2416
    0.4059498453615518    0.4134777176637309    0.5807255438486254    H2417
    0.4059498453615518    0.4134777176637309    0.9140588771819588    H2418
    0.4059498453615518    0.7468110509970642    0.2473922105152921    H2419
    0.4059498453615518    0.7468110509970642    0.5807255438486254    H2420
    0.4059498453615518    0.7468110509970642    0.9140588771819588    H2421
    0.7392831786948850    0.0801443843303975    0.2473922105152921    H2422
    0.7392831786948850    0.0801443843303975    0.5807255438486254    H2423
    0.7392831786948850    0.0801443843303975    0.9140588771819588    H2424
    0.7392831786948850    0.4134777176637309    0.2473922105152921    H2425
    0.7392831786948850    0.4134777176637309    0.5807255438486254    H2426
    0.7392831786948850    0.4134777176637309    0.9140588771819588    H2427
    0.7392831786948850    0.7468110509970642    0.2473922105152921    H2428
    0.7392831786948850    0.7468110509970642    0.5807255438486254    H2429
    0.7392831786948850    0.7468110509970642    0.9140588771819588    H2430
    0.8329559944457228    0.9940125147673866    0.1719113664791431    H2431
    0.8329559944457228    0.9940125147673866    0.5052446998124764    H2432
    0.8329559944457228    0.9940125147673866    0.8385780331458097    H2433
    0.8329559944457228    0.3273458481007199    0.1719113664791431    H2434
    0.8329559944457228    0.3273458481007199    0.5052446998124764    H2435
    0.8329559944457228    0.3273458481007199    0.8385780331458097    H2436
    0.8329559944457228    0.6606791814340531    0.1719113664791431    H2437
    0.8329559944457228    0.6606791814340531    0.5052446998124764    H2438
    0.8329559944457228    0.6606791814340531    0.8385780331458097    H2439
    0.1662893277790560    0.9940125147673866    0.1719113664791431    H2440
    0.1662893277790560    0.9940125147673866    0.5052446998124764    H2441
    0.1662893277790560    0.9940125147673866    0.8385780331458097    H2442
    0.1662893277790560    0.3273458481007199    0.1719113664791431    H2443
    0.1662893277790560    0.3273458481007199    0.5052446998124764    H2444
    0.1662893277790560    0.3273458481007199    0.8385780331458097    H2445
    0.1662893277790560    0.6606791814340531    0.1719113664791431    H2446
    0.1662893277790560    0.6606791814340531    0.5052446998124764    H2447
    0.1662893277790560    0.6606791814340531    0.8385780331458097    H2448
    0.4996226611123893    0.9940125147673866    0.1719113664791431    H2449
    0.4996226611123893    0.9940125147673866    0.5052446998124764    H2450
    0.4996226611123893    0.9940125147673866    0.8385780331458097    H2451
    0.4996226611123893    0.3273458481007199    0.1719113664791431    H2452
    0.4996226611123893    0.3273458481007199    0.5052446998124764    H2453
    0.4996226611123893    0.3273458481007199    0.8385780331458097    H2454
    0.4996226611123893    0.6606791814340531    0.1719113664791431    H2455
    0.4996226611123893    0.6606791814340531    0.5052446998124764    H2456
    0.4996226611123893    0.6606791814340531    0.8385780331458097    H2457
    0.8637419552483592    0.8416836815435280    0.1003685301407103    H2458
    0.8637419552483592    0.8416836815435280    0.4337018634740437    H2459
    0.8637419552483592    0.8416836815435280    0.7670351968073770    H2460
    0.8637419552483592    0.1750170148768614    0.1003685301407103    H2461
    0.8637419552483592    0.1750170148768614    0.4337018634740437    H2462
    0.8637419552483592    0.1750170148768614    0.7670351968073770    H2463
    0.8637419552483592    0.5083503482101948    0.1003685301407103    H2464
    0.8637419552483592    0.5083503482101948    0.4337018634740437    H2465
    0.8637419552483592    0.5083503482101948    0.7670351968073770    H2466
    0.1970752885816925    0.8416836815435280    0.1003685301407103    H2467
    0.1970752885816925    0.8416836815435280    0.4337018634740437    H2468
    0.1970752885816925    0.8416836815435280    0.7670351968073770    H2469
    0.1970752885816925    0.1750170148768614    0.1003685301407103    H2470
    0.1970752885816925    0.1750170148768614    0.4337018634740437    H2471
    0.1970752885816925    0.1750170148768614    0.7670351968073770    H2472
    0.1970752885816925    0.5083503482101948    0.1003685301407103    H2473
    0.1970752885816925    0.5083503482101948    0.4337018634740437    H2474
    0.1970752885816925    0.5083503482101948    0.7670351968073770    H2475
    0.5304086219150259    0.8416836815435280    0.1003685301407103    H2476
    0.5304086219150259    0.8416836815435280    0.4337018634740437    H2477
    0.5304086219150259    0.8416836815435280    0.7670351968073770    H2478
    0.5304086219150259    0.1750170148768614    0.1003685301407103    H2479
    0.5304086219150259    0.1750170148768614    0.4337018634740437    H2480
    0.5304086219150259    0.1750170148768614    0.7670351968073770    H2481
    0.5304086219150259    0.5083503482101948    0.1003685301407103    H2482
    0.5304086219150259    0.5083503482101948    0.4337018634740437    H2483
    0.5304086219150259    0.5083503482101948    0.7670351968073770    H2484
    0.8163912058222242    0.7869000843071412    0.1955062873186495    H2485
    0.8163912058222242    0.7869000843071412    0.5288396206519829    H2486
    0.8163912058222242    0.7869000843071412    0.8621729539853162    H2487
    0.8163912058222242    0.1202334176404745    0.1955062873186495    H2488
    0.8163912058222242    0.1202334176404745    0.5288396206519829    H2489
    0.8163912058222242    0.1202334176404745    0.8621729539853162    H2490
    0.8163912058222242    0.4535667509738078    0.1955062873186495    H2491
    0.8163912058222242    0.4535667509738078    0.5288396206519829    H2492
    0.8163912058222242    0.4535667509738078    0.8621729539853162    H2493
    0.1497245391555575    0.7869000843071412    0.1955062873186495    H2494
    0.1497245391555575    0.7869000843071412    0.5288396206519829    H2495
    0.1497245391555575    0.7869000843071412    0.8621729539853162    H2496
    0.1497245391555575    0.1202334176404745    0.1955062873186495    H2497
    0.1497245391555575    0.1202334176404745    0.5288396206519829    H2498
    0.1497245391555575    0.1202334176404745    0.8621729539853162    H2499
    0.1497245391555575    0.4535667509738078    0.1955062873186495    H2500
    0.1497245391555575    0.4535667509738078    0.5288396206519829    H2501
    0.1497245391555575    0.4535667509738078    0.8621729539853162    H2502
    0.4830578724888909    0.7869000843071412    0.1955062873186495    H2503
    0.4830578724888909    0.7869000843071412    0.5288396206519829    H2504
    0.4830578724888909    0.7869000843071412    0.8621729539853162    H2505
    0.4830578724888909    0.1202334176404745    0.1955062873186495    H2506
    0.4830578724888909    0.1202334176404745    0.5288396206519829    H2507
    0.4830578724888909    0.1202334176404745    0.8621729539853162    H2508
    0.4830578724888909    0.4535667509738078    0.1955062873186495    H2509
    0.4830578724888909    0.4535667509738078    0.5288396206519829    H2510
    0.4830578724888909    0.4535667509738078    0.8621729539853162    H2511
    0.8416596121317494    0.9402496002069320    0.1354565093397071    H2512
    0.8416596121317494    0.9402496002069320    0.4687898426730404    H2513
    0.8416596121317494    0.9402496002069320    0.8021231760063737    H2514
    0.8416596121317494    0.2735829335402653    0.1354565093397071    H2515
    0.8416596121317494    0.2735829335402653    0.4687898426730404    H2516
    0.8416596121317494    0.2735829335402653    0.8021231760063737    H2517
    0.8416596121317494    0.6069162668735987    0.1354565093397071    H2518
    0.8416596121317494    0.6069162668735987    0.4687898426730404    H2519
    0.8416596121317494    0.6069162668735987    0.8021231760063737    H2520
    0.1749929454650827    0.9402496002069320    0.1354565093397071    H2521
    0.1749929454650827    0.9402496002069320    0.4687898426730404    H2522
    0.1749929454650827    0.9402496002069320    0.8021231760063737    H2523
    0.1749929454650827    0.2735829335402653    0.1354565093397071    H2524
    0.1749929454650827    0.2735829335402653    0.4687898426730404    H2525
    0.1749929454650827    0.2735829335402653    0.8021231760063737    H2526
    0.1749929454650827    0.6069162668735987    0.1354565093397071    H2527
    0.1749929454650827    0.6069162668735987    0.4687898426730404    H2528
    0.1749929454650827    0.6069162668735987    0.8021231760063737    H2529
    0.5083262787984160    0.9402496002069320    0.1354565093397071    H2530
    0.5083262787984160    0.9402496002069320    0.4687898426730404    H2531
    0.5083262787984160    0.9402496002069320    0.8021231760063737    H2532
    0.5083262787984160    0.2735829335402653    0.1354565093397071    H2533
    0.5083262787984160    0.2735829335402653    0.4687898426730404    H2534
    0.5083262787984160    0.2735829335402653    0.8021231760063737    H2535
    0.5083262787984160    0.6069162668735987    0.1354565093397071    H2536
    0.5083262787984160    0.6069162668735987    0.4687898426730404    H2537
    0.5083262787984160    0.6069162668735987    0.8021231760063737    H2538
    0.7752203437577272    0.7015689440423853    0.3199106882308843    H2539
    0.7752203437577272    0.7015689440423853    0.6532440215642177    H2540
    0.7752203437577272    0.7015689440423853    0.9865773548975511    H2541
    0.7752203437577272    0.0349022773757186    0.3199106882308843    H2542
    0.7752203437577272    0.0349022773757186    0.6532440215642177    H2543
    0.7752203437577272    0.0349022773757186    0.9865773548975511    H2544
    0.7752203437577272    0.3682356107090521    0.3199106882308843    H2545
    0.7752203437577272    0.3682356107090521    0.6532440215642177    H2546
    0.7752203437577272    0.3682356107090521    0.9865773548975511    H2547
    0.1085536770910605    0.7015689440423853    0.3199106882308843    H2548
    0.1085536770910605    0.7015689440423853    0.6532440215642177    H2549
    0.1085536770910605    0.7015689440423853    0.9865773548975511    H2550
    0.1085536770910605    0.0349022773757186    0.3199106882308843    H2551
    0.1085536770910605    0.0349022773757186    0.6532440215642177    H2552
    0.1085536770910605    0.0349022773757186    0.9865773548975511    H2553
    0.1085536770910605    0.3682356107090521    0.3199106882308843    H2554
    0.1085536770910605    0.3682356107090521    0.6532440215642177    H2555
    0.1085536770910605    0.3682356107090521    0.9865773548975511    H2556
    0.4418870104243937    0.7015689440423853    0.3199106882308843    H2557
    0.4418870104243937    0.7015689440423853    0.6532440215642177    H2558
    0.4418870104243937    0.7015689440423853    0.9865773548975511    H2559
    0.4418870104243937    0.0349022773757186    0.3199106882308843    H2560
    0.4418870104243937    0.0349022773757186    0.6532440215642177    H2561
    0.4418870104243937    0.0349022773757186    0.9865773548975511    H2562
    0.4418870104243937    0.3682356107090521    0.3199106882308843    H2563
    0.4418870104243937    0.3682356107090521    0.6532440215642177    H2564
    0.4418870104243937    0.3682356107090521    0.9865773548975511    H2565
    0.8791808239414070    0.8336206142283085    0.1997316027137925    H2566
    0.8791808239414070    0.8336206142283085    0.5330649360471259    H2567
    0.8791808239414070    0.8336206142283085    0.8663982693804593    H2568
    0.8791808239414070    0.1669539475616418    0.1997316027137925    H2569
    0.8791808239414070    0.1669539475616418    0.5330649360471259    H2570
    0.8791808239414070    0.1669539475616418    0.8663982693804593    H2571
    0.8791808239414070    0.5002872808949752    0.1997316027137925    H2572
    0.8791808239414070    0.5002872808949752    0.5330649360471259    H2573
    0.8791808239414070    0.5002872808949752    0.8663982693804593    H2574
    0.2125141572747402    0.8336206142283085    0.1997316027137925    H2575
    0.2125141572747402    0.8336206142283085    0.5330649360471259    H2576
    0.2125141572747402    0.8336206142283085    0.8663982693804593    H2577
    0.2125141572747402    0.1669539475616418    0.1997316027137925    H2578
    0.2125141572747402    0.1669539475616418    0.5330649360471259    H2579
    0.2125141572747402    0.1669539475616418    0.8663982693804593    H2580
    0.2125141572747402    0.5002872808949752    0.1997316027137925    H2581
    0.2125141572747402    0.5002872808949752    0.5330649360471259    H2582
    0.2125141572747402    0.5002872808949752    0.8663982693804593    H2583
    0.5458474906080736    0.8336206142283085    0.1997316027137925    H2584
    0.5458474906080736    0.8336206142283085    0.5330649360471259    H2585
    0.5458474906080736    0.8336206142283085    0.8663982693804593    H2586
    0.5458474906080736    0.1669539475616418    0.1997316027137925    H2587
    0.5458474906080736    0.1669539475616418    0.5330649360471259    H2588
    0.5458474906080736    0.1669539475616418    0.8663982693804593    H2589
    0.5458474906080736    0.5002872808949752    0.1997316027137925    H2590
    0.5458474906080736    0.5002872808949752    0.5330649360471259    H2591
    0.5458474906080736    0.5002872808949752    0.8663982693804593    H2592
    0.0714584356574288    0.1482180367466069    0.1919770040151465    H2593
    0.0714584356574288    0.1482180367466069    0.5253103373484799    H2594
    0.0714584356574288    0.1482180367466069    0.8586436706818132    H2595
    0.0714584356574288    0.4815513700799403    0.1919770040151465    H2596
    0.0714584356574288    0.4815513700799403    0.5253103373484799    H2597
    0.0714584356574288    0.4815513700799403    0.8586436706818132    H2598
    0.0714584356574288    0.8148847034132736    0.1919770040151465    H2599
    0.0714584356574288    0.8148847034132736    0.5253103373484799    H2600
    0.0714584356574288    0.8148847034132736    0.8586436706818132    H2601
    0.4047917689907621    0.1482180367466069    0.1919770040151465    H2602
    0.4047917689907621    0.1482180367466069    0.5253103373484799    H2603
    0.4047917689907621    0.1482180367466069    0.8586436706818132    H2604
    0.4047917689907621    0.4815513700799403    0.1919770040151465    H2605
    0.4047917689907621    0.4815513700799403    0.5253103373484799    H2606
    0.4047917689907621    0.4815513700799403    0.8586436706818132    H2607
    0.4047917689907621    0.8148847034132736    0.1919770040151465    H2608
    0.4047917689907621    0.8148847034132736    0.5253103373484799    H2609
    0.4047917689907621    0.8148847034132736    0.8586436706818132    H2610
    0.7381251023240955    0.1482180367466069    0.1919770040151465    H2611
    0.7381251023240955    0.1482180367466069    0.5253103373484799    H2612
    0.7381251023240955    0.1482180367466069    0.8586436706818132    H2613
    0.7381251023240955    0.4815513700799403    0.1919770040151465    H2614
    0.7381251023240955    0.4815513700799403    0.5253103373484799    H2615
    0.7381251023240955    0.4815513700799403    0.8586436706818132    H2616
    0.7381251023240955    0.8148847034132736    0.1919770040151465    H2617
    0.7381251023240955    0.8148847034132736    0.5253103373484799    H2618
    0.7381251023240955    0.8148847034132736    0.8586436706818132    H2619
    0.1263267110295494    0.1217696718018638    0.1672599288456278    H2620
    0.1263267110295494    0.1217696718018638    0.5005932621789611    H2621
    0.1263267110295494    0.1217696718018638    0.8339265955122944    H2622
    0.1263267110295494    0.4551030051351971    0.1672599288456278    H2623
    0.1263267110295494    0.4551030051351971    0.5005932621789611    H2624
    0.1263267110295494    0.4551030051351971    0.8339265955122944    H2625
    0.1263267110295494    0.7884363384685305    0.1672599288456278    H2626
    0.1263267110295494    0.7884363384685305    0.5005932621789611    H2627
    0.1263267110295494    0.7884363384685305    0.8339265955122944    H2628
    0.4596600443628827    0.1217696718018638    0.1672599288456278    H2629
    0.4596600443628827    0.1217696718018638    0.5005932621789611    H2630
    0.4596600443628827    0.1217696718018638    0.8339265955122944    H2631
    0.4596600443628827    0.4551030051351971    0.1672599288456278    H2632
    0.4596600443628827    0.4551030051351971    0.5005932621789611    H2633
    0.4596600443628827    0.4551030051351971    0.8339265955122944    H2634
    0.4596600443628827    0.7884363384685305    0.1672599288456278    H2635
    0.4596600443628827    0.7884363384685305    0.5005932621789611    H2636
    0.4596600443628827    0.7884363384685305    0.8339265955122944    H2637
    0.7929933776962160    0.1217696718018638    0.1672599288456278    H2638
    0.7929933776962160    0.1217696718018638    0.5005932621789611    H2639
    0.7929933776962160    0.1217696718018638    0.8339265955122944    H2640
    0.7929933776962160    0.4551030051351971    0.1672599288456278    H2641
    0.7929933776962160    0.4551030051351971    0.5005932621789611    H2642
    0.7929933776962160    0.4551030051351971    0.8339265955122944    H2643
    0.7929933776962160    0.7884363384685305    0.1672599288456278    H2644
    0.7929933776962160    0.7884363384685305    0.5005932621789611    H2645
    0.7929933776962160    0.7884363384685305    0.8339265955122944    H2646
    0.6798941323075651    0.9418426464225713    0.1885638886358385    H2647
    0.6798941323075651    0.9418426464225713    0.5218972219691719    H2648
    0.6798941323075651    0.9418426464225713    0.8552305553025051    H2649
    0.6798941323075651    0.2751759797559046    0.1885638886358385    H2650
    0.6798941323075651    0.2751759797559046    0.5218972219691719    H2651
    0.6798941323075651    0.2751759797559046    0.8552305553025051    H2652
    0.6798941323075651    0.6085093130892378    0.1885638886358385    H2653
    0.6798941323075651    0.6085093130892378    0.5218972219691719    H2654
    0.6798941323075651    0.6085093130892378    0.8552305553025051    H2655
    0.0132274656408984    0.9418426464225713    0.1885638886358385    H2656
    0.0132274656408984    0.9418426464225713    0.5218972219691719    H2657
    0.0132274656408984    0.9418426464225713    0.8552305553025051    H2658
    0.0132274656408984    0.2751759797559046    0.1885638886358385    H2659
    0.0132274656408984    0.2751759797559046    0.5218972219691719    H2660
    0.0132274656408984    0.2751759797559046    0.8552305553025051    H2661
    0.0132274656408984    0.6085093130892378    0.1885638886358385    H2662
    0.0132274656408984    0.6085093130892378    0.5218972219691719    H2663
    0.0132274656408984    0.6085093130892378    0.8552305553025051    H2664
    0.3465607989742318    0.9418426464225713    0.1885638886358385    H2665
    0.3465607989742318    0.9418426464225713    0.5218972219691719    H2666
    0.3465607989742318    0.9418426464225713    0.8552305553025051    H2667
    0.3465607989742318    0.2751759797559046    0.1885638886358385    H2668
    0.3465607989742318    0.2751759797559046    0.5218972219691719    H2669
    0.3465607989742318    0.2751759797559046    0.8552305553025051    H2670
    0.3465607989742318    0.6085093130892378    0.1885638886358385    H2671
    0.3465607989742318    0.6085093130892378    0.5218972219691719    H2672
    0.3465607989742318    0.6085093130892378    0.8552305553025051    H2673
    0.8317066913179771    0.9110693704855175    0.1854775885440674    H2674
    0.8317066913179771    0.9110693704855175    0.5188109218774007    H2675
    0.8317066913179771    0.9110693704855175    0.8521442552107341    H2676
    0.8317066913179771    0.2444027038188508    0.1854775885440674    H2677
    0.8317066913179771    0.2444027038188508    0.5188109218774007    H2678
    0.8317066913179771    0.2444027038188508    0.8521442552107341    H2679
    0.8317066913179771    0.5777360371521841    0.1854775885440674    H2680
    0.8317066913179771    0.5777360371521841    0.5188109218774007    H2681
    0.8317066913179771    0.5777360371521841    0.8521442552107341    H2682
    0.1650400246513104    0.9110693704855175    0.1854775885440674    H2683
    0.1650400246513104    0.9110693704855175    0.5188109218774007    H2684
    0.1650400246513104    0.9110693704855175    0.8521442552107341    H2685
    0.1650400246513104    0.2444027038188508    0.1854775885440674    H2686
    0.1650400246513104    0.2444027038188508    0.5188109218774007    H2687
    0.1650400246513104    0.2444027038188508    0.8521442552107341    H2688
    0.1650400246513104    0.5777360371521841    0.1854775885440674    H2689
    0.1650400246513104    0.5777360371521841    0.5188109218774007    H2690
    0.1650400246513104    0.5777360371521841    0.8521442552107341    H2691
    0.4983733579846437    0.9110693704855175    0.1854775885440674    H2692
    0.4983733579846437    0.9110693704855175    0.5188109218774007    H2693
    0.4983733579846437    0.9110693704855175    0.8521442552107341    H2694
    0.4983733579846437    0.2444027038188508    0.1854775885440674    H2695
    0.4983733579846437    0.2444027038188508    0.5188109218774007    H2696
    0.4983733579846437    0.2444027038188508    0.8521442552107341    H2697
    0.4983733579846437    0.5777360371521841    0.1854775885440674    H2698
    0.4983733579846437    0.5777360371521841    0.5188109218774007    H2699
    0.4983733579846437    0.5777360371521841    0.8521442552107341    H2700
    0.0915660256470242    0.2163462402951482    0.2108873756420748    H2701
    0.0915660256470242    0.2163462402951482    0.5442207089754082    H2702
    0.0915660256470242    0.2163462402951482    0.8775540423087415    H2703
    0.0915660256470242    0.5496795736284814    0.2108873756420748    H2704
    0.0915660256470242    0.5496795736284814    0.5442207089754082    H2705
    0.0915660256470242    0.5496795736284814    0.8775540423087415    H2706
    0.0915660256470242    0.8830129069618148    0.2108873756420748    H2707
    0.0915660256470242    0.8830129069618148    0.5442207089754082    H2708
    0.0915660256470242    0.8830129069618148    0.8775540423087415    H2709
    0.4248993589803576    0.2163462402951482    0.2108873756420748    H2710
    0.4248993589803576    0.2163462402951482    0.5442207089754082    H2711
    0.4248993589803576    0.2163462402951482    0.8775540423087415    H2712
    0.4248993589803576    0.5496795736284814    0.2108873756420748    H2713
    0.4248993589803576    0.5496795736284814    0.5442207089754082    H2714
    0.4248993589803576    0.5496795736284814    0.8775540423087415    H2715
    0.4248993589803576    0.8830129069618148    0.2108873756420748    H2716
    0.4248993589803576    0.8830129069618148    0.5442207089754082    H2717
    0.4248993589803576    0.8830129069618148    0.8775540423087415    H2718
    0.7582326923136908    0.2163462402951482    0.2108873756420748    H2719
    0.7582326923136908    0.2163462402951482    0.5442207089754082    H2720
    0.7582326923136908    0.2163462402951482    0.8775540423087415    H2721
    0.7582326923136908    0.5496795736284814    0.2108873756420748    H2722
    0.7582326923136908    0.5496795736284814    0.5442207089754082    H2723
    0.7582326923136908    0.5496795736284814    0.8775540423087415    H2724
    0.7582326923136908    0.8830129069618148    0.2108873756420748    H2725
    0.7582326923136908    0.8830129069618148    0.5442207089754082    H2726
    0.7582326923136908    0.8830129069618148    0.8775540423087415    H2727
    0.9987846854307523    0.0237431019636274    0.2676675386587254    H2728
    0.9987846854307523    0.0237431019636274    0.6010008719920588    H2729
    0.9987846854307523    0.0237431019636274    0.9343342053253920    H2730
    0.9987846854307523    0.3570764352969608    0.2676675386587254    H2731
    0.9987846854307523    0.3570764352969608    0.6010008719920588    H2732
    0.9987846854307523    0.3570764352969608    0.9343342053253920    H2733
    0.9987846854307523    0.6904097686302941    0.2676675386587254    H2734
    0.9987846854307523    0.6904097686302941    0.6010008719920588    H2735
    0.9987846854307523    0.6904097686302941    0.9343342053253920    H2736
    0.3321180187640855    0.0237431019636274    0.2676675386587254    H2737
    0.3321180187640855    0.0237431019636274    0.6010008719920588    H2738
    0.3321180187640855    0.0237431019636274    0.9343342053253920    H2739
    0.3321180187640855    0.3570764352969608    0.2676675386587254    H2740
    0.3321180187640855    0.3570764352969608    0.6010008719920588    H2741
    0.3321180187640855    0.3570764352969608    0.9343342053253920    H2742
    0.3321180187640855    0.6904097686302941    0.2676675386587254    H2743
    0.3321180187640855    0.6904097686302941    0.6010008719920588    H2744
    0.3321180187640855    0.6904097686302941    0.9343342053253920    H2745
    0.6654513520974188    0.0237431019636274    0.2676675386587254    H2746
    0.6654513520974188    0.0237431019636274    0.6010008719920588    H2747
    0.6654513520974188    0.0237431019636274    0.9343342053253920    H2748
    0.6654513520974188    0.3570764352969608    0.2676675386587254    H2749
    0.6654513520974188    0.3570764352969608    0.6010008719920588    H2750
    0.6654513520974188    0.3570764352969608    0.9343342053253920    H2751
    0.6654513520974188    0.6904097686302941    0.2676675386587254    H2752
    0.6654513520974188    0.6904097686302941    0.6010008719920588    H2753
    0.6654513520974188    0.6904097686302941    0.9343342053253920    H2754
    0.0750568804134950    0.1111137090256230    0.1543872095709821    H2755
    0.0750568804134950    0.1111137090256230    0.4877205429043154    H2756
    0.0750568804134950    0.1111137090256230    0.8210538762376488    H2757
    0.0750568804134950    0.4444470423589564    0.1543872095709821    H2758
    0.0750568804134950    0.4444470423589564    0.4877205429043154    H2759
    0.0750568804134950    0.4444470423589564    0.8210538762376488    H2760
    0.0750568804134950    0.7777803756922897    0.1543872095709821    H2761
    0.0750568804134950    0.7777803756922897    0.4877205429043154    H2762
    0.0750568804134950    0.7777803756922897    0.8210538762376488    H2763
    0.4083902137468284    0.1111137090256230    0.1543872095709821    H2764
    0.4083902137468284    0.1111137090256230    0.4877205429043154    H2765
    0.4083902137468284    0.1111137090256230    0.8210538762376488    H2766
    0.4083902137468284    0.4444470423589564    0.1543872095709821    H2767
    0.4083902137468284    0.4444470423589564    0.4877205429043154    H2768
    0.4083902137468284    0.4444470423589564    0.8210538762376488    H2769
    0.4083902137468284    0.7777803756922897    0.1543872095709821    H2770
    0.4083902137468284    0.7777803756922897    0.4877205429043154    H2771
    0.4083902137468284    0.7777803756922897    0.8210538762376488    H2772
    0.7417235470801617    0.1111137090256230    0.1543872095709821    H2773
    0.7417235470801617    0.1111137090256230    0.4877205429043154    H2774
    0.7417235470801617    0.1111137090256230    0.8210538762376488    H2775
    0.7417235470801617    0.4444470423589564    0.1543872095709821    H2776
    0.7417235470801617    0.4444470423589564    0.4877205429043154    H2777
    0.7417235470801617    0.4444470423589564    0.8210538762376488    H2778
    0.7417235470801617    0.7777803756922897    0.1543872095709821    H2779
    0.7417235470801617    0.7777803756922897    0.4877205429043154    H2780
    0.7417235470801617    0.7777803756922897    0.8210538762376488    H2781
    0.9688522376054505    0.0402212604320440    0.3112224694909077    H2782
    0.9688522376054505    0.0402212604320440    0.6445558028242411    H2783
    0.9688522376054505    0.0402212604320440    0.9778891361575743    H2784
    0.9688522376054505    0.3735545937653773    0.3112224694909077    H2785
    0.9688522376054505    0.3735545937653773    0.6445558028242411    H2786
    0.9688522376054505    0.3735545937653773    0.9778891361575743    H2787
    0.9688522376054505    0.7068879270987106    0.3112224694909077    H2788
    0.9688522376054505    0.7068879270987106    0.6445558028242411    H2789
    0.9688522376054505    0.7068879270987106    0.9778891361575743    H2790
    0.3021855709387838    0.0402212604320440    0.3112224694909077    H2791
    0.3021855709387838    0.0402212604320440    0.6445558028242411    H2792
    0.3021855709387838    0.0402212604320440    0.9778891361575743    H2793
    0.3021855709387838    0.3735545937653773    0.3112224694909077    H2794
    0.3021855709387838    0.3735545937653773    0.6445558028242411    H2795
    0.3021855709387838    0.3735545937653773    0.9778891361575743    H2796
    0.3021855709387838    0.7068879270987106    0.3112224694909077    H2797
    0.3021855709387838    0.7068879270987106    0.6445558028242411    H2798
    0.3021855709387838    0.7068879270987106    0.9778891361575743    H2799
    0.6355189042721172    0.0402212604320440    0.3112224694909077    H2800
    0.6355189042721172    0.0402212604320440    0.6445558028242411    H2801
    0.6355189042721172    0.0402212604320440    0.9778891361575743    H2802
    0.6355189042721172    0.3735545937653773    0.3112224694909077    H2803
    0.6355189042721172    0.3735545937653773    0.6445558028242411    H2804
    0.6355189042721172    0.3735545937653773    0.9778891361575743    H2805
    0.6355189042721172    0.7068879270987106    0.3112224694909077    H2806
    0.6355189042721172    0.7068879270987106    0.6445558028242411    H2807
    0.6355189042721172    0.7068879270987106    0.9778891361575743    H2808
    0.1339363905554531    0.7950773673093894    0.2939057236341965    H2809
    0.1339363905554531    0.7950773673093894    0.6272390569675299    H2810
    0.1339363905554531    0.7950773673093894    0.9605723903008632    H2811
    0.1339363905554531    0.1284107006427226    0.2939057236341965    H2812
    0.1339363905554531    0.1284107006427226    0.6272390569675299    H2813
    0.1339363905554531    0.1284107006427226    0.9605723903008632    H2814
    0.1339363905554531    0.4617440339760560    0.2939057236341965    H2815
    0.1339363905554531    0.4617440339760560    0.6272390569675299    H2816
    0.1339363905554531    0.4617440339760560    0.9605723903008632    H2817
    0.4672697238887864    0.7950773673093894    0.2939057236341965    H2818
    0.4672697238887864    0.7950773673093894    0.6272390569675299    H2819
    0.4672697238887864    0.7950773673093894    0.9605723903008632    H2820
    0.4672697238887864    0.1284107006427226    0.2939057236341965    H2821
    0.4672697238887864    0.1284107006427226    0.6272390569675299    H2822
    0.4672697238887864    0.1284107006427226    0.9605723903008632    H2823
    0.4672697238887864    0.4617440339760560    0.2939057236341965    H2824
    0.4672697238887864    0.4617440339760560    0.6272390569675299    H2825
    0.4672697238887864    0.4617440339760560    0.9605723903008632    H2826
    0.8006030572221198    0.7950773673093894    0.2939057236341965    H2827
    0.8006030572221198    0.7950773673093894    0.6272390569675299    H2828
    0.8006030572221198    0.7950773673093894    0.9605723903008632    H2829
    0.8006030572221198    0.1284107006427226    0.2939057236341965    H2830
    0.8006030572221198    0.1284107006427226    0.6272390569675299    H2831
    0.8006030572221198    0.1284107006427226    0.9605723903008632    H2832
    0.8006030572221198    0.4617440339760560    0.2939057236341965    H2833
    0.8006030572221198    0.4617440339760560    0.6272390569675299    H2834
    0.8006030572221198    0.4617440339760560    0.9605723903008632    H2835
    0.1020739275926313    0.6982788458669180    0.2539549185484423    H2836
    0.1020739275926313    0.6982788458669180    0.5872882518817756    H2837
    0.1020739275926313    0.6982788458669180    0.9206215852151088    H2838
    0.1020739275926313    0.0316121792002514    0.2539549185484423    H2839
    0.1020739275926313    0.0316121792002514    0.5872882518817756    H2840
    0.1020739275926313    0.0316121792002514    0.9206215852151088    H2841
    0.1020739275926313    0.3649455125335848    0.2539549185484423    H2842
    0.1020739275926313    0.3649455125335848    0.5872882518817756    H2843
    0.1020739275926313    0.3649455125335848    0.9206215852151088    H2844
    0.4354072609259646    0.6982788458669180    0.2539549185484423    H2845
    0.4354072609259646    0.6982788458669180    0.5872882518817756    H2846
    0.4354072609259646    0.6982788458669180    0.9206215852151088    H2847
    0.4354072609259646    0.0316121792002514    0.2539549185484423    H2848
    0.4354072609259646    0.0316121792002514    0.5872882518817756    H2849
    0.4354072609259646    0.0316121792002514    0.9206215852151088    H2850
    0.4354072609259646    0.3649455125335848    0.2539549185484423    H2851
    0.4354072609259646    0.3649455125335848    0.5872882518817756    H2852
    0.4354072609259646    0.3649455125335848    0.9206215852151088    H2853
    0.7687405942592980    0.6982788458669180    0.2539549185484423    H2854
    0.7687405942592980    0.6982788458669180    0.5872882518817756    H2855
    0.7687405942592980    0.6982788458669180    0.9206215852151088    H2856
    0.7687405942592980    0.0316121792002514    0.2539549185484423    H2857
    0.7687405942592980    0.0316121792002514    0.5872882518817756    H2858
    0.7687405942592980    0.0316121792002514    0.9206215852151088    H2859
    0.7687405942592980    0.3649455125335848    0.2539549185484423    H2860
    0.7687405942592980    0.3649455125335848    0.5872882518817756    H2861
    0.7687405942592980    0.3649455125335848    0.9206215852151088    H2862
    0.8896381393909389    0.8454959536134850    0.0315911792341996    H2863
    0.8896381393909389    0.8454959536134850    0.3649245125675331    H2864
    0.8896381393909389    0.8454959536134850    0.6982578459008664    H2865
    0.8896381393909389    0.1788292869468182    0.0315911792341996    H2866
    0.8896381393909389    0.1788292869468182    0.3649245125675331    H2867
    0.8896381393909389    0.1788292869468182    0.6982578459008664    H2868
    0.8896381393909389    0.5121626202801516    0.0315911792341996    H2869
    0.8896381393909389    0.5121626202801516    0.3649245125675331    H2870
    0.8896381393909389    0.5121626202801516    0.6982578459008664    H2871
    0.2229714727242723    0.8454959536134850    0.0315911792341996    H2872
    0.2229714727242723    0.8454959536134850    0.3649245125675331    H2873
    0.2229714727242723    0.8454959536134850    0.6982578459008664    H2874
    0.2229714727242723    0.1788292869468182    0.0315911792341996    H2875
    0.2229714727242723    0.1788292869468182    0.3649245125675331    H2876
    0.2229714727242723    0.1788292869468182    0.6982578459008664    H2877
    0.2229714727242723    0.5121626202801516    0.0315911792341996    H2878
    0.2229714727242723    0.5121626202801516    0.3649245125675331    H2879
    0.2229714727242723    0.5121626202801516    0.6982578459008664    H2880
    0.5563048060576057    0.8454959536134850    0.0315911792341996    H2881
    0.5563048060576057    0.8454959536134850    0.3649245125675331    H2882
    0.5563048060576057    0.8454959536134850    0.6982578459008664    H2883
    0.5563048060576057    0.1788292869468182    0.0315911792341996    H2884
    0.5563048060576057    0.1788292869468182    0.3649245125675331    H2885
    0.5563048060576057    0.1788292869468182    0.6982578459008664    H2886
    0.5563048060576057    0.5121626202801516    0.0315911792341996    H2887
    0.5563048060576057    0.5121626202801516    0.3649245125675331    H2888
    0.5563048060576057    0.5121626202801516    0.6982578459008664    H2889
    0.1415406128671143    0.7114263524377948    0.3282192477049127    H2890
    0.1415406128671143    0.7114263524377948    0.6615525810382460    H2891
    0.1415406128671143    0.7114263524377948    0.9948859143715792    H2892
    0.1415406128671143    0.0447596857711282    0.3282192477049127    H2893
    0.1415406128671143    0.0447596857711282    0.6615525810382460    H2894
    0.1415406128671143    0.0447596857711282    0.9948859143715792    H2895
    0.1415406128671143    0.3780930191044616    0.3282192477049127    H2896
    0.1415406128671143    0.3780930191044616    0.6615525810382460    H2897
    0.1415406128671143    0.3780930191044616    0.9948859143715792    H2898
    0.4748739462004476    0.7114263524377948    0.3282192477049127    H2899
    0.4748739462004476    0.7114263524377948    0.6615525810382460    H2900
    0.4748739462004476    0.7114263524377948    0.9948859143715792    H2901
    0.4748739462004476    0.0447596857711282    0.3282192477049127    H2902
    0.4748739462004476    0.0447596857711282    0.6615525810382460    H2903
    0.4748739462004476    0.0447596857711282    0.9948859143715792    H2904
    0.4748739462004476    0.3780930191044616    0.3282192477049127    H2905
    0.4748739462004476    0.3780930191044616    0.6615525810382460    H2906
    0.4748739462004476    0.3780930191044616    0.9948859143715792    H2907
    0.8082072795337809    0.7114263524377948    0.3282192477049127    H2908
    0.8082072795337809    0.7114263524377948    0.6615525810382460    H2909
    0.8082072795337809    0.7114263524377948    0.9948859143715792    H2910
    0.8082072795337809    0.0447596857711282    0.3282192477049127    H2911
    0.8082072795337809    0.0447596857711282    0.6615525810382460    H2912
    0.8082072795337809    0.0447596857711282    0.9948859143715792    H2913
    0.8082072795337809    0.3780930191044616    0.3282192477049127    H2914
    0.8082072795337809    0.3780930191044616    0.6615525810382460    H2915
    0.8082072795337809    0.3780930191044616    0.9948859143715792    H2916
    0.1889633166991763    0.7945765399977824    0.3322614326630211    H2917
    0.1889633166991763    0.7945765399977824    0.6655947659963544    H2918
    0.1889633166991763    0.7945765399977824    0.9989280993296877    H2919
    0.1889633166991763    0.1279098733311157    0.3322614326630211    H2920
    0.1889633166991763    0.1279098733311157    0.6655947659963544    H2921
    0.1889633166991763    0.1279098733311157    0.9989280993296877    H2922
    0.1889633166991763    0.4612432066644490    0.3322614326630211    H2923
    0.1889633166991763    0.4612432066644490    0.6655947659963544    H2924
    0.1889633166991763    0.4612432066644490    0.9989280993296877    H2925
    0.5222966500325097    0.7945765399977824    0.3322614326630211    H2926
    0.5222966500325097    0.7945765399977824    0.6655947659963544    H2927
    0.5222966500325097    0.7945765399977824    0.9989280993296877    H2928
    0.5222966500325097    0.1279098733311157    0.3322614326630211    H2929
    0.5222966500325097    0.1279098733311157    0.6655947659963544    H2930
    0.5222966500325097    0.1279098733311157    0.9989280993296877    H2931
    0.5222966500325097    0.4612432066644490    0.3322614326630211    H2932
    0.5222966500325097    0.4612432066644490    0.6655947659963544    H2933
    0.5222966500325097    0.4612432066644490    0.9989280993296877    H2934
    0.8556299833658429    0.7945765399977824    0.3322614326630211    H2935
    0.8556299833658429    0.7945765399977824    0.6655947659963544    H2936
    0.8556299833658429    0.7945765399977824    0.9989280993296877    H2937
    0.8556299833658429    0.1279098733311157    0.3322614326630211    H2938
    0.8556299833658429    0.1279098733311157    0.6655947659963544    H2939
    0.8556299833658429    0.1279098733311157    0.9989280993296877    H2940
    0.8556299833658429    0.4612432066644490    0.3322614326630211    H2941
    0.8556299833658429    0.4612432066644490    0.6655947659963544    H2942
    0.8556299833658429    0.4612432066644490    0.9989280993296877    H2943
    0.8340055312400838    0.9283676586447023    0.2361816188148562    H2944
    0.8340055312400838    0.9283676586447023    0.5695149521481895    H2945
    0.8340055312400838    0.9283676586447023    0.9028482854815228    H2946
    0.8340055312400838    0.2617009919780355    0.2361816188148562    H2947
    0.8340055312400838    0.2617009919780355    0.5695149521481895    H2948
    0.8340055312400838    0.2617009919780355    0.9028482854815228    H2949
    0.8340055312400838    0.5950343253113689    0.2361816188148562    H2950
    0.8340055312400838    0.5950343253113689    0.5695149521481895    H2951
    0.8340055312400838    0.5950343253113689    0.9028482854815228    H2952
    0.1673388645734172    0.9283676586447023    0.2361816188148562    H2953
    0.1673388645734172    0.9283676586447023    0.5695149521481895    H2954
    0.1673388645734172    0.9283676586447023    0.9028482854815228    H2955
    0.1673388645734172    0.2617009919780355    0.2361816188148562    H2956
    0.1673388645734172    0.2617009919780355    0.5695149521481895    H2957
    0.1673388645734172    0.2617009919780355    0.9028482854815228    H2958
    0.1673388645734172    0.5950343253113689    0.2361816188148562    H2959
    0.1673388645734172    0.5950343253113689    0.5695149521481895    H2960
    0.1673388645734172    0.5950343253113689    0.9028482854815228    H2961
    0.5006721979067505    0.9283676586447023    0.2361816188148562    H2962
    0.5006721979067505    0.9283676586447023    0.5695149521481895    H2963
    0.5006721979067505    0.9283676586447023    0.9028482854815228    H2964
    0.5006721979067505    0.2617009919780355    0.2361816188148562    H2965
    0.5006721979067505    0.2617009919780355    0.5695149521481895    H2966
    0.5006721979067505    0.2617009919780355    0.9028482854815228    H2967
    0.5006721979067505    0.5950343253113689    0.2361816188148562    H2968
    0.5006721979067505    0.5950343253113689    0.5695149521481895    H2969
    0.5006721979067505    0.5950343253113689    0.9028482854815228    H2970
    0.9502853285035620    0.9205997955724026    0.2626601631548269    H2971
    0.9502853285035620    0.9205997955724026    0.5959934964881604    H2972
    0.9502853285035620    0.9205997955724026    0.9293268298214936    H2973
    0.9502853285035620    0.2539331289057358    0.2626601631548269    H2974
    0.9502853285035620    0.2539331289057358    0.5959934964881604    H2975
    0.9502853285035620    0.2539331289057358    0.9293268298214936    H2976
    0.9502853285035620    0.5872664622390691    0.2626601631548269    H2977
    0.9502853285035620    0.5872664622390691    0.5959934964881604    H2978
    0.9502853285035620    0.5872664622390691    0.9293268298214936    H2979
    0.2836186618368952    0.9205997955724026    0.2626601631548269    H2980
    0.2836186618368952    0.9205997955724026    0.5959934964881604    H2981
    0.2836186618368952    0.9205997955724026    0.9293268298214936    H2982
    0.2836186618368952    0.2539331289057358    0.2626601631548269    H2983
    0.2836186618368952    0.2539331289057358    0.5959934964881604    H2984
    0.2836186618368952    0.2539331289057358    0.9293268298214936    H2985
    0.2836186618368952    0.5872664622390691    0.2626601631548269    H2986
    0.2836186618368952    0.5872664622390691    0.5959934964881604    H2987
    0.2836186618368952    0.5872664622390691    0.9293268298214936    H2988
    0.6169519951702285    0.9205997955724026    0.2626601631548269    H2989
    0.6169519951702285    0.9205997955724026    0.5959934964881604    H2990
    0.6169519951702285    0.9205997955724026    0.9293268298214936    H2991
    0.6169519951702285    0.2539331289057358    0.2626601631548269    H2992
    0.6169519951702285    0.2539331289057358    0.5959934964881604    H2993
    0.6169519951702285    0.2539331289057358    0.9293268298214936    H2994
    0.6169519951702285    0.5872664622390691    0.2626601631548269    H2995
    0.6169519951702285    0.5872664622390691    0.5959934964881604    H2996
    0.6169519951702285    0.5872664622390691    0.9293268298214936    H2997
    0.1868203468916837    0.8409672254986300    0.3438495568919639    H2998
    0.1868203468916837    0.8409672254986300    0.6771828902252973    H2999
    0.1868203468916837    0.8409672254986300    0.0105162235586306    H3000
    0.1868203468916837    0.1743005588319633    0.3438495568919639    H3001
    0.1868203468916837    0.1743005588319633    0.6771828902252973    H3002
    0.1868203468916837    0.1743005588319633    0.0105162235586306    H3003
    0.1868203468916837    0.5076338921652966    0.3438495568919639    H3004
    0.1868203468916837    0.5076338921652966    0.6771828902252973    H3005
    0.1868203468916837    0.5076338921652966    0.0105162235586306    H3006
    0.5201536802250171    0.8409672254986300    0.3438495568919639    H3007
    0.5201536802250171    0.8409672254986300    0.6771828902252973    H3008
    0.5201536802250171    0.8409672254986300    0.0105162235586306    H3009
    0.5201536802250171    0.1743005588319633    0.3438495568919639    H3010
    0.5201536802250171    0.1743005588319633    0.6771828902252973    H3011
    0.5201536802250171    0.1743005588319633    0.0105162235586306    H3012
    0.5201536802250171    0.5076338921652966    0.3438495568919639    H3013
    0.5201536802250171    0.5076338921652966    0.6771828902252973    H3014
    0.5201536802250171    0.5076338921652966    0.0105162235586306    H3015
    0.8534870135583503    0.8409672254986300    0.3438495568919639    H3016
    0.8534870135583503    0.8409672254986300    0.6771828902252973    H3017
    0.8534870135583503    0.8409672254986300    0.0105162235586306    H3018
    0.8534870135583503    0.1743005588319633    0.3438495568919639    H3019
    0.8534870135583503    0.1743005588319633    0.6771828902252973    H3020
    0.8534870135583503    0.1743005588319633    0.0105162235586306    H3021
    0.8534870135583503    0.5076338921652966    0.3438495568919639    H3022
    0.8534870135583503    0.5076338921652966    0.6771828902252973    H3023
    0.8534870135583503    0.5076338921652966    0.0105162235586306    H3024
    0.0135338631523949    0.0843138857164261    0.2502399808412032    H3025
    0.0135338631523949    0.0843138857164261    0.5835733141745365    H3026
    0.0135338631523949    0.0843138857164261    0.9169066475078698    H3027
    0.0135338631523949    0.4176472190497594    0.2502399808412032    H3028
    0.0135338631523949    0.4176472190497594    0.5835733141745365    H3029
    0.0135338631523949    0.4176472190497594    0.9169066475078698    H3030
    0.0135338631523949    0.7509805523830928    0.2502399808412032    H3031
    0.0135338631523949    0.7509805523830928    0.5835733141745365    H3032
    0.0135338631523949    0.7509805523830928    0.9169066475078698    H3033
    0.3468671964857282    0.0843138857164261    0.2502399808412032    H3034
    0.3468671964857282    0.0843138857164261    0.5835733141745365    H3035
    0.3468671964857282    0.0843138857164261    0.9169066475078698    H3036
    0.3468671964857282    0.4176472190497594    0.2502399808412032    H3037
    0.3468671964857282    0.4176472190497594    0.5835733141745365    H3038
    0.3468671964857282    0.4176472190497594    0.9169066475078698    H3039
    0.3468671964857282    0.7509805523830928    0.2502399808412032    H3040
    0.3468671964857282    0.7509805523830928    0.5835733141745365    H3041
    0.3468671964857282    0.7509805523830928    0.9169066475078698    H3042
    0.6802005298190615    0.0843138857164261    0.2502399808412032    H3043
    0.6802005298190615    0.0843138857164261    0.5835733141745365    H3044
    0.6802005298190615    0.0843138857164261    0.9169066475078698    H3045
    0.6802005298190615    0.4176472190497594    0.2502399808412032    H3046
    0.6802005298190615    0.4176472190497594    0.5835733141745365    H3047
    0.6802005298190615    0.4176472190497594    0.9169066475078698    H3048
    0.6802005298190615    0.7509805523830928    0.2502399808412032    H3049
    0.6802005298190615    0.7509805523830928    0.5835733141745365    H3050
    0.6802005298190615    0.7509805523830928    0.9169066475078698    H3051
    0.9177832218125781    0.8265773194691040    0.1130797478596264    H3052
    0.9177832218125781    0.8265773194691040    0.4464130811929597    H3053
    0.9177832218125781    0.8265773194691040    0.7797464145262931    H3054
    0.9177832218125781    0.1599106528024373    0.1130797478596264    H3055
    0.9177832218125781    0.1599106528024373    0.4464130811929597    H3056
    0.9177832218125781    0.1599106528024373    0.7797464145262931    H3057
    0.9177832218125781    0.4932439861357707    0.1130797478596264    H3058
    0.9177832218125781    0.4932439861357707    0.4464130811929597    H3059
    0.9177832218125781    0.4932439861357707    0.7797464145262931    H3060
    0.2511165551459114    0.8265773194691040    0.1130797478596264    H3061
    0.2511165551459114    0.8265773194691040    0.4464130811929597    H3062
    0.2511165551459114    0.8265773194691040    0.7797464145262931    H3063
    0.2511165551459114    0.1599106528024373    0.1130797478596264    H3064
    0.2511165551459114    0.1599106528024373    0.4464130811929597    H3065
    0.2511165551459114    0.1599106528024373    0.7797464145262931    H3066
    0.2511165551459114    0.4932439861357707    0.1130797478596264    H3067
    0.2511165551459114    0.4932439861357707    0.4464130811929597    H3068
    0.2511165551459114    0.4932439861357707    0.7797464145262931    H3069
    0.5844498884792446    0.8265773194691040    0.1130797478596264    H3070
    0.5844498884792446    0.8265773194691040    0.4464130811929597    H3071
    0.5844498884792446    0.8265773194691040    0.7797464145262931    H3072
    0.5844498884792446    0.1599106528024373    0.1130797478596264    H3073
    0.5844498884792446    0.1599106528024373    0.4464130811929597    H3074
    0.5844498884792446    0.1599106528024373    0.7797464145262931    H3075
    0.5844498884792446    0.4932439861357707    0.1130797478596264    H3076
    0.5844498884792446    0.4932439861357707    0.4464130811929597    H3077
    0.5844498884792446    0.4932439861357707    0.7797464145262931    H3078
    0.9700873334504134    0.8741343699474875    0.2452306298473228    H3079
    0.9700873334504134    0.8741343699474875    0.5785639631806561    H3080
    0.9700873334504134    0.8741343699474875    0.9118972965139893    H3081
    0.9700873334504134    0.2074677032808208    0.2452306298473228    H3082
    0.9700873334504134    0.2074677032808208    0.5785639631806561    H3083
    0.9700873334504134    0.2074677032808208    0.9118972965139893    H3084
    0.9700873334504134    0.5408010366141540    0.2452306298473228    H3085
    0.9700873334504134    0.5408010366141540    0.5785639631806561    H3086
    0.9700873334504134    0.5408010366141540    0.9118972965139893    H3087
    0.3034206667837468    0.8741343699474875    0.2452306298473228    H3088
    0.3034206667837468    0.8741343699474875    0.5785639631806561    H3089
    0.3034206667837468    0.8741343699474875    0.9118972965139893    H3090
    0.3034206667837468    0.2074677032808208    0.2452306298473228    H3091
    0.3034206667837468    0.2074677032808208    0.5785639631806561    H3092
    0.3034206667837468    0.2074677032808208    0.9118972965139893    H3093
    0.3034206667837468    0.5408010366141540    0.2452306298473228    H3094
    0.3034206667837468    0.5408010366141540    0.5785639631806561    H3095
    0.3034206667837468    0.5408010366141540    0.9118972965139893    H3096
    0.6367540001170802    0.8741343699474875    0.2452306298473228    H3097
    0.6367540001170802    0.8741343699474875    0.5785639631806561    H3098
    0.6367540001170802    0.8741343699474875    0.9118972965139893    H3099
    0.6367540001170802    0.2074677032808208    0.2452306298473228    H3100
    0.6367540001170802    0.2074677032808208    0.5785639631806561    H3101
    0.6367540001170802    0.2074677032808208    0.9118972965139893    H3102
    0.6367540001170802    0.5408010366141540    0.2452306298473228    H3103
    0.6367540001170802    0.5408010366141540    0.5785639631806561    H3104
    0.6367540001170802    0.5408010366141540    0.9118972965139893    H3105
    0.8456402573682107    0.9653471835393355    0.2527744891440606    H3106
    0.8456402573682107    0.9653471835393355    0.5861078224773939    H3107
    0.8456402573682107    0.9653471835393355    0.9194411558107272    H3108
    0.8456402573682107    0.2986805168726687    0.2527744891440606    H3109
    0.8456402573682107    0.2986805168726687    0.5861078224773939    H3110
    0.8456402573682107    0.2986805168726687    0.9194411558107272    H3111
    0.8456402573682107    0.6320138502060022    0.2527744891440606    H3112
    0.8456402573682107    0.6320138502060022    0.5861078224773939    H3113
    0.8456402573682107    0.6320138502060022    0.9194411558107272    H3114
    0.1789735907015439    0.9653471835393355    0.2527744891440606    H3115
    0.1789735907015439    0.9653471835393355    0.5861078224773939    H3116
    0.1789735907015439    0.9653471835393355    0.9194411558107272    H3117
    0.1789735907015439    0.2986805168726687    0.2527744891440606    H3118
    0.1789735907015439    0.2986805168726687    0.5861078224773939    H3119
    0.1789735907015439    0.2986805168726687    0.9194411558107272    H3120
    0.1789735907015439    0.6320138502060022    0.2527744891440606    H3121
    0.1789735907015439    0.6320138502060022    0.5861078224773939    H3122
    0.1789735907015439    0.6320138502060022    0.9194411558107272    H3123
    0.5123069240348773    0.9653471835393355    0.2527744891440606    H3124
    0.5123069240348773    0.9653471835393355    0.5861078224773939    H3125
    0.5123069240348773    0.9653471835393355    0.9194411558107272    H3126
    0.5123069240348773    0.2986805168726687    0.2527744891440606    H3127
    0.5123069240348773    0.2986805168726687    0.5861078224773939    H3128
    0.5123069240348773    0.2986805168726687    0.9194411558107272    H3129
    0.5123069240348773    0.6320138502060022    0.2527744891440606    H3130
    0.5123069240348773    0.6320138502060022    0.5861078224773939    H3131
    0.5123069240348773    0.6320138502060022    0.9194411558107272    H3132
    0.8708864087087211    0.8961323859248012    0.2405336428221000    H3133
    0.8708864087087211    0.8961323859248012    0.5738669761554334    H3134
    0.8708864087087211    0.8961323859248012    0.9072003094887666    H3135
    0.8708864087087211    0.2294657192581344    0.2405336428221000    H3136
    0.8708864087087211    0.2294657192581344    0.5738669761554334    H3137
    0.8708864087087211    0.2294657192581344    0.9072003094887666    H3138
    0.8708864087087211    0.5627990525914678    0.2405336428221000    H3139
    0.8708864087087211    0.5627990525914678    0.5738669761554334    H3140
    0.8708864087087211    0.5627990525914678    0.9072003094887666    H3141
    0.2042197420420545    0.8961323859248012    0.2405336428221000    H3142
    0.2042197420420545    0.8961323859248012    0.5738669761554334    H3143
    0.2042197420420545    0.8961323859248012    0.9072003094887666    H3144
    0.2042197420420545    0.2294657192581344    0.2405336428221000    H3145
    0.2042197420420545    0.2294657192581344    0.5738669761554334    H3146
    0.2042197420420545    0.2294657192581344    0.9072003094887666    H3147
    0.2042197420420545    0.5627990525914678    0.2405336428221000    H3148
    0.2042197420420545    0.5627990525914678    0.5738669761554334    H3149
    0.2042197420420545    0.5627990525914678    0.9072003094887666    H3150
    0.5375530753753879    0.8961323859248012    0.2405336428221000    H3151
    0.5375530753753879    0.8961323859248012    0.5738669761554334    H3152
    0.5375530753753879    0.8961323859248012    0.9072003094887666    H3153
    0.5375530753753879    0.2294657192581344    0.2405336428221000    H3154
    0.5375530753753879    0.2294657192581344    0.5738669761554334    H3155
    0.5375530753753879    0.2294657192581344    0.9072003094887666    H3156
    0.5375530753753879    0.5627990525914678    0.2405336428221000    H3157
    0.5375530753753879    0.5627990525914678    0.5738669761554334    H3158
    0.5375530753753879    0.5627990525914678    0.9072003094887666    H3159
    0.9403735398654873    0.8361007780433054    0.0543763009135159    H3160
    0.9403735398654873    0.8361007780433054    0.3877096342468492    H3161
    0.9403735398654873    0.8361007780433054    0.7210429675801826    H3162
    0.9403735398654873    0.1694341113766387    0.0543763009135159    H3163
    0.9403735398654873    0.1694341113766387    0.3877096342468492    H3164
    0.9403735398654873    0.1694341113766387    0.7210429675801826    H3165
    0.9403735398654873    0.5027674447099719    0.0543763009135159    H3166
    0.9403735398654873    0.5027674447099719    0.3877096342468492    H3167
    0.9403735398654873    0.5027674447099719    0.7210429675801826    H3168
    0.2737068731988206    0.8361007780433054    0.0543763009135159    H3169
    0.2737068731988206    0.8361007780433054    0.3877096342468492    H3170
    0.2737068731988206    0.8361007780433054    0.7210429675801826    H3171
    0.2737068731988206    0.1694341113766387    0.0543763009135159    H3172
    0.2737068731988206    0.1694341113766387    0.3877096342468492    H3173
    0.2737068731988206    0.1694341113766387    0.7210429675801826    H3174
    0.2737068731988206    0.5027674447099719    0.0543763009135159    H3175
    0.2737068731988206    0.5027674447099719    0.3877096342468492    H3176
    0.2737068731988206    0.5027674447099719    0.7210429675801826    H3177
    0.6070402065321541    0.8361007780433054    0.0543763009135159    H3178
    0.6070402065321541    0.8361007780433054    0.3877096342468492    H3179
    0.6070402065321541    0.8361007780433054    0.7210429675801826    H3180
    0.6070402065321541    0.1694341113766387    0.0543763009135159    H3181
    0.6070402065321541    0.1694341113766387    0.3877096342468492    H3182
    0.6070402065321541    0.1694341113766387    0.7210429675801826    H3183
    0.6070402065321541    0.5027674447099719    0.0543763009135159    H3184
    0.6070402065321541    0.5027674447099719    0.3877096342468492    H3185
    0.6070402065321541    0.5027674447099719    0.7210429675801826    H3186
    0.9156020624751671    0.9658506528003841    0.2082610309274431    H3187
    0.9156020624751671    0.9658506528003841    0.5415943642607763    H3188
    0.9156020624751671    0.9658506528003841    0.8749276975941097    H3189
    0.9156020624751671    0.2991839861337173    0.2082610309274431    H3190
    0.9156020624751671    0.2991839861337173    0.5415943642607763    H3191
    0.9156020624751671    0.2991839861337173    0.8749276975941097    H3192
    0.9156020624751671    0.6325173194670506    0.2082610309274431    H3193
    0.9156020624751671    0.6325173194670506    0.5415943642607763    H3194
    0.9156020624751671    0.6325173194670506    0.8749276975941097    H3195
    0.2489353958085004    0.9658506528003841    0.2082610309274431    H3196
    0.2489353958085004    0.9658506528003841    0.5415943642607763    H3197
    0.2489353958085004    0.9658506528003841    0.8749276975941097    H3198
    0.2489353958085004    0.2991839861337173    0.2082610309274431    H3199
    0.2489353958085004    0.2991839861337173    0.5415943642607763    H3200
    0.2489353958085004    0.2991839861337173    0.8749276975941097    H3201
    0.2489353958085004    0.6325173194670506    0.2082610309274431    H3202
    0.2489353958085004    0.6325173194670506    0.5415943642607763    H3203
    0.2489353958085004    0.6325173194670506    0.8749276975941097    H3204
    0.5822687291418338    0.9658506528003841    0.2082610309274431    H3205
    0.5822687291418338    0.9658506528003841    0.5415943642607763    H3206
    0.5822687291418338    0.9658506528003841    0.8749276975941097    H3207
    0.5822687291418338    0.2991839861337173    0.2082610309274431    H3208
    0.5822687291418338    0.2991839861337173    0.5415943642607763    H3209
    0.5822687291418338    0.2991839861337173    0.8749276975941097    H3210
    0.5822687291418338    0.6325173194670506    0.2082610309274431    H3211
    0.5822687291418338    0.6325173194670506    0.5415943642607763    H3212
    0.5822687291418338    0.6325173194670506    0.8749276975941097    H3213
    0.9333664444414427    0.8745341910652022    0.9951054887708310    H3214
    0.9333664444414427    0.8745341910652022    0.3284388221041643    H3215
    0.9333664444414427    0.8745341910652022    0.6617721554374977    H3216
    0.9333664444414427    0.2078675243985355    0.9951054887708310    H3217
    0.9333664444414427    0.2078675243985355    0.3284388221041643    H3218
    0.9333664444414427    0.2078675243985355    0.6617721554374977    H3219
    0.9333664444414427    0.5412008577318688    0.9951054887708310    H3220
    0.9333664444414427    0.5412008577318688    0.3284388221041643    H3221
    0.9333664444414427    0.5412008577318688    0.6617721554374977    H3222
    0.2666997777747760    0.8745341910652022    0.9951054887708310    H3223
    0.2666997777747760    0.8745341910652022    0.3284388221041643    H3224
    0.2666997777747760    0.8745341910652022    0.6617721554374977    H3225
    0.2666997777747760    0.2078675243985355    0.9951054887708310    H3226
    0.2666997777747760    0.2078675243985355    0.3284388221041643    H3227
    0.2666997777747760    0.2078675243985355    0.6617721554374977    H3228
    0.2666997777747760    0.5412008577318688    0.9951054887708310    H3229
    0.2666997777747760    0.5412008577318688    0.3284388221041643    H3230
    0.2666997777747760    0.5412008577318688    0.6617721554374977    H3231
    0.6000331111081093    0.8745341910652022    0.9951054887708310    H3232
    0.6000331111081093    0.8745341910652022    0.3284388221041643    H3233
    0.6000331111081093    0.8745341910652022    0.6617721554374977    H3234
    0.6000331111081093    0.2078675243985355    0.9951054887708310    H3235
    0.6000331111081093    0.2078675243985355    0.3284388221041643    H3236
    0.6000331111081093    0.2078675243985355    0.6617721554374977    H3237
    0.6000331111081093    0.5412008577318688    0.9951054887708310    H3238
    0.6000331111081093    0.5412008577318688    0.3284388221041643    H3239
    0.6000331111081093    0.5412008577318688    0.6617721554374977    H3240
    0.9187362803668753    0.9689905042227833    0.2499169467462303    H3241
    0.9187362803668753    0.9689905042227833    0.5832502800795636    H3242
    0.9187362803668753    0.9689905042227833    0.9165836134128968    H3243
    0.9187362803668753    0.3023238375561166    0.2499169467462303    H3244
    0.9187362803668753    0.3023238375561166    0.5832502800795636    H3245
    0.9187362803668753    0.3023238375561166    0.9165836134128968    H3246
    0.9187362803668753    0.6356571708894498    0.2499169467462303    H3247
    0.9187362803668753    0.6356571708894498    0.5832502800795636    H3248
    0.9187362803668753    0.6356571708894498    0.9165836134128968    H3249
    0.2520696137002085    0.9689905042227833    0.2499169467462303    H3250
    0.2520696137002085    0.9689905042227833    0.5832502800795636    H3251
    0.2520696137002085    0.9689905042227833    0.9165836134128968    H3252
    0.2520696137002085    0.3023238375561166    0.2499169467462303    H3253
    0.2520696137002085    0.3023238375561166    0.5832502800795636    H3254
    0.2520696137002085    0.3023238375561166    0.9165836134128968    H3255
    0.2520696137002085    0.6356571708894498    0.2499169467462303    H3256
    0.2520696137002085    0.6356571708894498    0.5832502800795636    H3257
    0.2520696137002085    0.6356571708894498    0.9165836134128968    H3258
    0.5854029470335418    0.9689905042227833    0.2499169467462303    H3259
    0.5854029470335418    0.9689905042227833    0.5832502800795636    H3260
    0.5854029470335418    0.9689905042227833    0.9165836134128968    H3261
    0.5854029470335418    0.3023238375561166    0.2499169467462303    H3262
    0.5854029470335418    0.3023238375561166    0.5832502800795636    H3263
    0.5854029470335418    0.3023238375561166    0.9165836134128968    H3264
    0.5854029470335418    0.6356571708894498    0.2499169467462303    H3265
    0.5854029470335418    0.6356571708894498    0.5832502800795636    H3266
    0.5854029470335418    0.6356571708894498    0.9165836134128968    H3267
    0.0849627379981597    0.8137449799781664    0.4350835367336560    H3268
    0.0849627379981597    0.8137449799781664    0.7684168700669893    H3269
    0.0849627379981597    0.8137449799781664    0.1017502034003226    H3270
    0.0849627379981597    0.1470783133114998    0.4350835367336560    H3271
    0.0849627379981597    0.1470783133114998    0.7684168700669893    H3272
    0.0849627379981597    0.1470783133114998    0.1017502034003226    H3273
    0.0849627379981597    0.4804116466448332    0.4350835367336560    H3274
    0.0849627379981597    0.4804116466448332    0.7684168700669893    H3275
    0.0849627379981597    0.4804116466448332    0.1017502034003226    H3276
    0.4182960713314930    0.8137449799781664    0.4350835367336560    H3277
    0.4182960713314930    0.8137449799781664    0.7684168700669893    H3278
    0.4182960713314930    0.8137449799781664    0.1017502034003226    H3279
    0.4182960713314930    0.1470783133114998    0.4350835367336560    H3280
    0.4182960713314930    0.1470783133114998    0.7684168700669893    H3281
    0.4182960713314930    0.1470783133114998    0.1017502034003226    H3282
    0.4182960713314930    0.4804116466448332    0.4350835367336560    H3283
    0.4182960713314930    0.4804116466448332    0.7684168700669893    H3284
    0.4182960713314930    0.4804116466448332    0.1017502034003226    H3285
    0.7516294046648264    0.8137449799781664    0.4350835367336560    H3286
    0.7516294046648264    0.8137449799781664    0.7684168700669893    H3287
    0.7516294046648264    0.8137449799781664    0.1017502034003226    H3288
    0.7516294046648264    0.1470783133114998    0.4350835367336560    H3289
    0.7516294046648264    0.1470783133114998    0.7684168700669893    H3290
    0.7516294046648264    0.1470783133114998    0.1017502034003226    H3291
    0.7516294046648264    0.4804116466448332    0.4350835367336560    H3292
    0.7516294046648264    0.4804116466448332    0.7684168700669893    H3293
    0.7516294046648264    0.4804116466448332    0.1017502034003226    H3294
    0.1140281662923699    0.6680118285674514    0.2829620251551640    H3295
    0.1140281662923699    0.6680118285674514    0.6162953584884974    H3296
    0.1140281662923699    0.6680118285674514    0.9496286918218306    H3297
    0.1140281662923699    0.0013451619007848    0.2829620251551640    H3298
    0.1140281662923699    0.0013451619007848    0.6162953584884974    H3299
    0.1140281662923699    0.0013451619007848    0.9496286918218306    H3300
    0.1140281662923699    0.3346784952341182    0.2829620251551640    H3301
    0.1140281662923699    0.3346784952341182    0.6162953584884974    H3302
    0.1140281662923699    0.3346784952341182    0.9496286918218306    H3303
    0.4473614996257033    0.6680118285674514    0.2829620251551640    H3304
    0.4473614996257033    0.6680118285674514    0.6162953584884974    H3305
    0.4473614996257033    0.6680118285674514    0.9496286918218306    H3306
    0.4473614996257033    0.0013451619007848    0.2829620251551640    H3307
    0.4473614996257033    0.0013451619007848    0.6162953584884974    H3308
    0.4473614996257033    0.0013451619007848    0.9496286918218306    H3309
    0.4473614996257033    0.3346784952341182    0.2829620251551640    H3310
    0.4473614996257033    0.3346784952341182    0.6162953584884974    H3311
    0.4473614996257033    0.3346784952341182    0.9496286918218306    H3312
    0.7806948329590366    0.6680118285674514    0.2829620251551640    H3313
    0.7806948329590366    0.6680118285674514    0.6162953584884974    H3314
    0.7806948329590366    0.6680118285674514    0.9496286918218306    H3315
    0.7806948329590366    0.0013451619007848    0.2829620251551640    H3316
    0.7806948329590366    0.0013451619007848    0.6162953584884974    H3317
    0.7806948329590366    0.0013451619007848    0.9496286918218306    H3318
    0.7806948329590366    0.3346784952341182    0.2829620251551640    H3319
    0.7806948329590366    0.3346784952341182    0.6162953584884974    H3320
    0.7806948329590366    0.3346784952341182    0.9496286918218306    H3321
    0.9191050422934159    0.9033458667098602    0.5431536544648085    H3322
    0.9191050422934159    0.9033458667098602    0.8764869877981417    H3323
    0.9191050422934159    0.9033458667098602    0.2098203211314751    H3324
    0.9191050422934159    0.2366792000431935    0.5431536544648085    H3325
    0.9191050422934159    0.2366792000431935    0.8764869877981417    H3326
    0.9191050422934159    0.2366792000431935    0.2098203211314751    H3327
    0.9191050422934159    0.5700125333765268    0.5431536544648085    H3328
    0.9191050422934159    0.5700125333765268    0.8764869877981417    H3329
    0.9191050422934159    0.5700125333765268    0.2098203211314751    H3330
    0.2524383756267493    0.9033458667098602    0.5431536544648085    H3331
    0.2524383756267493    0.9033458667098602    0.8764869877981417    H3332
    0.2524383756267493    0.9033458667098602    0.2098203211314751    H3333
    0.2524383756267493    0.2366792000431935    0.5431536544648085    H3334
    0.2524383756267493    0.2366792000431935    0.8764869877981417    H3335
    0.2524383756267493    0.2366792000431935    0.2098203211314751    H3336
    0.2524383756267493    0.5700125333765268    0.5431536544648085    H3337
    0.2524383756267493    0.5700125333765268    0.8764869877981417    H3338
    0.2524383756267493    0.5700125333765268    0.2098203211314751    H3339
    0.5857717089600827    0.9033458667098602    0.5431536544648085    H3340
    0.5857717089600827    0.9033458667098602    0.8764869877981417    H3341
    0.5857717089600827    0.9033458667098602    0.2098203211314751    H3342
    0.5857717089600827    0.2366792000431935    0.5431536544648085    H3343
    0.5857717089600827    0.2366792000431935    0.8764869877981417    H3344
    0.5857717089600827    0.2366792000431935    0.2098203211314751    H3345
    0.5857717089600827    0.5700125333765268    0.5431536544648085    H3346
    0.5857717089600827    0.5700125333765268    0.8764869877981417    H3347
    0.5857717089600827    0.5700125333765268    0.2098203211314751    H3348
    0.9428858833462674    0.1077372354724891    0.4399951437273758    H3349
    0.9428858833462674    0.1077372354724891    0.7733284770607092    H3350
    0.9428858833462674    0.1077372354724891    0.1066618103940424    H3351
    0.9428858833462674    0.4410705688058225    0.4399951437273758    H3352
    0.9428858833462674    0.4410705688058225    0.7733284770607092    H3353
    0.9428858833462674    0.4410705688058225    0.1066618103940424    H3354
    0.9428858833462674    0.7744039021391558    0.4399951437273758    H3355
    0.9428858833462674    0.7744039021391558    0.7733284770607092    H3356
    0.9428858833462674    0.7744039021391558    0.1066618103940424    H3357
    0.2762192166796007    0.1077372354724891    0.4399951437273758    H3358
    0.2762192166796007    0.1077372354724891    0.7733284770607092    H3359
    0.2762192166796007    0.1077372354724891    0.1066618103940424    H3360
    0.2762192166796007    0.4410705688058225    0.4399951437273758    H3361
    0.2762192166796007    0.4410705688058225    0.7733284770607092    H3362
    0.2762192166796007    0.4410705688058225    0.1066618103940424    H3363
    0.2762192166796007    0.7744039021391558    0.4399951437273758    H3364
    0.2762192166796007    0.7744039021391558    0.7733284770607092    H3365
    0.2762192166796007    0.7744039021391558    0.1066618103940424    H3366
    0.6095525500129341    0.1077372354724891    0.4399951437273758    H3367
    0.6095525500129341    0.1077372354724891    0.7733284770607092    H3368
    0.6095525500129341    0.1077372354724891    0.1066618103940424    H3369
    0.6095525500129341    0.4410705688058225    0.4399951437273758    H3370
    0.6095525500129341    0.4410705688058225    0.7733284770607092    H3371
    0.6095525500129341    0.4410705688058225    0.1066618103940424    H3372
    0.6095525500129341    0.7744039021391558    0.4399951437273758    H3373
    0.6095525500129341    0.7744039021391558    0.7733284770607092    H3374
    0.6095525500129341    0.7744039021391558    0.1066618103940424    H3375
    0.0125086993188587    0.1314640342021520    0.2729460826818233    H3376
    0.0125086993188587    0.1314640342021520    0.6062794160151567    H3377
    0.0125086993188587    0.1314640342021520    0.9396127493484899    H3378
    0.0125086993188587    0.4647973675354853    0.2729460826818233    H3379
    0.0125086993188587    0.4647973675354853    0.6062794160151567    H3380
    0.0125086993188587    0.4647973675354853    0.9396127493484899    H3381
    0.0125086993188587    0.7981307008688187    0.2729460826818233    H3382
    0.0125086993188587    0.7981307008688187    0.6062794160151567    H3383
    0.0125086993188587    0.7981307008688187    0.9396127493484899    H3384
    0.3458420326521920    0.1314640342021520    0.2729460826818233    H3385
    0.3458420326521920    0.1314640342021520    0.6062794160151567    H3386
    0.3458420326521920    0.1314640342021520    0.9396127493484899    H3387
    0.3458420326521920    0.4647973675354853    0.2729460826818233    H3388
    0.3458420326521920    0.4647973675354853    0.6062794160151567    H3389
    0.3458420326521920    0.4647973675354853    0.9396127493484899    H3390
    0.3458420326521920    0.7981307008688187    0.2729460826818233    H3391
    0.3458420326521920    0.7981307008688187    0.6062794160151567    H3392
    0.3458420326521920    0.7981307008688187    0.9396127493484899    H3393
    0.6791753659855253    0.1314640342021520    0.2729460826818233    H3394
    0.6791753659855253    0.1314640342021520    0.6062794160151567    H3395
    0.6791753659855253    0.1314640342021520    0.9396127493484899    H3396
    0.6791753659855253    0.4647973675354853    0.2729460826818233    H3397
    0.6791753659855253    0.4647973675354853    0.6062794160151567    H3398
    0.6791753659855253    0.4647973675354853    0.9396127493484899    H3399
    0.6791753659855253    0.7981307008688187    0.2729460826818233    H3400
    0.6791753659855253    0.7981307008688187    0.6062794160151567    H3401
    0.6791753659855253    0.7981307008688187    0.9396127493484899    H3402
    0.9708932969592574    0.0474028603409944    0.2120741242327412    H3403
    0.9708932969592574    0.0474028603409944    0.5454074575660744    H3404
    0.9708932969592574    0.0474028603409944    0.8787407908994077    H3405
    0.9708932969592574    0.3807361936743279    0.2120741242327412    H3406
    0.9708932969592574    0.3807361936743279    0.5454074575660744    H3407
    0.9708932969592574    0.3807361936743279    0.8787407908994077    H3408
    0.9708932969592574    0.7140695270076611    0.2120741242327412    H3409
    0.9708932969592574    0.7140695270076611    0.5454074575660744    H3410
    0.9708932969592574    0.7140695270076611    0.8787407908994077    H3411
    0.3042266302925907    0.0474028603409944    0.2120741242327412    H3412
    0.3042266302925907    0.0474028603409944    0.5454074575660744    H3413
    0.3042266302925907    0.0474028603409944    0.8787407908994077    H3414
    0.3042266302925907    0.3807361936743279    0.2120741242327412    H3415
    0.3042266302925907    0.3807361936743279    0.5454074575660744    H3416
    0.3042266302925907    0.3807361936743279    0.8787407908994077    H3417
    0.3042266302925907    0.7140695270076611    0.2120741242327412    H3418
    0.3042266302925907    0.7140695270076611    0.5454074575660744    H3419
    0.3042266302925907    0.7140695270076611    0.8787407908994077    H3420
    0.6375599636259239    0.0474028603409944    0.2120741242327412    H3421
    0.6375599636259239    0.0474028603409944    0.5454074575660744    H3422
    0.6375599636259239    0.0474028603409944    0.8787407908994077    H3423
    0.6375599636259239    0.3807361936743279    0.2120741242327412    H3424
    0.6375599636259239    0.3807361936743279    0.5454074575660744    H3425
    0.6375599636259239    0.3807361936743279    0.8787407908994077    H3426
    0.6375599636259239    0.7140695270076611    0.2120741242327412    H3427
    0.6375599636259239    0.7140695270076611    0.5454074575660744    H3428
    0.6375599636259239    0.7140695270076611    0.8787407908994077    H3429
    0.8883125928196363    0.0743556433559769    0.1569232840532779    H3430
    0.8883125928196363    0.0743556433559769    0.4902566173866112    H3431
    0.8883125928196363    0.0743556433559769    0.8235899507199446    H3432
    0.8883125928196363    0.4076889766893101    0.1569232840532779    H3433
    0.8883125928196363    0.4076889766893101    0.4902566173866112    H3434
    0.8883125928196363    0.4076889766893101    0.8235899507199446    H3435
    0.8883125928196363    0.7410223100226435    0.1569232840532779    H3436
    0.8883125928196363    0.7410223100226435    0.4902566173866112    H3437
    0.8883125928196363    0.7410223100226435    0.8235899507199446    H3438
    0.2216459261529695    0.0743556433559769    0.1569232840532779    H3439
    0.2216459261529695    0.0743556433559769    0.4902566173866112    H3440
    0.2216459261529695    0.0743556433559769    0.8235899507199446    H3441
    0.2216459261529695    0.4076889766893101    0.1569232840532779    H3442
    0.2216459261529695    0.4076889766893101    0.4902566173866112    H3443
    0.2216459261529695    0.4076889766893101    0.8235899507199446    H3444
    0.2216459261529695    0.7410223100226435    0.1569232840532779    H3445
    0.2216459261529695    0.7410223100226435    0.4902566173866112    H3446
    0.2216459261529695    0.7410223100226435    0.8235899507199446    H3447
    0.5549792594863029    0.0743556433559769    0.1569232840532779    H3448
    0.5549792594863029    0.0743556433559769    0.4902566173866112    H3449
    0.5549792594863029    0.0743556433559769    0.8235899507199446    H3450
    0.5549792594863029    0.4076889766893101    0.1569232840532779    H3451
    0.5549792594863029    0.4076889766893101    0.4902566173866112    H3452
    0.5549792594863029    0.4076889766893101    0.8235899507199446    H3453
    0.5549792594863029    0.7410223100226435    0.1569232840532779    H3454
    0.5549792594863029    0.7410223100226435    0.4902566173866112    H3455
    0.5549792594863029    0.7410223100226435    0.8235899507199446    H3456
    0.8498710997941732    0.1874783350904865    0.2081219535017252    H3457
    0.8498710997941732    0.1874783350904865    0.5414552868350586    H3458
    0.8498710997941732    0.1874783350904865    0.8747886201683919    H3459
    0.8498710997941732    0.5208116684238200    0.2081219535017252    H3460
    0.8498710997941732    0.5208116684238200    0.5414552868350586    H3461
    0.8498710997941732    0.5208116684238200    0.8747886201683919    H3462
    0.8498710997941732    0.8541450017571532    0.2081219535017252    H3463
    0.8498710997941732    0.8541450017571532    0.5414552868350586    H3464
    0.8498710997941732    0.8541450017571532    0.8747886201683919    H3465
    0.1832044331275064    0.1874783350904865    0.2081219535017252    H3466
    0.1832044331275064    0.1874783350904865    0.5414552868350586    H3467
    0.1832044331275064    0.1874783350904865    0.8747886201683919    H3468
    0.1832044331275064    0.5208116684238200    0.2081219535017252    H3469
    0.1832044331275064    0.5208116684238200    0.5414552868350586    H3470
    0.1832044331275064    0.5208116684238200    0.8747886201683919    H3471
    0.1832044331275064    0.8541450017571532    0.2081219535017252    H3472
    0.1832044331275064    0.8541450017571532    0.5414552868350586    H3473
    0.1832044331275064    0.8541450017571532    0.8747886201683919    H3474
    0.5165377664608397    0.1874783350904865    0.2081219535017252    H3475
    0.5165377664608397    0.1874783350904865    0.5414552868350586    H3476
    0.5165377664608397    0.1874783350904865    0.8747886201683919    H3477
    0.5165377664608397    0.5208116684238200    0.2081219535017252    H3478
    0.5165377664608397    0.5208116684238200    0.5414552868350586    H3479
    0.5165377664608397    0.5208116684238200    0.8747886201683919    H3480
    0.5165377664608397    0.8541450017571532    0.2081219535017252    H3481
    0.5165377664608397    0.8541450017571532    0.5414552868350586    H3482
    0.5165377664608397    0.8541450017571532    0.8747886201683919    H3483
    0.8235540990024970    0.0395379420130605    0.2013073764248898    H3484
    0.8235540990024970    0.0395379420130605    0.5346407097582232    H3485
    0.8235540990024970    0.0395379420130605    0.8679740430915565    H3486
    0.8235540990024970    0.3728712753463939    0.2013073764248898    H3487
    0.8235540990024970    0.3728712753463939    0.5346407097582232    H3488
    0.8235540990024970    0.3728712753463939    0.8679740430915565    H3489
    0.8235540990024970    0.7062046086797271    0.2013073764248898    H3490
    0.8235540990024970    0.7062046086797271    0.5346407097582232    H3491
    0.8235540990024970    0.7062046086797271    0.8679740430915565    H3492
    0.1568874323358304    0.0395379420130605    0.2013073764248898    H3493
    0.1568874323358304    0.0395379420130605    0.5346407097582232    H3494
    0.1568874323358304    0.0395379420130605    0.8679740430915565    H3495
    0.1568874323358304    0.3728712753463939    0.2013073764248898    H3496
    0.1568874323358304    0.3728712753463939    0.5346407097582232    H3497
    0.1568874323358304    0.3728712753463939    0.8679740430915565    H3498
    0.1568874323358304    0.7062046086797271    0.2013073764248898    H3499
    0.1568874323358304    0.7062046086797271    0.5346407097582232    H3500
    0.1568874323358304    0.7062046086797271    0.8679740430915565    H3501
    0.4902207656691637    0.0395379420130605    0.2013073764248898    H3502
    0.4902207656691637    0.0395379420130605    0.5346407097582232    H3503
    0.4902207656691637    0.0395379420130605    0.8679740430915565    H3504
    0.4902207656691637    0.3728712753463939    0.2013073764248898    H3505
    0.4902207656691637    0.3728712753463939    0.5346407097582232    H3506
    0.4902207656691637    0.3728712753463939    0.8679740430915565    H3507
    0.4902207656691637    0.7062046086797271    0.2013073764248898    H3508
    0.4902207656691637    0.7062046086797271    0.5346407097582232    H3509
    0.4902207656691637    0.7062046086797271    0.8679740430915565    H3510
    0.0143179720990106    0.0920161831256457    0.1440730539227582    H3511
    0.0143179720990106    0.0920161831256457    0.4774063872560915    H3512
    0.0143179720990106    0.0920161831256457    0.8107397205894249    H3513
    0.0143179720990106    0.4253495164589791    0.1440730539227582    H3514
    0.0143179720990106    0.4253495164589791    0.4774063872560915    H3515
    0.0143179720990106    0.4253495164589791    0.8107397205894249    H3516
    0.0143179720990106    0.7586828497923124    0.1440730539227582    H3517
    0.0143179720990106    0.7586828497923124    0.4774063872560915    H3518
    0.0143179720990106    0.7586828497923124    0.8107397205894249    H3519
    0.3476513054323439    0.0920161831256457    0.1440730539227582    H3520
    0.3476513054323439    0.0920161831256457    0.4774063872560915    H3521
    0.3476513054323439    0.0920161831256457    0.8107397205894249    H3522
    0.3476513054323439    0.4253495164589791    0.1440730539227582    H3523
    0.3476513054323439    0.4253495164589791    0.4774063872560915    H3524
    0.3476513054323439    0.4253495164589791    0.8107397205894249    H3525
    0.3476513054323439    0.7586828497923124    0.1440730539227582    H3526
    0.3476513054323439    0.7586828497923124    0.4774063872560915    H3527
    0.3476513054323439    0.7586828497923124    0.8107397205894249    H3528
    0.6809846387656773    0.0920161831256457    0.1440730539227582    H3529
    0.6809846387656773    0.0920161831256457    0.4774063872560915    H3530
    0.6809846387656773    0.0920161831256457    0.8107397205894249    H3531
    0.6809846387656773    0.4253495164589791    0.1440730539227582    H3532
    0.6809846387656773    0.4253495164589791    0.4774063872560915    H3533
    0.6809846387656773    0.4253495164589791    0.8107397205894249    H3534
    0.6809846387656773    0.7586828497923124    0.1440730539227582    H3535
    0.6809846387656773    0.7586828497923124    0.4774063872560915    H3536
    0.6809846387656773    0.7586828497923124    0.8107397205894249    H3537
    0.0947842378511287    0.0738862189386248    0.1463171961192016    H3538
    0.0947842378511287    0.0738862189386248    0.4796505294525349    H3539
    0.0947842378511287    0.0738862189386248    0.8129838627858683    H3540
    0.0947842378511287    0.4072195522719582    0.1463171961192016    H3541
    0.0947842378511287    0.4072195522719582    0.4796505294525349    H3542
    0.0947842378511287    0.4072195522719582    0.8129838627858683    H3543
    0.0947842378511287    0.7405528856052914    0.1463171961192016    H3544
    0.0947842378511287    0.7405528856052914    0.4796505294525349    H3545
    0.0947842378511287    0.7405528856052914    0.8129838627858683    H3546
    0.4281175711844620    0.0738862189386248    0.1463171961192016    H3547
    0.4281175711844620    0.0738862189386248    0.4796505294525349    H3548
    0.4281175711844620    0.0738862189386248    0.8129838627858683    H3549
    0.4281175711844620    0.4072195522719582    0.1463171961192016    H3550
    0.4281175711844620    0.4072195522719582    0.4796505294525349    H3551
    0.4281175711844620    0.4072195522719582    0.8129838627858683    H3552
    0.4281175711844620    0.7405528856052914    0.1463171961192016    H3553
    0.4281175711844620    0.7405528856052914    0.4796505294525349    H3554
    0.4281175711844620    0.7405528856052914    0.8129838627858683    H3555
    0.7614509045177953    0.0738862189386248    0.1463171961192016    H3556
    0.7614509045177953    0.0738862189386248    0.4796505294525349    H3557
    0.7614509045177953    0.0738862189386248    0.8129838627858683    H3558
    0.7614509045177953    0.4072195522719582    0.1463171961192016    H3559
    0.7614509045177953    0.4072195522719582    0.4796505294525349    H3560
    0.7614509045177953    0.4072195522719582    0.8129838627858683    H3561
    0.7614509045177953    0.7405528856052914    0.1463171961192016    H3562
    0.7614509045177953    0.7405528856052914    0.4796505294525349    H3563
    0.7614509045177953    0.7405528856052914    0.8129838627858683    H3564
    0.0388012709069672    0.0639870722081046    0.1325479799040481    H3565
    0.0388012709069672    0.0639870722081046    0.4658813132373814    H3566
    0.0388012709069672    0.0639870722081046    0.7992146465707147    H3567
    0.0388012709069672    0.3973204055414379    0.1325479799040481    H3568
    0.0388012709069672    0.3973204055414379    0.4658813132373814    H3569
    0.0388012709069672    0.3973204055414379    0.7992146465707147    H3570
    0.0388012709069672    0.7306537388747713    0.1325479799040481    H3571
    0.0388012709069672    0.7306537388747713    0.4658813132373814    H3572
    0.0388012709069672    0.7306537388747713    0.7992146465707147    H3573
    0.3721346042403004    0.0639870722081046    0.1325479799040481    H3574
    0.3721346042403004    0.0639870722081046    0.4658813132373814    H3575
    0.3721346042403004    0.0639870722081046    0.7992146465707147    H3576
    0.3721346042403004    0.3973204055414379    0.1325479799040481    H3577
    0.3721346042403004    0.3973204055414379    0.4658813132373814    H3578
    0.3721346042403004    0.3973204055414379    0.7992146465707147    H3579
    0.3721346042403004    0.7306537388747713    0.1325479799040481    H3580
    0.3721346042403004    0.7306537388747713    0.4658813132373814    H3581
    0.3721346042403004    0.7306537388747713    0.7992146465707147    H3582
    0.7054679375736337    0.0639870722081046    0.1325479799040481    H3583
    0.7054679375736337    0.0639870722081046    0.4658813132373814    H3584
    0.7054679375736337    0.0639870722081046    0.7992146465707147    H3585
    0.7054679375736337    0.3973204055414379    0.1325479799040481    H3586
    0.7054679375736337    0.3973204055414379    0.4658813132373814    H3587
    0.7054679375736337    0.3973204055414379    0.7992146465707147    H3588
    0.7054679375736337    0.7306537388747713    0.1325479799040481    H3589
    0.7054679375736337    0.7306537388747713    0.4658813132373814    H3590
    0.7054679375736337    0.7306537388747713    0.7992146465707147    H3591
    0.9743299466797013    0.9960471315789616    0.1689350699658028    H3592
    0.9743299466797013    0.9960471315789616    0.5022684032991361    H3593
    0.9743299466797013    0.9960471315789616    0.8356017366324694    H3594
    0.9743299466797013    0.3293804649122949    0.1689350699658028    H3595
    0.9743299466797013    0.3293804649122949    0.5022684032991361    H3596
    0.9743299466797013    0.3293804649122949    0.8356017366324694    H3597
    0.9743299466797013    0.6627137982456284    0.1689350699658028    H3598
    0.9743299466797013    0.6627137982456284    0.5022684032991361    H3599
    0.9743299466797013    0.6627137982456284    0.8356017366324694    H3600
    0.3076632800130347    0.9960471315789616    0.1689350699658028    H3601
    0.3076632800130347    0.9960471315789616    0.5022684032991361    H3602
    0.3076632800130347    0.9960471315789616    0.8356017366324694    H3603
    0.3076632800130347    0.3293804649122949    0.1689350699658028    H3604
    0.3076632800130347    0.3293804649122949    0.5022684032991361    H3605
    0.3076632800130347    0.3293804649122949    0.8356017366324694    H3606
    0.3076632800130347    0.6627137982456284    0.1689350699658028    H3607
    0.3076632800130347    0.6627137982456284    0.5022684032991361    H3608
    0.3076632800130347    0.6627137982456284    0.8356017366324694    H3609
    0.6409966133463680    0.9960471315789616    0.1689350699658028    H3610
    0.6409966133463680    0.9960471315789616    0.5022684032991361    H3611
    0.6409966133463680    0.9960471315789616    0.8356017366324694    H3612
    0.6409966133463680    0.3293804649122949    0.1689350699658028    H3613
    0.6409966133463680    0.3293804649122949    0.5022684032991361    H3614
    0.6409966133463680    0.3293804649122949    0.8356017366324694    H3615
    0.6409966133463680    0.6627137982456284    0.1689350699658028    H3616
    0.6409966133463680    0.6627137982456284    0.5022684032991361    H3617
    0.6409966133463680    0.6627137982456284    0.8356017366324694    H3618
    0.9353188026966279    0.0962051184732455    0.4883418393804208    H3619
    0.9353188026966279    0.0962051184732455    0.8216751727137541    H3620
    0.9353188026966279    0.0962051184732455    0.1550085060470874    H3621
    0.9353188026966279    0.4295384518065788    0.4883418393804208    H3622
    0.9353188026966279    0.4295384518065788    0.8216751727137541    H3623
    0.9353188026966279    0.4295384518065788    0.1550085060470874    H3624
    0.9353188026966279    0.7628717851399121    0.4883418393804208    H3625
    0.9353188026966279    0.7628717851399121    0.8216751727137541    H3626
    0.9353188026966279    0.7628717851399121    0.1550085060470874    H3627
    0.2686521360299613    0.0962051184732455    0.4883418393804208    H3628
    0.2686521360299613    0.0962051184732455    0.8216751727137541    H3629
    0.2686521360299613    0.0962051184732455    0.1550085060470874    H3630
    0.2686521360299613    0.4295384518065788    0.4883418393804208    H3631
    0.2686521360299613    0.4295384518065788    0.8216751727137541    H3632
    0.2686521360299613    0.4295384518065788    0.1550085060470874    H3633
    0.2686521360299613    0.7628717851399121    0.4883418393804208    H3634
    0.2686521360299613    0.7628717851399121    0.8216751727137541    H3635
    0.2686521360299613    0.7628717851399121    0.1550085060470874    H3636
    0.6019854693632947    0.0962051184732455    0.4883418393804208    H3637
    0.6019854693632947    0.0962051184732455    0.8216751727137541    H3638
    0.6019854693632947    0.0962051184732455    0.1550085060470874    H3639
    0.6019854693632947    0.4295384518065788    0.4883418393804208    H3640
    0.6019854693632947    0.4295384518065788    0.8216751727137541    H3641
    0.6019854693632947    0.4295384518065788    0.1550085060470874    H3642
    0.6019854693632947    0.7628717851399121    0.4883418393804208    H3643
    0.6019854693632947    0.7628717851399121    0.8216751727137541    H3644
    0.6019854693632947    0.7628717851399121    0.1550085060470874    H3645
    0.1089108521493625    0.0693853043075912    0.1962276501762072    H3646
    0.1089108521493625    0.0693853043075912    0.5295609835095405    H3647
    0.1089108521493625    0.0693853043075912    0.8628943168428738    H3648
    0.1089108521493625    0.4027186376409246    0.1962276501762072    H3649
    0.1089108521493625    0.4027186376409246    0.5295609835095405    H3650
    0.1089108521493625    0.4027186376409246    0.8628943168428738    H3651
    0.1089108521493625    0.7360519709742579    0.1962276501762072    H3652
    0.1089108521493625    0.7360519709742579    0.5295609835095405    H3653
    0.1089108521493625    0.7360519709742579    0.8628943168428738    H3654
    0.4422441854826958    0.0693853043075912    0.1962276501762072    H3655
    0.4422441854826958    0.0693853043075912    0.5295609835095405    H3656
    0.4422441854826958    0.0693853043075912    0.8628943168428738    H3657
    0.4422441854826958    0.4027186376409246    0.1962276501762072    H3658
    0.4422441854826958    0.4027186376409246    0.5295609835095405    H3659
    0.4422441854826958    0.4027186376409246    0.8628943168428738    H3660
    0.4422441854826958    0.7360519709742579    0.1962276501762072    H3661
    0.4422441854826958    0.7360519709742579    0.5295609835095405    H3662
    0.4422441854826958    0.7360519709742579    0.8628943168428738    H3663
    0.7755775188160291    0.0693853043075912    0.1962276501762072    H3664
    0.7755775188160291    0.0693853043075912    0.5295609835095405    H3665
    0.7755775188160291    0.0693853043075912    0.8628943168428738    H3666
    0.7755775188160291    0.4027186376409246    0.1962276501762072    H3667
    0.7755775188160291    0.4027186376409246    0.5295609835095405    H3668
    0.7755775188160291    0.4027186376409246    0.8628943168428738    H3669
    0.7755775188160291    0.7360519709742579    0.1962276501762072    H3670
    0.7755775188160291    0.7360519709742579    0.5295609835095405    H3671
    0.7755775188160291    0.7360519709742579    0.8628943168428738    H3672
    0.8272084299566758    0.9922075977913321    0.3397765769425065    H3673
    0.8272084299566758    0.9922075977913321    0.6731099102758399    H3674
    0.8272084299566758    0.9922075977913321    0.0064432436091732    H3675
    0.8272084299566758    0.3255409311246653    0.3397765769425065    H3676
    0.8272084299566758    0.3255409311246653    0.6731099102758399    H3677
    0.8272084299566758    0.3255409311246653    0.0064432436091732    H3678
    0.8272084299566758    0.6588742644579986    0.3397765769425065    H3679
    0.8272084299566758    0.6588742644579986    0.6731099102758399    H3680
    0.8272084299566758    0.6588742644579986    0.0064432436091732    H3681
    0.1605417632900091    0.9922075977913321    0.3397765769425065    H3682
    0.1605417632900091    0.9922075977913321    0.6731099102758399    H3683
    0.1605417632900091    0.9922075977913321    0.0064432436091732    H3684
    0.1605417632900091    0.3255409311246653    0.3397765769425065    H3685
    0.1605417632900091    0.3255409311246653    0.6731099102758399    H3686
    0.1605417632900091    0.3255409311246653    0.0064432436091732    H3687
    0.1605417632900091    0.6588742644579986    0.3397765769425065    H3688
    0.1605417632900091    0.6588742644579986    0.6731099102758399    H3689
    0.1605417632900091    0.6588742644579986    0.0064432436091732    H3690
    0.4938750966233425    0.9922075977913321    0.3397765769425065    H3691
    0.4938750966233425    0.9922075977913321    0.6731099102758399    H3692
    0.4938750966233425    0.9922075977913321    0.0064432436091732    H3693
    0.4938750966233425    0.3255409311246653    0.3397765769425065    H3694
    0.4938750966233425    0.3255409311246653    0.6731099102758399    H3695
    0.4938750966233425    0.3255409311246653    0.0064432436091732    H3696
    0.4938750966233425    0.6588742644579986    0.3397765769425065    H3697
    0.4938750966233425    0.6588742644579986    0.6731099102758399    H3698
    0.4938750966233425    0.6588742644579986    0.0064432436091732    H3699
    0.8859589485681068    0.0188338014247401    0.3350857581795980    H3700
    0.8859589485681068    0.0188338014247401    0.6684190915129313    H3701
    0.8859589485681068    0.0188338014247401    0.0017524248462646    H3702
    0.8859589485681068    0.3521671347580734    0.3350857581795980    H3703
    0.8859589485681068    0.3521671347580734    0.6684190915129313    H3704
    0.8859589485681068    0.3521671347580734    0.0017524248462646    H3705
    0.8859589485681068    0.6855004680914067    0.3350857581795980    H3706
    0.8859589485681068    0.6855004680914067    0.6684190915129313    H3707
    0.8859589485681068    0.6855004680914067    0.0017524248462646    H3708
    0.2192922819014400    0.0188338014247401    0.3350857581795980    H3709
    0.2192922819014400    0.0188338014247401    0.6684190915129313    H3710
    0.2192922819014400    0.0188338014247401    0.0017524248462646    H3711
    0.2192922819014400    0.3521671347580734    0.3350857581795980    H3712
    0.2192922819014400    0.3521671347580734    0.6684190915129313    H3713
    0.2192922819014400    0.3521671347580734    0.0017524248462646    H3714
    0.2192922819014400    0.6855004680914067    0.3350857581795980    H3715
    0.2192922819014400    0.6855004680914067    0.6684190915129313    H3716
    0.2192922819014400    0.6855004680914067    0.0017524248462646    H3717
    0.5526256152347734    0.0188338014247401    0.3350857581795980    H3718
    0.5526256152347734    0.0188338014247401    0.6684190915129313    H3719
    0.5526256152347734    0.0188338014247401    0.0017524248462646    H3720
    0.5526256152347734    0.3521671347580734    0.3350857581795980    H3721
    0.5526256152347734    0.3521671347580734    0.6684190915129313    H3722
    0.5526256152347734    0.3521671347580734    0.0017524248462646    H3723
    0.5526256152347734    0.6855004680914067    0.3350857581795980    H3724
    0.5526256152347734    0.6855004680914067    0.6684190915129313    H3725
    0.5526256152347734    0.6855004680914067    0.0017524248462646    H3726
    0.8702869462791409    0.0624194376449201    0.3310551131159140    H3727
    0.8702869462791409    0.0624194376449201    0.6643884464492473    H3728
    0.8702869462791409    0.0624194376449201    0.9977217797825806    H3729
    0.8702869462791409    0.3957527709782536    0.3310551131159140    H3730
    0.8702869462791409    0.3957527709782536    0.6643884464492473    H3731
    0.8702869462791409    0.3957527709782536    0.9977217797825806    H3732
    0.8702869462791409    0.7290861043115868    0.3310551131159140    H3733
    0.8702869462791409    0.7290861043115868    0.6643884464492473    H3734
    0.8702869462791409    0.7290861043115868    0.9977217797825806    H3735
    0.2036202796124743    0.0624194376449201    0.3310551131159140    H3736
    0.2036202796124743    0.0624194376449201    0.6643884464492473    H3737
    0.2036202796124743    0.0624194376449201    0.9977217797825806    H3738
    0.2036202796124743    0.3957527709782536    0.3310551131159140    H3739
    0.2036202796124743    0.3957527709782536    0.6643884464492473    H3740
    0.2036202796124743    0.3957527709782536    0.9977217797825806    H3741
    0.2036202796124743    0.7290861043115868    0.3310551131159140    H3742
    0.2036202796124743    0.7290861043115868    0.6643884464492473    H3743
    0.2036202796124743    0.7290861043115868    0.9977217797825806    H3744
    0.5369536129458077    0.0624194376449201    0.3310551131159140    H3745
    0.5369536129458077    0.0624194376449201    0.6643884464492473    H3746
    0.5369536129458077    0.0624194376449201    0.9977217797825806    H3747
    0.5369536129458077    0.3957527709782536    0.3310551131159140    H3748
    0.5369536129458077    0.3957527709782536    0.6643884464492473    H3749
    0.5369536129458077    0.3957527709782536    0.9977217797825806    H3750
    0.5369536129458077    0.7290861043115868    0.3310551131159140    H3751
    0.5369536129458077    0.7290861043115868    0.6643884464492473    H3752
    0.5369536129458077    0.7290861043115868    0.9977217797825806    H3753
    0.8596795088712494    0.9933530052594719    0.2940734924685707    H3754
    0.8596795088712494    0.9933530052594719    0.6274068258019041    H3755
    0.8596795088712494    0.9933530052594719    0.9607401591352374    H3756
    0.8596795088712494    0.3266863385928053    0.2940734924685707    H3757
    0.8596795088712494    0.3266863385928053    0.6274068258019041    H3758
    0.8596795088712494    0.3266863385928053    0.9607401591352374    H3759
    0.8596795088712494    0.6600196719261386    0.2940734924685707    H3760
    0.8596795088712494    0.6600196719261386    0.6274068258019041    H3761
    0.8596795088712494    0.6600196719261386    0.9607401591352374    H3762
    0.1930128422045827    0.9933530052594719    0.2940734924685707    H3763
    0.1930128422045827    0.9933530052594719    0.6274068258019041    H3764
    0.1930128422045827    0.9933530052594719    0.9607401591352374    H3765
    0.1930128422045827    0.3266863385928053    0.2940734924685707    H3766
    0.1930128422045827    0.3266863385928053    0.6274068258019041    H3767
    0.1930128422045827    0.3266863385928053    0.9607401591352374    H3768
    0.1930128422045827    0.6600196719261386    0.2940734924685707    H3769
    0.1930128422045827    0.6600196719261386    0.6274068258019041    H3770
    0.1930128422045827    0.6600196719261386    0.9607401591352374    H3771
    0.5263461755379160    0.9933530052594719    0.2940734924685707    H3772
    0.5263461755379160    0.9933530052594719    0.6274068258019041    H3773
    0.5263461755379160    0.9933530052594719    0.9607401591352374    H3774
    0.5263461755379160    0.3266863385928053    0.2940734924685707    H3775
    0.5263461755379160    0.3266863385928053    0.6274068258019041    H3776
    0.5263461755379160    0.3266863385928053    0.9607401591352374    H3777
    0.5263461755379160    0.6600196719261386    0.2940734924685707    H3778
    0.5263461755379160    0.6600196719261386    0.6274068258019041    H3779
    0.5263461755379160    0.6600196719261386    0.9607401591352374    H3780
    0.9991638428023326    0.2483955940992519    0.2642069997890560    H3781
    0.9991638428023326    0.2483955940992519    0.5975403331223894    H3782
    0.9991638428023326    0.2483955940992519    0.9308736664557227    H3783
    0.9991638428023326    0.5817289274325852    0.2642069997890560    H3784
    0.9991638428023326    0.5817289274325852    0.5975403331223894    H3785
    0.9991638428023326    0.5817289274325852    0.9308736664557227    H3786
    0.9991638428023326    0.9150622607659186    0.2642069997890560    H3787
    0.9991638428023326    0.9150622607659186    0.5975403331223894    H3788
    0.9991638428023326    0.9150622607659186    0.9308736664557227    H3789
    0.3324971761356659    0.2483955940992519    0.2642069997890560    H3790
    0.3324971761356659    0.2483955940992519    0.5975403331223894    H3791
    0.3324971761356659    0.2483955940992519    0.9308736664557227    H3792
    0.3324971761356659    0.5817289274325852    0.2642069997890560    H3793
    0.3324971761356659    0.5817289274325852    0.5975403331223894    H3794
    0.3324971761356659    0.5817289274325852    0.9308736664557227    H3795
    0.3324971761356659    0.9150622607659186    0.2642069997890560    H3796
    0.3324971761356659    0.9150622607659186    0.5975403331223894    H3797
    0.3324971761356659    0.9150622607659186    0.9308736664557227    H3798
    0.6658305094689991    0.2483955940992519    0.2642069997890560    H3799
    0.6658305094689991    0.2483955940992519    0.5975403331223894    H3800
    0.6658305094689991    0.2483955940992519    0.9308736664557227    H3801
    0.6658305094689991    0.5817289274325852    0.2642069997890560    H3802
    0.6658305094689991    0.5817289274325852    0.5975403331223894    H3803
    0.6658305094689991    0.5817289274325852    0.9308736664557227    H3804
    0.6658305094689991    0.9150622607659186    0.2642069997890560    H3805
    0.6658305094689991    0.9150622607659186    0.5975403331223894    H3806
    0.6658305094689991    0.9150622607659186    0.9308736664557227    H3807
    0.9893255460804788    0.1066245815621465    0.3182149033753653    H3808
    0.9893255460804788    0.1066245815621465    0.6515482367086985    H3809
    0.9893255460804788    0.1066245815621465    0.9848815700420318    H3810
    0.9893255460804788    0.4399579148954799    0.3182149033753653    H3811
    0.9893255460804788    0.4399579148954799    0.6515482367086985    H3812
    0.9893255460804788    0.4399579148954799    0.9848815700420318    H3813
    0.9893255460804788    0.7732912482288132    0.3182149033753653    H3814
    0.9893255460804788    0.7732912482288132    0.6515482367086985    H3815
    0.9893255460804788    0.7732912482288132    0.9848815700420318    H3816
    0.3226588794138121    0.1066245815621465    0.3182149033753653    H3817
    0.3226588794138121    0.1066245815621465    0.6515482367086985    H3818
    0.3226588794138121    0.1066245815621465    0.9848815700420318    H3819
    0.3226588794138121    0.4399579148954799    0.3182149033753653    H3820
    0.3226588794138121    0.4399579148954799    0.6515482367086985    H3821
    0.3226588794138121    0.4399579148954799    0.9848815700420318    H3822
    0.3226588794138121    0.7732912482288132    0.3182149033753653    H3823
    0.3226588794138121    0.7732912482288132    0.6515482367086985    H3824
    0.3226588794138121    0.7732912482288132    0.9848815700420318    H3825
    0.6559922127471455    0.1066245815621465    0.3182149033753653    H3826
    0.6559922127471455    0.1066245815621465    0.6515482367086985    H3827
    0.6559922127471455    0.1066245815621465    0.9848815700420318    H3828
    0.6559922127471455    0.4399579148954799    0.3182149033753653    H3829
    0.6559922127471455    0.4399579148954799    0.6515482367086985    H3830
    0.6559922127471455    0.4399579148954799    0.9848815700420318    H3831
    0.6559922127471455    0.7732912482288132    0.3182149033753653    H3832
    0.6559922127471455    0.7732912482288132    0.6515482367086985    H3833
    0.6559922127471455    0.7732912482288132    0.9848815700420318    H3834
    0.0609048716938245    0.2913686618179523    0.2609655679277563    H3835
    0.0609048716938245    0.2913686618179523    0.5942989012610895    H3836
    0.0609048716938245    0.2913686618179523    0.9276322345944229    H3837
    0.0609048716938245    0.6247019951512857    0.2609655679277563    H3838
    0.0609048716938245    0.6247019951512857    0.5942989012610895    H3839
    0.0609048716938245    0.6247019951512857    0.9276322345944229    H3840
    0.0609048716938245    0.9580353284846190    0.2609655679277563    H3841
    0.0609048716938245    0.9580353284846190    0.5942989012610895    H3842
    0.0609048716938245    0.9580353284846190    0.9276322345944229    H3843
    0.3942382050271580    0.2913686618179523    0.2609655679277563    H3844
    0.3942382050271580    0.2913686618179523    0.5942989012610895    H3845
    0.3942382050271580    0.2913686618179523    0.9276322345944229    H3846
    0.3942382050271580    0.6247019951512857    0.2609655679277563    H3847
    0.3942382050271580    0.6247019951512857    0.5942989012610895    H3848
    0.3942382050271580    0.6247019951512857    0.9276322345944229    H3849
    0.3942382050271580    0.9580353284846190    0.2609655679277563    H3850
    0.3942382050271580    0.9580353284846190    0.5942989012610895    H3851
    0.3942382050271580    0.9580353284846190    0.9276322345944229    H3852
    0.7275715383604913    0.2913686618179523    0.2609655679277563    H3853
    0.7275715383604913    0.2913686618179523    0.5942989012610895    H3854
    0.7275715383604913    0.2913686618179523    0.9276322345944229    H3855
    0.7275715383604913    0.6247019951512857    0.2609655679277563    H3856
    0.7275715383604913    0.6247019951512857    0.5942989012610895    H3857
    0.7275715383604913    0.6247019951512857    0.9276322345944229    H3858
    0.7275715383604913    0.9580353284846190    0.2609655679277563    H3859
    0.7275715383604913    0.9580353284846190    0.5942989012610895    H3860
    0.7275715383604913    0.9580353284846190    0.9276322345944229    H3861
    0.9447505391034636    0.0172834265903354    0.2861554084211024    H3862
    0.9447505391034636    0.0172834265903354    0.6194887417544357    H3863
    0.9447505391034636    0.0172834265903354    0.9528220750877691    H3864
    0.9447505391034636    0.3506167599236688    0.2861554084211024    H3865
    0.9447505391034636    0.3506167599236688    0.6194887417544357    H3866
    0.9447505391034636    0.3506167599236688    0.9528220750877691    H3867
    0.9447505391034636    0.6839500932570022    0.2861554084211024    H3868
    0.9447505391034636    0.6839500932570022    0.6194887417544357    H3869
    0.9447505391034636    0.6839500932570022    0.9528220750877691    H3870
    0.2780838724367970    0.0172834265903354    0.2861554084211024    H3871
    0.2780838724367970    0.0172834265903354    0.6194887417544357    H3872
    0.2780838724367970    0.0172834265903354    0.9528220750877691    H3873
    0.2780838724367970    0.3506167599236688    0.2861554084211024    H3874
    0.2780838724367970    0.3506167599236688    0.6194887417544357    H3875
    0.2780838724367970    0.3506167599236688    0.9528220750877691    H3876
    0.2780838724367970    0.6839500932570022    0.2861554084211024    H3877
    0.2780838724367970    0.6839500932570022    0.6194887417544357    H3878
    0.2780838724367970    0.6839500932570022    0.9528220750877691    H3879
    0.6114172057701304    0.0172834265903354    0.2861554084211024    H3880
    0.6114172057701304    0.0172834265903354    0.6194887417544357    H3881
    0.6114172057701304    0.0172834265903354    0.9528220750877691    H3882
    0.6114172057701304    0.3506167599236688    0.2861554084211024    H3883
    0.6114172057701304    0.3506167599236688    0.6194887417544357    H3884
    0.6114172057701304    0.3506167599236688    0.9528220750877691    H3885
    0.6114172057701304    0.6839500932570022    0.2861554084211024    H3886
    0.6114172057701304    0.6839500932570022    0.6194887417544357    H3887
    0.6114172057701304    0.6839500932570022    0.9528220750877691    H3888
    0.0387993857425359    0.2436907575646627    0.9285861328060840    H3889
    0.0387993857425359    0.2436907575646627    0.2619194661394174    H3890
    0.0387993857425359    0.2436907575646627    0.5952527994727508    H3891
    0.0387993857425359    0.5770240908979960    0.9285861328060840    H3892
    0.0387993857425359    0.5770240908979960    0.2619194661394174    H3893
    0.0387993857425359    0.5770240908979960    0.5952527994727508    H3894
    0.0387993857425359    0.9103574242313294    0.9285861328060840    H3895
    0.0387993857425359    0.9103574242313294    0.2619194661394174    H3896
    0.0387993857425359    0.9103574242313294    0.5952527994727508    H3897
    0.3721327190758692    0.2436907575646627    0.9285861328060840    H3898
    0.3721327190758692    0.2436907575646627    0.2619194661394174    H3899
    0.3721327190758692    0.2436907575646627    0.5952527994727508    H3900
    0.3721327190758692    0.5770240908979960    0.9285861328060840    H3901
    0.3721327190758692    0.5770240908979960    0.2619194661394174    H3902
    0.3721327190758692    0.5770240908979960    0.5952527994727508    H3903
    0.3721327190758692    0.9103574242313294    0.9285861328060840    H3904
    0.3721327190758692    0.9103574242313294    0.2619194661394174    H3905
    0.3721327190758692    0.9103574242313294    0.5952527994727508    H3906
    0.7054660524092026    0.2436907575646627    0.9285861328060840    H3907
    0.7054660524092026    0.2436907575646627    0.2619194661394174    H3908
    0.7054660524092026    0.2436907575646627    0.5952527994727508    H3909
    0.7054660524092026    0.5770240908979960    0.9285861328060840    H3910
    0.7054660524092026    0.5770240908979960    0.2619194661394174    H3911
    0.7054660524092026    0.5770240908979960    0.5952527994727508    H3912
    0.7054660524092026    0.9103574242313294    0.9285861328060840    H3913
    0.7054660524092026    0.9103574242313294    0.2619194661394174    H3914
    0.7054660524092026    0.9103574242313294    0.5952527994727508    H3915
    0.9766339101567914    0.1395764319705814    0.3581818463169839    H3916
    0.9766339101567914    0.1395764319705814    0.6915151796503173    H3917
    0.9766339101567914    0.1395764319705814    0.0248485129836506    H3918
    0.9766339101567914    0.4729097653039147    0.3581818463169839    H3919
    0.9766339101567914    0.4729097653039147    0.6915151796503173    H3920
    0.9766339101567914    0.4729097653039147    0.0248485129836506    H3921
    0.9766339101567914    0.8062430986372481    0.3581818463169839    H3922
    0.9766339101567914    0.8062430986372481    0.6915151796503173    H3923
    0.9766339101567914    0.8062430986372481    0.0248485129836506    H3924
    0.3099672434901247    0.1395764319705814    0.3581818463169839    H3925
    0.3099672434901247    0.1395764319705814    0.6915151796503173    H3926
    0.3099672434901247    0.1395764319705814    0.0248485129836506    H3927
    0.3099672434901247    0.4729097653039147    0.3581818463169839    H3928
    0.3099672434901247    0.4729097653039147    0.6915151796503173    H3929
    0.3099672434901247    0.4729097653039147    0.0248485129836506    H3930
    0.3099672434901247    0.8062430986372481    0.3581818463169839    H3931
    0.3099672434901247    0.8062430986372481    0.6915151796503173    H3932
    0.3099672434901247    0.8062430986372481    0.0248485129836506    H3933
    0.6433005768234581    0.1395764319705814    0.3581818463169839    H3934
    0.6433005768234581    0.1395764319705814    0.6915151796503173    H3935
    0.6433005768234581    0.1395764319705814    0.0248485129836506    H3936
    0.6433005768234581    0.4729097653039147    0.3581818463169839    H3937
    0.6433005768234581    0.4729097653039147    0.6915151796503173    H3938
    0.6433005768234581    0.4729097653039147    0.0248485129836506    H3939
    0.6433005768234581    0.8062430986372481    0.3581818463169839    H3940
    0.6433005768234581    0.8062430986372481    0.6915151796503173    H3941
    0.6433005768234581    0.8062430986372481    0.0248485129836506    H3942
