# Amorphous model                       
    1.000000000000000     
    13.7221524022480903   -2.0579419534044145    4.4754896755264522
    -0.0000000001564302   11.0970963184998546    1.6929505199225221
    -0.0000000000327903    0.0000000000198101   17.0760091228935025
  C               H             
   114   118
Direct
    -0.1409915308611217    0.2474309898129412    0.0172936955755346
     0.8194419713057812    0.4615060138604045    0.3514102992928034
     0.7800552708466738    0.3614354182093774    0.3275438646771633
     0.7717062294453090    0.2593777945057107    0.4914259268092631
     0.4890783651216431    0.1053197509950765    0.4554686424279172
     0.7451334855782880    0.2832212117637743    0.5731722495151489
     0.8986270609927036    0.5312811782380719    0.3027911864915127
     0.4334673279624316    0.1205608403185027    0.5392714071455909
     0.5017056477902778   -0.0206449069546180    0.4531746165385860
     0.8461029542610579    0.3219501199095625    0.2610961656908294
     0.4525574184808843    0.2972964657598022    0.3894414647707453
     0.1170275791121229    0.0735515329999875    0.0933692343462028
     0.1658927205576569   -0.0146686070841772    0.0568804293378129
     0.0395225695293089    0.0421453097338507    0.1694735667355155
     0.6615084482566606    0.2378108657338160    0.6411871009245964
     1.1298315289673633   -0.1122822897750611    0.8863626840996006
     0.5065271322090934    0.1897114064334347    0.3731264695502274
     0.3647392493989845    0.1043900166970579    0.8766925711326086
     0.6840475622702105    0.2865090672490334    0.3720060206380275
     0.7079222003769562    0.2181666826681423    0.4526706662402801
    -0.1938862412298105    0.7992625039362331    0.4962575263074879
     0.3732968363202773    0.2500368685992609    0.2199762186647404
     0.3584484003833801    1.5248460758627707   -0.3513107374876474
    -0.2343514171364790    0.4486130858185606    0.6497017090389308
     0.2946391862770267    1.3820580211231659    0.5681499264137840
    -0.0193813680065824    0.7985978753237226    0.6379704570246976
    -0.0876979538317016    0.8957626027998949    0.6500601864023314
    -0.1194167962385049    0.6179047155133538    0.8035171969986136
    -0.0321698184354904    0.7162061003264715    0.8016642724209244
     0.1052602841255250    0.6032019408471659    0.8391288490731487
    -0.3224254735081336    0.4081385357577613    0.7081466945644013
     0.0193179073504114    0.6601347774029416    0.8638816236943438
     0.0315630357298215    0.7849271467062252    0.7037875536065092
     0.3585936089079200    1.4878265152094083    0.5697685545530315
     0.7350951006438929    0.7128590404342123    0.4921806120822705
     0.9635891111471409    0.5038099957384130    0.2279724016982629
     0.2939487893879175    0.1649638130934671    0.2190263357954828
     0.3871425955655734    0.2227564231258722    0.8962921093235516
     0.4438913337731902   -0.0052153695487234    0.9711232793751963
     0.9310027611540799    0.3902994837076044    0.2053947944087416
     0.3998991637182703    0.5292537973985649    0.9254451944276360
     0.1336055746584991    0.5496686282026852    0.9062411074386040
     0.0785086575911299    0.5252387442058430    0.9927821068081497
     0.2503897479887305    0.8078615039842467    1.0813253334502664
     0.3528002918676377    0.4961396603344133    1.0793428234100320
     0.4758928430641474    0.6245627958521704    0.9237515645676715
    -0.0312844052346939    0.6374489551188145    0.9471965306355027
     0.3903917593598595    0.6182428479378553    1.0712204625546318
     0.4589248397716477    0.6772672012361419    0.9974003616671014
     0.6608349325831414    0.6549338337184980    0.5646266500078545
     0.3488752262688629    0.4520747292055107    1.0080391869349310
     0.6582922921648935    0.6826742681500700    0.6424747426879350
     0.1898032513182389    0.2090488029229986    1.3428847943784183
    -0.0061679803157698    0.5753613060392699    1.0094615346134839
     0.2684473871949931    0.2998843403732042    0.3482661263287028
     0.3851547480175476   -0.0051901901558441    0.9228822171897959
     0.4532728524603509    0.3657548067189892    0.3045193604120187
     0.6268756699785086    0.7224335212448240    0.1326548375346500
     0.6255170939034773    0.3012152802475763    0.7078147288508271
     0.0937135357842509   -0.1612462061444673    1.1863219048105291
     0.4478894291369160    0.2237648611878350    0.9456279949570910
     0.4713308495492561    0.1102301734150863    0.9854656056550242
     0.1657534258462437   -0.1287387486350194    1.1024255591643084
     0.0353864300757634   -0.0746879723310576    1.2137359627385158
     0.4489320089174372    0.5021565094945765    0.3169230261106132
     0.6903715003578904    0.8840863539883889    0.1817548853035565
     0.5377808380871150    0.7003649503368115    0.1999523315522878
     0.5276107149714776    0.7944244140143631    0.2465999551055010
     0.5987281661792617    0.8911420196252954    0.2388581458749750
     0.3604260252709496    0.3191189763138844    0.2851183329263064
     0.4569573006926991    0.5808323739059262    0.2303719608799837
     0.3503624510586482    0.6097800258357181    0.2316254698197222
     0.3530091331772562    0.6793331691042593    0.1450272539424430
     0.7013933634317244    0.8126307715938275    0.1275725608242425
     0.1992945548686400    0.1446152900471511    0.2792827379294193
     0.6166438839643166    0.2210750330933997    0.3312370688227734
     0.1767037720366623    0.2569082082373781    0.7892069138640992
     0.2447381227535947    0.3061904061589076    0.6399102359824059
    -0.0782960314955380    0.2762548772471659    0.6495168671295140
    -0.0339601795257214    0.3552362938510903    0.6880964840694251
    -0.1500049146661759    0.0656947463462558    0.5738210051823081
    -0.0489157351073390    0.2160423540039814    0.9849075642717456
    -0.2715857945654709   -0.2318913466672283    0.6481764648745795
     0.3463774276572801   -0.1263968727772462    0.9125446683920014
     0.2387043551804244    0.3408699650894032    0.7151698594553511
    -0.0287799505024759    0.1378772318079552    0.9262455732955601
     0.1157248348634008    0.1359879130815219    0.7969745517172502
     0.0671008235236478    0.0920728363377740    0.8925510710595542
     0.3487819491326479   -0.1512037298377789    0.8343954701549887
     0.0625675716385605    0.4255974181697860    0.6454840107861393
    -0.2015952945322199   -0.1710841465027828    0.5769928067272776
     0.0471060297818478   -0.0473807135723862    0.9287307371733823
    -0.1130025038124088    0.0987561643158093   -0.0972493701284202
     0.3029977502985866    0.4435667357039471   -0.2761653211701928
     0.4702356576156891   -0.1211033347662465    0.5204942182791105
    -0.2128249042475419    0.2033270780808223   -0.0049062034651561
     0.0512032646849052    0.3519773370237440    0.5211565007915629
     0.0923326565312677    0.4431270151442981    0.5558767581435141
     0.3950992950053172    0.0204160427488627    0.6057076991340988
    -0.1988088815956014    0.3906075927471388    0.5792156843974184
     0.4084782169939036   -0.1087937982003190    0.5967941470820596
    -0.0764108782235318    0.1837291377852666    0.5199543727644603
    -0.1274960006320915   -0.0677766805449248    0.5789145464819757
    -0.2027526182256243    0.1321495032047126   -0.0668151080573977
    -0.1239110345922152    0.2439399876625024    0.4521761926505780
    -0.0309726943263049    0.2777212084187608    0.5670670796078163
     0.3024846060754789   -0.2113448748231390    0.9891314000896371
     0.2528694183471672    0.7056201788317435    1.1558131453851330
     0.0992211371898798    0.9474033476734951    0.5272399463635280
     0.1699272260238304    0.9783749349872983    0.4494216014627559
     0.1498712312333549    0.7734497632217769    0.4209817632298516
     0.0911498957527992    0.7386281767831877    0.5050197231394414
     0.0608885476031304    0.8258336714905367    0.5520205104361715
     0.1925385445600547    0.8986126440707846    0.3930515289256166
     0.1483371935528215    0.5206505043012752    0.5271370264937399
    -0.1611536023397990    0.5658489230718550    0.8701552545342242
     0.4894700682490539    0.3424743089157103    0.4257831673226265
     0.9642389273674740    0.3289111026035222    0.1644401221477870
     0.3054830217682439    0.4724577268914140   -0.2154361312064847
    -0.1903346695237647    0.0671743153993170    0.6404647750565280
     0.4558730778161951    0.7965888628722252    0.2900672760674156
     0.3846075698903519    0.5085044557552038    0.3708971211707508
     0.4802121620937879    0.5350000382723546    0.1809722270487914
     0.7000945152162663    1.6916349899347733    0.9304563079486103
     0.2221858846975880    0.7461095629755153    0.2160378051153114
     0.4021836487198323    0.7688001354911143    0.1202491542210779
     0.2981118397720807    0.5179214924280013    0.2571584123148659
    -0.1007257494811702    0.0378775192038096   -0.1468729977631418
     0.3564711336345160    0.0183262830968413    0.6716623248708395
    -0.1497844512513542    0.8560555329610360    0.4385053957955352
     0.5317829963093326    0.3589551021478339    0.2607922360388498
    -0.2632359946486927    0.0893005381797776   -0.0843368951781513
     0.6461273003363251    0.6678753925088562    0.0900543564610684
    -0.0450402153755119    0.9734895631146782    0.6532267806935109
    -0.0066344622552932    0.1622583315558171    0.4833353799998265
     0.4161183274214647    1.5961208445529964   -0.3522447833742349
    -0.1707085196281235    0.2319496645720033    0.2399862941690217
     0.5903755582132147    0.9850143183640043    0.2570930346428579
    -0.1338342811990080    0.4276765395738470    0.5283072133933323
     0.3771949686079978    0.2688330593047712    0.4342532875386891
     0.2414117008285422    0.3305431143786684    0.4155267172296981
     1.2095023266673901    1.0713690493050529    0.4146969823877674
     0.5906036019217882    0.6435442161976334    0.6887109279695440
     0.0777313074808876    1.0058815926589402    0.5737386126813740
     0.0762158018931668    0.3573696925693522    0.4473981192000957
    -0.0845187214735051    0.3300206719751207    0.4097343825948315
     0.4888675717995796    0.7771415298248930    0.9943591647262331
    -0.0646276806555964    0.5545956286249534    1.0706895195104560
    -0.2820535492720383    0.2205619926483558    0.0355412283627484
     0.2619999108921625    0.9231451829202844    0.3345742278436848
     0.3375843639851923    0.3523770836536676    1.0079947883985199
     0.4469254530371415    0.2642552595223530    0.1711838379228441
     0.4879661033752193   -0.2056469873571097    0.4917594315899265
     0.5438153835907193    0.5835979238366393    0.9145583119662273
     0.7305541447865697    0.6723140764445662    0.4397610866134803
     0.0913767663138848    0.7641895609622791    1.2345941221891203
    -0.0631139008485326   -0.0696375337230439    0.5207861308010692
     0.6077948918646325    0.5896116910992287    0.5594567056075471
     0.3085064235125767    0.1249672569365655    0.1627629048302228
     0.2972793589939612    0.8818234754685481    1.0927550198471321
     0.3284116352485092    0.4439485960359760    1.1422428262679247
     0.0850070821261371    0.4468987854010377    1.0503041704893403
     0.4058915935042688    0.5007997867711060    0.8630601032216271
     0.3845910985597063   -0.1835140916525115    0.6521851168899691
    -0.1841796401683236    0.5161719180161742    0.6528387475183883
     0.0602294666707312    0.6416331718609829    0.5305262031304954
     0.2130879272648347    0.5381740214654799    0.9006848284500290
     0.3261560523453041    0.6596103095050613    0.2828438945613429
    -0.0971197723670563    0.6835270586706137    0.9615846353322415
     0.5188420807247129    0.5320410897804195    0.3288990406096112
    -0.2573606658675500   -0.1997819982835544    0.7016735746056293
     0.4496588327246610   -0.0919366137955389    1.0034144426282374
    -0.1489077040659600    0.2474782289261510    0.6938647764845827
    -0.0947348595387386    0.5483632525783481    0.7599727417705904
     0.4302219627346147    0.2204944496446738    0.5424960489514724
     0.6287780518256403    0.2756058283086812    0.2707148606813650
    -0.0747702674680716    0.3542533608229381    0.7551151713799439
     0.6353282984686626    0.3362668482735238    0.4063856742306942
     0.1655593163765527    0.2880605683107222    0.8525574725516367
     0.3528436450125453   -0.0700195151849684    0.7966078187815411
     0.7290030587217210    0.1212653394062875    0.4355148866507456
     0.2075220159290685    0.6131141766619155    1.1606412265460058
     0.2988028044449403    1.3420309672978101    0.5106125138159040
     0.1364498100909160    0.1665181196104508    0.0502559909651643
     0.6258758406127525    0.2114141150719341    0.4984867166276268
     0.4691663170679656    0.1354870241216086    0.3390311345838232
     0.1435283359980538   -0.1861747115899870    0.9212706343202194
     0.0898187731139314    0.7246150034472736    0.6840673091420441
     0.6366837561942859    0.1309392216687815    0.3360394392782534
     0.7753266999880973    0.4931804547669538    0.4082209144450131
    -0.1434907574336977    0.3132764013227147    0.0603572191182840
    -0.0637123276721663    0.7860494443277439    0.8375940624432203
     0.1697695342659982    0.6295860759535752    0.7790264561832444
     0.7583081278708492   -0.0538171985183651    0.1753600976496384
    -0.3305612550867492    0.4520908464912444    0.7648692853068823
    -0.1199509531986073    0.1730985921525715    0.4160352615546276
    -0.1498937989374107    0.8826205115619523    0.7227986430293304
     0.1343049199040599    0.0753042471438147    1.2847611232194631
     0.2000902097099712    0.2215288876520975    0.6419138152959190
     0.5536301379693962   -0.0382169938599187    0.3984911069175809
     1.2011977417619393   -0.0451835342854058    0.8629184988829742
     0.0139324762557711    0.2771208597835358    0.9829278258417218
     0.7726179677066162   -0.1727515310181394    0.0777726723914573
     0.1131107647267534    0.1920762497075603    1.3994022210460328
     0.5648115266677358    0.2454328798208605    0.7621656026636454
    -0.0250002976939770   -0.0993248001881195    1.2779761042348627
    -0.0239282697781567   -0.0975867663959145    0.9320976540075417
    -0.2185235820441427    0.0594667554719516    0.5566690109367701
     1.0198525983105997   -0.0486134766680375    0.9992860659716127
     0.5213050612450890    0.1316561109570827    1.0188425954543612
     0.0950090277289316    0.5031893317017946    0.6679027196167567
     1.1182621355552218   -0.1360891441277614    0.8311349443425692
     0.4862436515005789    0.7036794643291238    0.8596272534066701
     0.3826448644337963    0.3054297537366372    0.8606354529201331
     0.4689026235030839    0.3130868215681198    0.9552968220652209
    -0.1777513758041963    0.6589433042387466    0.7839803892240833
     0.0536255036331462    0.1414749485345945    0.7716756941201381
     0.1815139877935063    0.7097034693044530    0.3718585456293432
     0.1610251788639164    0.0684790637008911    0.7640221058070920
     0.6356056336642253    0.1477473497011170    0.6297970660451058
     0.1200478303260596    0.1455255832770194    0.9049572920931332
     0.7307452226322951    2.7380929912472340   -0.0616997331591809
     0.3514205532547482    0.0891587974393579    0.8217735443528749
    -0.0062424255285950    0.1079622004977788    0.1875785871829170
     0.3908315494357055    0.5661331601321746    0.5182676904078187
     1.0277620747787184    0.5716031605996592    0.1872242879870159
     0.3348793511580949   -0.2379465012613831    0.8188549457297229
     0.2949215311596522   -0.3153873672427481    0.9898411976619587
    -0.0604390186603178    0.7084565648903595    0.6432685294101133
     0.2180408474473368    0.0011934735132759   -0.0029278158143177
     0.9228040240557243    0.6246222510474202    0.3120756218125134
     0.0872799079155812    0.8546310998461110    0.7084328108484376
Lattice velocities and vectors
            1
  0.32332444E-04 -0.85417266E-03  0.10455968E-02
 -0.14802191E-02 -0.17615121E-03  0.69368846E-03
 -0.49678898E-03 -0.10469539E-02  0.15502200E-02
  0.13722111E+02 -0.20588817E+01  0.44757987E+01
 -0.15643039E-09  0.11097067E+02  0.16929558E+01
 -0.32786810E-10  0.19818032E-10  0.17076629E+02
 
 -0.40060984E-02  0.18073191E-01  0.27974745E-02
 -0.13316966E-01  0.11163688E-01 -0.79972306E-02
  0.28444350E-02 -0.16647593E-03 -0.87642168E-02
  0.34054893E-02 -0.46075511E-02 -0.35874617E-02
 -0.33105984E-02 -0.17783398E-01 -0.22131852E-02
 -0.26265579E-02 -0.13477027E-03 -0.26154468E-02
  0.23410794E-03  0.40435683E-03 -0.17868465E-02
  0.49145756E-02  0.16251622E-01 -0.50104873E-02
  0.76387897E-02  0.22608769E-02  0.34454961E-03
 -0.75487338E-02  0.29580961E-02  0.35174912E-02
 -0.13756626E-02  0.13667037E-02 -0.49919014E-02
 -0.78404733E-03  0.93073307E-02  0.51700040E-02
  0.82016390E-02  0.12667797E-01 -0.14802909E-01
  0.21690933E-02 -0.89942950E-02  0.77158007E-02
 -0.96708056E-02 -0.54429013E-02 -0.47394635E-02
  0.12705178E-01 -0.91243181E-02  0.66930995E-03
 -0.83347185E-02 -0.30436754E-03  0.30609796E-02
 -0.71420084E-02  0.55963652E-02  0.98797790E-02
  0.12779610E-01  0.26463427E-02  0.19047402E-02
 -0.51684548E-02  0.91587045E-02  0.83131256E-03
 -0.11381501E-01  0.36514298E-02 -0.11548943E-02
  0.17023161E-01  0.16579906E-02  0.74261402E-02
 -0.67250642E-02 -0.93409692E-02 -0.55305883E-02
 -0.47843515E-03 -0.60834758E-03  0.11428807E-01
 -0.20981189E-02  0.19280489E-03  0.10301465E-01
  0.22216638E-02  0.83480298E-03 -0.10295882E-01
  0.15158331E-02  0.13260480E-02 -0.68676505E-02
  0.88542584E-02 -0.32901841E-02  0.22083536E-02
 -0.10577408E-01 -0.29873575E-02 -0.21252280E-02
  0.12492408E-01  0.11729980E-02  0.86964069E-03
  0.47903714E-02 -0.65554074E-02 -0.82747919E-02
  0.74638884E-02 -0.26179953E-02  0.32272211E-02
  0.93922138E-04 -0.48781096E-02 -0.25105031E-02
  0.23620909E-02  0.92279532E-02 -0.46882139E-02
  0.22634684E-02  0.11909851E-01 -0.78800560E-02
  0.62511623E-04  0.40457554E-03  0.25052241E-02
 -0.29571937E-02 -0.10758389E-01 -0.58921433E-02
 -0.78460571E-03  0.12396383E-01  0.60503292E-03
 -0.40466584E-02  0.37582949E-02  0.52708063E-02
  0.18624899E-02 -0.84585848E-02 -0.10337436E-01
 -0.10797800E-01 -0.16216861E-01  0.68714088E-03
  0.40804229E-02  0.49405516E-03 -0.33195478E-02
  0.17974322E-02  0.77629536E-02  0.11006563E-01
  0.87620071E-03  0.79049148E-03  0.99488456E-02
  0.71371816E-02 -0.82699899E-02  0.10780086E-02
 -0.68249921E-02  0.16030986E-01 -0.19279628E-02
 -0.18964927E-01  0.53772670E-02  0.10013553E-01
 -0.64308838E-02  0.44786099E-02  0.44643394E-02
  0.10178378E-01 -0.15883245E-01 -0.68880702E-02
  0.18555889E-02  0.21223609E-02 -0.82703580E-02
  0.40027056E-02 -0.26643429E-02 -0.83039235E-03
 -0.93806797E-02  0.31250453E-02  0.35912484E-02
 -0.28712731E-02 -0.34469103E-02  0.11319330E-01
 -0.12757634E-02  0.53987848E-02 -0.69478149E-05
  0.50779770E-02  0.22579622E-02  0.16678063E-02
  0.12113163E-01  0.77942486E-02  0.12031462E-02
  0.77046209E-02  0.10627047E-01  0.10730725E-01
  0.31900578E-03  0.95151761E-02  0.89618835E-02
  0.14667053E-01 -0.16558432E-02  0.17141416E-02
 -0.13570282E-02  0.13732786E-01 -0.54117915E-02
 -0.84097758E-02  0.81520476E-02  0.31619631E-02
  0.74607800E-02 -0.61073639E-02  0.10219474E-02
  0.72441382E-02 -0.70906972E-02  0.10188974E-02
 -0.10845429E-01  0.10752143E-01 -0.65862619E-02
 -0.33240479E-02  0.18906494E-02 -0.32208108E-02
  0.30377574E-02 -0.70053277E-03 -0.18974819E-02
 -0.30702556E-02  0.22364570E-02  0.10419464E-03
 -0.88161021E-03  0.43981358E-02  0.58426886E-02
  0.62166069E-02  0.49154968E-02  0.89999101E-02
  0.56462072E-02  0.29625148E-02  0.60154447E-02
  0.34223656E-02  0.31694702E-02 -0.29178946E-03
  0.44915225E-02  0.11137268E-03 -0.49931673E-02
  0.61800159E-02  0.88442564E-03  0.49187514E-02
  0.32712340E-02  0.22016886E-01 -0.18520144E-01
 -0.95268750E-05 -0.24893407E-02 -0.17836733E-02
 -0.13712112E-02  0.64661440E-03 -0.15621308E-02
  0.12023944E-01  0.79479198E-02 -0.81621987E-02
 -0.53985410E-02  0.10567885E-01  0.12288684E-01
  0.10297465E-01  0.15803473E-02  0.11095526E-01
 -0.31837315E-02  0.10550323E-01 -0.11188820E-01
  0.29408623E-02  0.52384835E-03  0.21012439E-01
 -0.20680497E-02  0.66748902E-02 -0.81381612E-03
  0.11988120E-01  0.30563392E-02 -0.22095366E-02
 -0.30871351E-02 -0.11133692E-01  0.74320697E-02
 -0.71360830E-02  0.45838148E-02  0.10281994E-01
 -0.64750846E-02  0.70527138E-02  0.50360335E-02
 -0.13535104E-01 -0.14245616E-01  0.14362593E-01
 -0.81487462E-04  0.39936061E-02 -0.15076920E-01
 -0.40831221E-02 -0.38334559E-02 -0.31323376E-02
 -0.27043775E-02  0.11932937E-01  0.12475422E-02
  0.14874528E-02  0.24512732E-02 -0.54361520E-02
 -0.29192845E-02 -0.82429430E-03 -0.14188627E-01
  0.36320144E-02  0.40542071E-02 -0.51838372E-02
  0.31933453E-02  0.74846977E-02  0.59475043E-02
 -0.11523205E-02 -0.28348112E-02  0.13337461E-01
 -0.56217144E-02  0.96021048E-02  0.26621938E-02
  0.28035195E-02  0.16580181E-02 -0.17489716E-02
 -0.13560079E-01  0.56287206E-02 -0.91011311E-02
 -0.15270684E-01 -0.25010304E-02  0.35244948E-02
 -0.15167435E-02 -0.15446151E-02  0.17364901E-02
 -0.45662774E-02  0.78832164E-02  0.12524819E-01
 -0.31217344E-02 -0.39991624E-02  0.36744519E-03
  0.48017790E-02  0.11875064E-01 -0.29602388E-02
  0.10327491E-02  0.26317343E-02  0.36298595E-02
  0.46373192E-02 -0.67387993E-02 -0.60143482E-02
  0.11834616E-01 -0.66446203E-02 -0.18198343E-04
  0.18112156E-02  0.32547427E-03 -0.26179440E-02
 -0.42687591E-02 -0.42079312E-02 -0.15131593E-02
 -0.53896650E-02  0.11833369E-01 -0.89927924E-02
 -0.10117521E-01 -0.10458841E-01 -0.54361038E-02
  0.85425039E-02 -0.14832696E-02 -0.24881722E-02
 -0.69767438E-02 -0.44053416E-02  0.20482993E-02
 -0.51566328E-02  0.50403815E-02  0.12709969E-01
 -0.36671820E-04  0.12234106E-01 -0.24369145E-02
  0.37499479E-02 -0.34739615E-01  0.15188939E-01
 -0.27005433E-01 -0.29772097E-01 -0.29394417E-01
 -0.40809477E-02 -0.17888482E-01  0.92731388E-02
 -0.16219282E-01 -0.24123371E-01  0.12275958E-01
  0.12917998E-02  0.15719966E-01 -0.40726086E-02
  0.57238578E-01  0.43182470E-01  0.57083597E-02
 -0.20412271E-01  0.17833145E-01 -0.99843854E-02
 -0.88326981E-02  0.50083234E-02 -0.10106654E-01
  0.26783415E-01  0.18173777E-01 -0.14982303E-01
  0.10268861E-01  0.72440697E-02 -0.64593515E-02
 -0.18529104E-01  0.19155319E-01  0.21894759E-01
  0.11437082E-01 -0.12753765E-01 -0.26034534E-01
  0.52825189E-01  0.24835355E-01  0.33247348E-01
 -0.17938498E-01  0.12918882E-01 -0.17048061E-01
  0.37293136E-02 -0.10002539E-01 -0.27324569E-02
  0.29348637E-01  0.83579671E-01 -0.10617957E-01
  0.12195162E-01 -0.43268905E-02  0.62344864E-02
 -0.19700925E-01 -0.25213398E-01 -0.53794522E-01
 -0.25259806E-01  0.31446767E-01 -0.19820015E-01
  0.24325205E-01  0.16133703E-01  0.29516130E-01
 -0.25236523E-01 -0.55469074E-02  0.15918218E-01
  0.97320655E-02 -0.10804230E-01 -0.17381681E-01
 -0.50185184E-01 -0.13448094E-01 -0.31982833E-01
  0.37737852E-02 -0.60630315E-02 -0.56167676E-02
  0.99039063E-02  0.21406508E-01  0.21038255E-01
  0.22921964E-01  0.19635854E-01  0.31112931E-01
  0.22163120E-02  0.57744098E-01  0.22687184E-01
  0.22536588E-02  0.99759765E-02 -0.55803901E-02
  0.31023766E-01 -0.37564183E-01 -0.17892431E-01
 -0.29662139E-01 -0.26260510E-01 -0.19840966E-01
  0.39956698E-01 -0.42662829E-01 -0.65202548E-03
 -0.49028743E-01 -0.10344022E-01  0.13041324E-02
 -0.41958597E-02  0.81281867E-02 -0.27390709E-01
 -0.61928755E-02  0.63213850E-02  0.33013566E-01
 -0.28657256E-02 -0.22392045E-01 -0.45087585E-01
  0.14689366E-01 -0.18567417E-02  0.82216521E-01
 -0.22207469E-01 -0.33440698E-01 -0.16229243E-01
  0.19486224E-01 -0.17241788E-01 -0.46341328E-01
  0.20710852E-01  0.43041578E-01  0.21040943E-01
  0.22311712E-01  0.24375022E-01 -0.12168279E-01
 -0.16705703E-01  0.16361120E-01  0.40207801E-01
  0.64818660E-02 -0.26264093E-01 -0.20529567E-01
 -0.32619535E-01 -0.10267695E-01 -0.60827964E-02
 -0.53978768E-01  0.21585908E-01 -0.21706477E-01
 -0.42482961E-01 -0.33313969E-02 -0.29866832E-01
  0.11326212E-01 -0.18278587E-01 -0.78488108E-02
  0.13041570E-01 -0.89612436E-02 -0.12965696E-01
  0.64577183E-02 -0.43399851E-02 -0.49180826E-02
  0.18267669E-02  0.54223642E-02  0.57630301E-01
 -0.34444269E-01  0.39553428E-01 -0.26725272E-01
 -0.98386175E-03  0.92437325E-02  0.63954994E-02
 -0.55170088E-01 -0.59641110E-02  0.19631543E-01
 -0.19053699E-01  0.26647048E-01 -0.57325332E-02
 -0.36234223E-02  0.69424651E-02  0.28606207E-01
  0.79065582E-02  0.31537078E-04 -0.11798090E-01
 -0.27535911E-01  0.22294171E-01  0.27448232E-01
  0.33810512E-01 -0.16796767E-01 -0.39498436E-01
 -0.10207664E-01  0.15394619E-01  0.83711140E-02
  0.15957723E-01 -0.37814171E-01 -0.11733261E-02
  0.25027435E-01  0.21380090E-01  0.19601808E-01
 -0.13037974E-01  0.10038235E-01 -0.10657733E-01
  0.37672883E-01 -0.37606246E-01  0.11872603E-01
  0.26631423E-01 -0.29084828E-01 -0.15021169E-01
  0.19350938E-01  0.19468355E-01 -0.30121230E-01
  0.35108960E-02  0.45895263E-02 -0.20823352E-01
  0.22198950E-01  0.12278635E-01 -0.34660922E-01
  0.12125261E-02 -0.25554099E-01  0.53220624E-01
  0.39508218E-01  0.18493835E-01  0.92091269E-02
 -0.17112188E-01 -0.12749176E-01  0.43692009E-01
 -0.20149576E-02 -0.26224255E-01  0.21800831E-01
 -0.72619020E-02 -0.27398764E-01  0.22946282E-01
  0.25228827E-01  0.64630513E-02  0.12255906E-02
 -0.12158319E-01 -0.59633605E-01  0.42031324E-01
 -0.11300141E-01  0.12320353E-01 -0.33122569E-01
  0.15965185E-01 -0.19224352E-01  0.36173573E-01
 -0.44772406E-02 -0.29226698E-02  0.80146024E-02
 -0.38190600E-02  0.26233310E-02 -0.62880989E-02
 -0.78041645E-02  0.20742353E-01 -0.65841747E-02
 -0.20982949E-01 -0.34173133E-01  0.10447267E-01
  0.24664831E-01  0.49525388E-01 -0.62824796E-01
 -0.14519632E-01  0.25749305E-01  0.77353506E-03
  0.24953907E-01  0.28107304E-01  0.13738214E-01
 -0.48384817E-01  0.44948838E-01 -0.40125975E-01
  0.10276150E-02  0.94550092E-02  0.20006982E-01
  0.99836009E-02  0.39718233E-01 -0.26798478E-02
 -0.25633755E-01 -0.31416936E-01 -0.61234602E-01
  0.13223904E-01 -0.48362338E-01  0.17422710E-01
 -0.47119363E-02 -0.34604737E-01  0.15005239E-01
 -0.71681308E-02 -0.14927856E-01 -0.71716702E-01
  0.35998718E-01  0.20403915E-01 -0.23170980E-01
  0.10923615E-01 -0.65726936E-02  0.15790009E-01
 -0.78059036E-02 -0.29835264E-02  0.43763959E-01
 -0.18177017E-01 -0.46081733E-02 -0.19174969E-02
  0.14526070E-02  0.30114526E-01  0.20206753E-01
 -0.13804899E-01  0.12104552E-01 -0.27007478E-01
 -0.36264531E-01 -0.64163003E-02 -0.38881695E-02
  0.15657773E-02 -0.46645767E-02  0.30461717E-01
 -0.46403652E-01  0.31463139E-01 -0.31092474E-01
  0.16497838E-01 -0.16151956E-02 -0.92528072E-02
 -0.17520974E-02 -0.18994071E-01  0.41353329E-02
  0.12801662E-01 -0.20125650E-01 -0.33333053E-01
 -0.25657310E-01 -0.23496005E-01 -0.59307631E-04
 -0.18525136E-01  0.46902343E-01  0.10697116E-01
 -0.28220774E-02 -0.78658209E-02 -0.25883230E-01
 -0.97320635E-03 -0.20899763E-01 -0.15976921E-01
  0.96541895E-02  0.61829235E-01 -0.21143553E-01
  0.54300665E-02  0.19155481E-01  0.10247372E-01
  0.38295330E-01 -0.17647344E-01 -0.23614288E-01
 -0.43809645E-01  0.28032035E-01 -0.46415215E-01
 -0.28258002E-02  0.42937134E-02  0.16270223E-01
  0.10742982E-01  0.32804194E-01 -0.36048541E-01
  0.20665588E-01  0.31517571E-01 -0.18505457E-01
 -0.94054266E-02  0.42675883E-01  0.28107267E-02
 -0.12153304E-01 -0.79037479E-02  0.22351276E-01
  0.20975566E-01 -0.41109759E-01 -0.23710410E-01
 -0.49061876E-02 -0.94976024E-02 -0.16415263E-02
  0.16742668E-01  0.67393055E-02  0.12737283E-01
  0.20131883E-01  0.47177061E-01  0.13700134E-01
 
            1
   0.4000000000000000     
  0.10000000E+01  0.00000000E+00  0.00000000E+00  0.00000000E+00
  0.85889169E+00  0.24806078E+00  0.17327394E-01
  0.81905378E+00  0.46183639E+00  0.35129197E+00
  0.78013819E+00  0.36144480E+00  0.32731591E+00
  0.77180550E+00  0.25923013E+00  0.49133052E+00
  0.48898186E+00  0.10466083E+00  0.45550742E+00
  0.74505692E+00  0.28320215E+00  0.57313294E+00
  0.89863389E+00  0.53129702E+00  0.30274597E+00
  0.43361059E+00  0.12117322E+00  0.53905578E+00
  0.50192832E+00  0.97947790E+00  0.45311215E+00
  0.84588291E+00  0.32201592E+00  0.26122971E+00
  0.45251732E+00  0.29733829E+00  0.38933090E+00
  0.11700472E+00  0.73882781E-01  0.93463486E-01
  0.16613180E+00  0.98583237E+00  0.56421360E-01
  0.39585799E-01  0.41832836E-01  0.16966871E+00
  0.66122654E+00  0.23756237E+00  0.64117461E+00
  0.13020189E+00  0.88745753E+00  0.88630708E+00
  0.50628417E+00  0.18965536E+00  0.37326741E+00
  0.36453106E+00  0.10455311E+00  0.87696239E+00
  0.68442009E+00  0.28667357E+00  0.37193669E+00
  0.70777154E+00  0.21846886E+00  0.45269967E+00
  0.80578199E+00  0.79933257E+00  0.49631049E+00
  0.37379306E+00  0.25018870E+00  0.22000505E+00
  0.35825236E+00  0.52447300E+00  0.64864808E+00
  0.76563464E+00  0.44858857E+00  0.64997550E+00
  0.29457803E+00  0.38205362E+00  0.56840769E+00
  0.98068339E+00  0.79863998E+00  0.63770814E+00
  0.91234623E+00  0.89581860E+00  0.64988219E+00
  0.88084131E+00  0.61783401E+00  0.80350829E+00
  0.96752185E+00  0.71604121E+00  0.80171165E+00
  0.10562444E+00  0.60331179E+00  0.83904288E+00
  0.67771417E+00  0.40792815E+00  0.70793713E+00
  0.19535480E-01  0.66008078E+00  0.86390555E+00
  0.31565774E-01  0.78475182E+00  0.70374541E+00
  0.35866246E+00  0.48817192E+00  0.56960645E+00
  0.73516108E+00  0.71330058E+00  0.49193496E+00
  0.96359093E+00  0.50382492E+00  0.22802913E+00
  0.29386259E+00  0.16456003E+00  0.21895094E+00
  0.38711972E+00  0.22319901E+00  0.89626840E+00
  0.44377337E+00  0.99489821E+00  0.97126640E+00
  0.93105705E+00  0.39000466E+00  0.20516765E+00
  0.39958441E+00  0.52861085E+00  0.92560753E+00
  0.13372452E+00  0.54970850E+00  0.90612822E+00
  0.78561053E-01  0.52552829E+00  0.99299749E+00
  0.25041529E+00  0.80789474E+00  0.81548384E-01
  0.35300834E+00  0.49588016E+00  0.79339271E-01
  0.47569389E+00  0.62510373E+00  0.92370492E+00
  0.96816277E+00  0.63754021E+00  0.94756694E+00
  0.39020430E+00  0.61836950E+00  0.71361612E-01
  0.45922154E+00  0.67674973E+00  0.99721255E+00
  0.66088902E+00  0.65502037E+00  0.56441017E+00
  0.34899191E+00  0.45200034E+00  0.79965292E-02
  0.65801885E+00  0.68273618E+00  0.64262440E+00
  0.18971955E+00  0.20890903E+00  0.34318573E+00
  0.99379483E+00  0.57554901E+00  0.94525104E-02
  0.26859541E+00  0.29999319E+00  0.34825560E+00
  0.38550785E+00  0.99515627E+00  0.92278350E+00
  0.45349744E+00  0.36617953E+00  0.30466974E+00
  0.62688497E+00  0.72277823E+00  0.13282815E+00
  0.62594464E+00  0.30123492E+00  0.70774087E+00
  0.93673978E-01  0.83924146E+00  0.18615716E+00
  0.44764428E+00  0.22401322E+00  0.94574169E+00
  0.47154833E+00  0.11005038E+00  0.98545037E+00
  0.16596459E+00  0.87104484E+00  0.10241553E+00
  0.35070285E-01  0.92564094E+00  0.21363194E+00
  0.44883511E+00  0.50220668E+00  0.31686800E+00
  0.69046005E+00  0.88407753E+00  0.18168810E+00
  0.53769134E+00  0.70042896E+00  0.19997188E+00
  0.52758502E+00  0.79457818E+00  0.24672830E+00
  0.59890938E+00  0.89135282E+00  0.23900056E+00
  0.36059061E+00  0.31925630E+00  0.28520249E+00
  0.45705706E+00  0.58096513E+00  0.23032582E+00
  0.35049338E+00  0.60980833E+00  0.23147139E+00
  0.35318928E+00  0.67939847E+00  0.14508878E+00
  0.70148872E+00  0.81344207E+00  0.12703332E+00
  0.19929428E+00  0.14452551E+00  0.27924993E+00
  0.61660391E+00  0.22109092E+00  0.33120938E+00
  0.17705427E+00  0.25725972E+00  0.78888901E+00
  0.24458076E+00  0.30654213E+00  0.64020446E+00
  0.92200414E+00  0.27636753E+00  0.64968692E+00
  0.96594701E+00  0.35559937E+00  0.68782273E+00
  0.85008081E+00  0.65729534E-01  0.57428728E+00
  0.95102398E+00  0.21627177E+00  0.98488156E+00
  0.72876366E+00  0.76828366E+00  0.64801577E+00
  0.34628744E+00  0.87318511E+00  0.91278378E+00
  0.23849634E+00  0.34099660E+00  0.71545267E+00
  0.97103130E+00  0.13809643E+00  0.92639128E+00
  0.11533029E+00  0.13540122E+00  0.79747255E+00
  0.67098448E-01  0.92216347E-01  0.89218431E+00
  0.34866293E+00  0.84863601E+00  0.83436918E+00
  0.62488739E-01  0.42601292E+00  0.64549270E+00
  0.79844806E+00  0.82901226E+00  0.57684455E+00
  0.47020933E-01  0.95257379E+00  0.92842520E+00
  0.88710337E+00  0.98921944E-01  0.90258502E+00
  0.30309084E+00  0.44385380E+00  0.72392114E+00
  0.47020207E+00  0.87878825E+00  0.52082618E+00
  0.78701122E+00  0.20364279E+00  0.99516781E+00
  0.51284987E-01  0.35205226E+00  0.52108669E+00
  0.91937380E-01  0.44325657E+00  0.55575433E+00
  0.39465415E+00  0.20243303E-01  0.60592405E+00
  0.80114691E+00  0.39054371E+00  0.57927428E+00
  0.40834511E+00  0.89146566E+00  0.59709669E+00
  0.92349812E+00  0.18356810E+00  0.52000280E+00
  0.87264397E+00  0.93267733E+00  0.57876351E+00
  0.79727749E+00  0.13224995E+00  0.93325207E+00
  0.87622414E+00  0.24372216E+00  0.45202148E+00
  0.96937229E+00  0.27754570E+00  0.56699363E+00
  0.30253740E+00  0.78867665E+00  0.98905411E+00
  0.25274498E+00  0.70544541E+00  0.15582764E+00
  0.99064028E-01  0.94780074E+00  0.52703108E+00
  0.16963230E+00  0.97794322E+00  0.44941437E+00
  0.15012025E+00  0.77344250E+00  0.42085893E+00
  0.90946523E-01  0.73843165E+00  0.50514049E+00
  0.60738232E-01  0.82598747E+00  0.55234238E+00
  0.19253748E+00  0.89905343E+00  0.39295103E+00
  0.14844650E+00  0.51941858E+00  0.52758629E+00
  0.83805919E+00  0.56462972E+00  0.86979392E+00
  0.48935111E+00  0.34180744E+00  0.42609767E+00
  0.96376613E+00  0.32795384E+00  0.16494649E+00
  0.30552068E+00  0.47303135E+00  0.78440173E+00
  0.81133384E+00  0.69040416E-01  0.63997617E+00
  0.45527806E+00  0.79712127E+00  0.28993658E+00
  0.38435010E+00  0.50863721E+00  0.37071471E+00
  0.48099290E+00  0.53579998E+00  0.18033735E+00
  0.70039385E+00  0.69195164E+00  0.93019516E+00
  0.22164576E+00  0.74669982E+00  0.21663371E+00
  0.40251704E+00  0.76840227E+00  0.11959139E+00
  0.29965170E+00  0.51910239E+00  0.25741652E+00
  0.89875134E+00  0.38246170E-01  0.85282818E+00
  0.35657984E+00  0.17985905E-01  0.67160357E+00
  0.85107106E+00  0.85922694E+00  0.43771804E+00
  0.53213849E+00  0.35886509E+00  0.26085402E+00
  0.73618972E+00  0.88285158E-01  0.91465421E+00
  0.64539098E+00  0.66887230E+00  0.89684255E-01
  0.95566887E+00  0.97420267E+00  0.65366161E+00
  0.99262989E+00  0.16192190E+00  0.48393441E+00
  0.41640202E+00  0.59578403E+00  0.64730711E+00
  0.82782858E+00  0.23119350E+00  0.23969553E+00
  0.59048556E+00  0.98481618E+00  0.25695228E+00
  0.86645442E+00  0.42850171E+00  0.52864253E+00
  0.37786314E+00  0.26966481E+00  0.43472448E+00
  0.24147631E+00  0.33263652E+00  0.41583367E+00
  0.20956802E+00  0.71740827E-01  0.41451219E+00
  0.59150795E+00  0.64235798E+00  0.68817239E+00
  0.76866655E-01  0.47745956E-02  0.57361023E+00
  0.77380541E-01  0.35604799E+00  0.44720860E+00
  0.91405209E+00  0.32938265E+00  0.41020277E+00
  0.48874526E+00  0.77741182E+00  0.99372283E+00
  0.93519180E+00  0.55478999E+00  0.71490870E-01
  0.71786291E+00  0.21973936E+00  0.34588554E-01
  0.26242811E+00  0.92315770E+00  0.33638658E+00
  0.33693702E+00  0.35105159E+00  0.79157158E-02
  0.44749348E+00  0.26373916E+00  0.17000063E+00
  0.48856983E+00  0.79601648E+00  0.49192914E+00
  0.54446577E+00  0.58459720E+00  0.91400375E+00
  0.73006717E+00  0.67281347E+00  0.44078103E+00
  0.91565713E-01  0.76327791E+00  0.23415410E+00
  0.93593524E+00  0.92981594E+00  0.52094705E+00
  0.60622141E+00  0.59009783E+00  0.55931247E+00
  0.30726804E+00  0.12461741E+00  0.16242257E+00
  0.29760952E+00  0.88122587E+00  0.92543882E-01
  0.32879180E+00  0.44369612E+00  0.14186451E+00
  0.85195325E-01  0.44677727E+00  0.50151678E-01
  0.40594484E+00  0.50100512E+00  0.86437571E+00
  0.38358705E+00  0.81772535E+00  0.65169939E+00
  0.81579168E+00  0.51649979E+00  0.65296357E+00
  0.58621257E-01  0.64111981E+00  0.53145846E+00
  0.21253251E+00  0.53903148E+00  0.90061112E+00
  0.32605043E+00  0.65984096E+00  0.28351878E+00
  0.90311070E+00  0.68357096E+00  0.96124352E+00
  0.51803941E+00  0.53269577E+00  0.32968746E+00
  0.74362491E+00  0.79979541E+00  0.70053194E+00
  0.44936128E+00  0.90856309E+00  0.36389755E-02
  0.85155746E+00  0.24620150E+00  0.69384195E+00
  0.90599469E+00  0.54926927E+00  0.76015085E+00
  0.42984191E+00  0.22078577E+00  0.54231714E+00
  0.62987622E+00  0.27445404E+00  0.27081932E+00
  0.92600604E+00  0.35334901E+00  0.75464950E+00
  0.63589238E+00  0.33707325E+00  0.40545233E+00
  0.16566166E+00  0.28824499E+00  0.85202460E+00
  0.35349075E+00  0.93054313E+00  0.79557054E+00
  0.72903840E+00  0.12035079E+00  0.43684292E+00
  0.20867368E+00  0.61399447E+00  0.16046782E+00
  0.29830398E+00  0.34147887E+00  0.51182142E+00
  0.13639107E+00  0.16556195E+00  0.50876838E-01
  0.62566416E+00  0.21038724E+00  0.49918149E+00
  0.46990174E+00  0.13585643E+00  0.33883047E+00
  0.14317392E+00  0.81161001E+00  0.92256768E+00
  0.89489374E-01  0.72499798E+00  0.68333982E+00
  0.63714914E+00  0.13033261E+00  0.33682492E+00
  0.77519619E+00  0.49305089E+00  0.40845570E+00
  0.85639792E+00  0.31335031E+00  0.60231780E-01
  0.93606018E+00  0.78675491E+00  0.83742952E+00
  0.16915788E+00  0.62824080E+00  0.77956485E+00
  0.75902711E+00  0.94810137E+00  0.17350985E+00
  0.66901550E+00  0.45294047E+00  0.76491411E+00
  0.88077645E+00  0.17424669E+00  0.41605259E+00
  0.84869578E+00  0.88397904E+00  0.72209373E+00
  0.13433487E+00  0.75650616E-01  0.28518757E+00
  0.20038123E+00  0.22301455E+00  0.64162748E+00
  0.55288291E+00  0.96051193E+00  0.39737862E+00
  0.20158322E+00  0.95314474E+00  0.86339130E+00
  0.13795123E-01  0.27584803E+00  0.98344149E+00
  0.77240902E+00  0.82667162E+00  0.76204747E-01
  0.11416013E+00  0.19300641E+00  0.39849221E+00
  0.56512995E+00  0.24525504E+00  0.76246964E+00
  0.97477216E+00  0.90052544E+00  0.27907571E+00
  0.97554187E+00  0.90214882E+00  0.93221783E+00
  0.78151876E+00  0.60560107E-01  0.55702284E+00
  0.19450185E-01  0.95174818E+00  0.99872307E+00
  0.52024795E+00  0.13122870E+00  0.19070962E-01
  0.95054670E-01  0.50302966E+00  0.66862012E+00
  0.11690947E+00  0.86479400E+00  0.83067362E+00
  0.48672456E+00  0.70371047E+00  0.85928140E+00
  0.38259379E+00  0.30473563E+00  0.86081452E+00
  0.46927579E+00  0.31243062E+00  0.95448328E+00
  0.82150071E+00  0.65795761E+00  0.78427275E+00
  0.53085495E-01  0.14306538E+00  0.77191012E+00
  0.18143172E+00  0.70940468E+00  0.37130344E+00
  0.16099681E+00  0.67720457E-01  0.76373051E+00
  0.63588705E+00  0.15002823E+00  0.62900192E+00
  0.12020612E+00  0.14624542E+00  0.90508447E+00
  0.73186153E+00  0.73766400E+00  0.93749707E+00
  0.35014350E+00  0.89932291E-01  0.82094436E+00
  0.99367520E+00  0.10810169E+00  0.18796746E+00
  0.39114471E+00  0.56737371E+00  0.51721823E+00
  0.28364477E-01  0.57285100E+00  0.18650922E+00
  0.33460518E+00  0.76354091E+00  0.81884518E+00
  0.29456726E+00  0.68426201E+00  0.99049236E+00
  0.94017242E+00  0.70708818E+00  0.64268854E+00
  0.21789783E+00  0.82459290E-03  0.99710779E+00
  0.92329207E+00  0.62495572E+00  0.31221300E+00
  0.87866753E-01  0.85644050E+00  0.70842053E+00
  0.00000000E+00  0.00000000E+00  0.00000000E+00
  0.00000000E+00  0.00000000E+00  0.00000000E+00
  0.00000000E+00  0.00000000E+00  0.00000000E+00
  0.00000000E+00  0.00000000E+00  0.00000000E+00
  0.00000000E+00  0.00000000E+00  0.00000000E+00
  0.00000000E+00  0.00000000E+00  0.00000000E+00
  0.00000000E+00  0.00000000E+00  0.00000000E+00
  0.00000000E+00  0.00000000E+00  0.00000000E+00
  0.00000000E+00  0.00000000E+00  0.00000000E+00
  0.00000000E+00  0.00000000E+00  0.00000000E+00
  0.00000000E+00  0.00000000E+00  0.00000000E+00
  0.00000000E+00  0.00000000E+00  0.00000000E+00
  0.00000000E+00  0.00000000E+00  0.00000000E+00
  0.00000000E+00  0.00000000E+00  0.00000000E+00
  0.00000000E+00  0.00000000E+00  0.00000000E+00
  0.00000000E+00  0.00000000E+00  0.00000000E+00
  0.00000000E+00  0.00000000E+00  0.00000000E+00
  0.00000000E+00  0.00000000E+00  0.00000000E+00
  0.00000000E+00  0.00000000E+00  0.00000000E+00
  0.00000000E+00  0.00000000E+00  0.00000000E+00
  0.00000000E+00  0.00000000E+00  0.00000000E+00
  0.00000000E+00  0.00000000E+00  0.00000000E+00
  0.00000000E+00  0.00000000E+00  0.00000000E+00
  0.00000000E+00  0.00000000E+00  0.00000000E+00
  0.00000000E+00  0.00000000E+00  0.00000000E+00
  0.00000000E+00  0.00000000E+00  0.00000000E+00
  0.00000000E+00  0.00000000E+00  0.00000000E+00
  0.00000000E+00  0.00000000E+00  0.00000000E+00
  0.00000000E+00  0.00000000E+00  0.00000000E+00
  0.00000000E+00  0.00000000E+00  0.00000000E+00
  0.00000000E+00  0.00000000E+00  0.00000000E+00
  0.00000000E+00  0.00000000E+00  0.00000000E+00
  0.00000000E+00  0.00000000E+00  0.00000000E+00
  0.00000000E+00  0.00000000E+00  0.00000000E+00
  0.00000000E+00  0.00000000E+00  0.00000000E+00
  0.00000000E+00  0.00000000E+00  0.00000000E+00
  0.00000000E+00  0.00000000E+00  0.00000000E+00
  0.00000000E+00  0.00000000E+00  0.00000000E+00
  0.00000000E+00  0.00000000E+00  0.00000000E+00
  0.00000000E+00  0.00000000E+00  0.00000000E+00
  0.00000000E+00  0.00000000E+00  0.00000000E+00
  0.00000000E+00  0.00000000E+00  0.00000000E+00
  0.00000000E+00  0.00000000E+00  0.00000000E+00
  0.00000000E+00  0.00000000E+00  0.00000000E+00
  0.00000000E+00  0.00000000E+00  0.00000000E+00
  0.00000000E+00  0.00000000E+00  0.00000000E+00
  0.00000000E+00  0.00000000E+00  0.00000000E+00
  0.00000000E+00  0.00000000E+00  0.00000000E+00
  0.00000000E+00  0.00000000E+00  0.00000000E+00
  0.00000000E+00  0.00000000E+00  0.00000000E+00
  0.00000000E+00  0.00000000E+00  0.00000000E+00
  0.00000000E+00  0.00000000E+00  0.00000000E+00
  0.00000000E+00  0.00000000E+00  0.00000000E+00
  0.00000000E+00  0.00000000E+00  0.00000000E+00
  0.00000000E+00  0.00000000E+00  0.00000000E+00
  0.00000000E+00  0.00000000E+00  0.00000000E+00
  0.00000000E+00  0.00000000E+00  0.00000000E+00
  0.00000000E+00  0.00000000E+00  0.00000000E+00
  0.00000000E+00  0.00000000E+00  0.00000000E+00
  0.00000000E+00  0.00000000E+00  0.00000000E+00
  0.00000000E+00  0.00000000E+00  0.00000000E+00
  0.00000000E+00  0.00000000E+00  0.00000000E+00
  0.00000000E+00  0.00000000E+00  0.00000000E+00
  0.00000000E+00  0.00000000E+00  0.00000000E+00
  0.00000000E+00  0.00000000E+00  0.00000000E+00
  0.00000000E+00  0.00000000E+00  0.00000000E+00
  0.00000000E+00  0.00000000E+00  0.00000000E+00
  0.00000000E+00  0.00000000E+00  0.00000000E+00
  0.00000000E+00  0.00000000E+00  0.00000000E+00
  0.00000000E+00  0.00000000E+00  0.00000000E+00
  0.00000000E+00  0.00000000E+00  0.00000000E+00
  0.00000000E+00  0.00000000E+00  0.00000000E+00
  0.00000000E+00  0.00000000E+00  0.00000000E+00
  0.00000000E+00  0.00000000E+00  0.00000000E+00
  0.00000000E+00  0.00000000E+00  0.00000000E+00
  0.00000000E+00  0.00000000E+00  0.00000000E+00
  0.00000000E+00  0.00000000E+00  0.00000000E+00
  0.00000000E+00  0.00000000E+00  0.00000000E+00
  0.00000000E+00  0.00000000E+00  0.00000000E+00
  0.00000000E+00  0.00000000E+00  0.00000000E+00
  0.00000000E+00  0.00000000E+00  0.00000000E+00
  0.00000000E+00  0.00000000E+00  0.00000000E+00
  0.00000000E+00  0.00000000E+00  0.00000000E+00
  0.00000000E+00  0.00000000E+00  0.00000000E+00
  0.00000000E+00  0.00000000E+00  0.00000000E+00
  0.00000000E+00  0.00000000E+00  0.00000000E+00
  0.00000000E+00  0.00000000E+00  0.00000000E+00
  0.00000000E+00  0.00000000E+00  0.00000000E+00
  0.00000000E+00  0.00000000E+00  0.00000000E+00
  0.00000000E+00  0.00000000E+00  0.00000000E+00
  0.00000000E+00  0.00000000E+00  0.00000000E+00
  0.00000000E+00  0.00000000E+00  0.00000000E+00
  0.00000000E+00  0.00000000E+00  0.00000000E+00
  0.00000000E+00  0.00000000E+00  0.00000000E+00
  0.00000000E+00  0.00000000E+00  0.00000000E+00
  0.00000000E+00  0.00000000E+00  0.00000000E+00
  0.00000000E+00  0.00000000E+00  0.00000000E+00
  0.00000000E+00  0.00000000E+00  0.00000000E+00
  0.00000000E+00  0.00000000E+00  0.00000000E+00
  0.00000000E+00  0.00000000E+00  0.00000000E+00
  0.00000000E+00  0.00000000E+00  0.00000000E+00
  0.00000000E+00  0.00000000E+00  0.00000000E+00
  0.00000000E+00  0.00000000E+00  0.00000000E+00
  0.00000000E+00  0.00000000E+00  0.00000000E+00
  0.00000000E+00  0.00000000E+00  0.00000000E+00
  0.00000000E+00  0.00000000E+00  0.00000000E+00
  0.00000000E+00  0.00000000E+00  0.00000000E+00
  0.00000000E+00  0.00000000E+00  0.00000000E+00
  0.00000000E+00  0.00000000E+00  0.00000000E+00
  0.00000000E+00  0.00000000E+00  0.00000000E+00
  0.00000000E+00  0.00000000E+00  0.00000000E+00
  0.00000000E+00  0.00000000E+00  0.00000000E+00
  0.00000000E+00  0.00000000E+00  0.00000000E+00
  0.00000000E+00  0.00000000E+00  0.00000000E+00
  0.00000000E+00  0.00000000E+00  0.00000000E+00
  0.00000000E+00  0.00000000E+00  0.00000000E+00
  0.00000000E+00  0.00000000E+00  0.00000000E+00
  0.00000000E+00  0.00000000E+00  0.00000000E+00
  0.00000000E+00  0.00000000E+00  0.00000000E+00
  0.00000000E+00  0.00000000E+00  0.00000000E+00
  0.00000000E+00  0.00000000E+00  0.00000000E+00
  0.00000000E+00  0.00000000E+00  0.00000000E+00
  0.00000000E+00  0.00000000E+00  0.00000000E+00
  0.00000000E+00  0.00000000E+00  0.00000000E+00
  0.00000000E+00  0.00000000E+00  0.00000000E+00
  0.00000000E+00  0.00000000E+00  0.00000000E+00
  0.00000000E+00  0.00000000E+00  0.00000000E+00
  0.00000000E+00  0.00000000E+00  0.00000000E+00
  0.00000000E+00  0.00000000E+00  0.00000000E+00
  0.00000000E+00  0.00000000E+00  0.00000000E+00
  0.00000000E+00  0.00000000E+00  0.00000000E+00
  0.00000000E+00  0.00000000E+00  0.00000000E+00
  0.00000000E+00  0.00000000E+00  0.00000000E+00
  0.00000000E+00  0.00000000E+00  0.00000000E+00
  0.00000000E+00  0.00000000E+00  0.00000000E+00
  0.00000000E+00  0.00000000E+00  0.00000000E+00
  0.00000000E+00  0.00000000E+00  0.00000000E+00
  0.00000000E+00  0.00000000E+00  0.00000000E+00
  0.00000000E+00  0.00000000E+00  0.00000000E+00
  0.00000000E+00  0.00000000E+00  0.00000000E+00
  0.00000000E+00  0.00000000E+00  0.00000000E+00
  0.00000000E+00  0.00000000E+00  0.00000000E+00
  0.00000000E+00  0.00000000E+00  0.00000000E+00
  0.00000000E+00  0.00000000E+00  0.00000000E+00
  0.00000000E+00  0.00000000E+00  0.00000000E+00
  0.00000000E+00  0.00000000E+00  0.00000000E+00
  0.00000000E+00  0.00000000E+00  0.00000000E+00
  0.00000000E+00  0.00000000E+00  0.00000000E+00
  0.00000000E+00  0.00000000E+00  0.00000000E+00
  0.00000000E+00  0.00000000E+00  0.00000000E+00
  0.00000000E+00  0.00000000E+00  0.00000000E+00
  0.00000000E+00  0.00000000E+00  0.00000000E+00
  0.00000000E+00  0.00000000E+00  0.00000000E+00
  0.00000000E+00  0.00000000E+00  0.00000000E+00
  0.00000000E+00  0.00000000E+00  0.00000000E+00
  0.00000000E+00  0.00000000E+00  0.00000000E+00
  0.00000000E+00  0.00000000E+00  0.00000000E+00
  0.00000000E+00  0.00000000E+00  0.00000000E+00
  0.00000000E+00  0.00000000E+00  0.00000000E+00
  0.00000000E+00  0.00000000E+00  0.00000000E+00
  0.00000000E+00  0.00000000E+00  0.00000000E+00
  0.00000000E+00  0.00000000E+00  0.00000000E+00
  0.00000000E+00  0.00000000E+00  0.00000000E+00
  0.00000000E+00  0.00000000E+00  0.00000000E+00
  0.00000000E+00  0.00000000E+00  0.00000000E+00
  0.00000000E+00  0.00000000E+00  0.00000000E+00
  0.00000000E+00  0.00000000E+00  0.00000000E+00
  0.00000000E+00  0.00000000E+00  0.00000000E+00
  0.00000000E+00  0.00000000E+00  0.00000000E+00
  0.00000000E+00  0.00000000E+00  0.00000000E+00
  0.00000000E+00  0.00000000E+00  0.00000000E+00
  0.00000000E+00  0.00000000E+00  0.00000000E+00
  0.00000000E+00  0.00000000E+00  0.00000000E+00
  0.00000000E+00  0.00000000E+00  0.00000000E+00
  0.00000000E+00  0.00000000E+00  0.00000000E+00
  0.00000000E+00  0.00000000E+00  0.00000000E+00
  0.00000000E+00  0.00000000E+00  0.00000000E+00
  0.00000000E+00  0.00000000E+00  0.00000000E+00
  0.00000000E+00  0.00000000E+00  0.00000000E+00
  0.00000000E+00  0.00000000E+00  0.00000000E+00
  0.00000000E+00  0.00000000E+00  0.00000000E+00
  0.00000000E+00  0.00000000E+00  0.00000000E+00
  0.00000000E+00  0.00000000E+00  0.00000000E+00
  0.00000000E+00  0.00000000E+00  0.00000000E+00
  0.00000000E+00  0.00000000E+00  0.00000000E+00
  0.00000000E+00  0.00000000E+00  0.00000000E+00
  0.00000000E+00  0.00000000E+00  0.00000000E+00
  0.00000000E+00  0.00000000E+00  0.00000000E+00
  0.00000000E+00  0.00000000E+00  0.00000000E+00
  0.00000000E+00  0.00000000E+00  0.00000000E+00
  0.00000000E+00  0.00000000E+00  0.00000000E+00
  0.00000000E+00  0.00000000E+00  0.00000000E+00
  0.00000000E+00  0.00000000E+00  0.00000000E+00
  0.00000000E+00  0.00000000E+00  0.00000000E+00
  0.00000000E+00  0.00000000E+00  0.00000000E+00
  0.00000000E+00  0.00000000E+00  0.00000000E+00
  0.00000000E+00  0.00000000E+00  0.00000000E+00
  0.00000000E+00  0.00000000E+00  0.00000000E+00
  0.00000000E+00  0.00000000E+00  0.00000000E+00
  0.00000000E+00  0.00000000E+00  0.00000000E+00
  0.00000000E+00  0.00000000E+00  0.00000000E+00
  0.00000000E+00  0.00000000E+00  0.00000000E+00
  0.00000000E+00  0.00000000E+00  0.00000000E+00
  0.00000000E+00  0.00000000E+00  0.00000000E+00
  0.00000000E+00  0.00000000E+00  0.00000000E+00
  0.00000000E+00  0.00000000E+00  0.00000000E+00
  0.00000000E+00  0.00000000E+00  0.00000000E+00
  0.00000000E+00  0.00000000E+00  0.00000000E+00
  0.00000000E+00  0.00000000E+00  0.00000000E+00
  0.00000000E+00  0.00000000E+00  0.00000000E+00
  0.00000000E+00  0.00000000E+00  0.00000000E+00
  0.00000000E+00  0.00000000E+00  0.00000000E+00
  0.00000000E+00  0.00000000E+00  0.00000000E+00
  0.00000000E+00  0.00000000E+00  0.00000000E+00
  0.00000000E+00  0.00000000E+00  0.00000000E+00
  0.00000000E+00  0.00000000E+00  0.00000000E+00
  0.00000000E+00  0.00000000E+00  0.00000000E+00
  0.00000000E+00  0.00000000E+00  0.00000000E+00
  0.00000000E+00  0.00000000E+00  0.00000000E+00
  0.00000000E+00  0.00000000E+00  0.00000000E+00
  0.00000000E+00  0.00000000E+00  0.00000000E+00
  0.00000000E+00  0.00000000E+00  0.00000000E+00
  0.00000000E+00  0.00000000E+00  0.00000000E+00
  0.00000000E+00  0.00000000E+00  0.00000000E+00
  0.00000000E+00  0.00000000E+00  0.00000000E+00
  0.00000000E+00  0.00000000E+00  0.00000000E+00
  0.00000000E+00  0.00000000E+00  0.00000000E+00
  0.00000000E+00  0.00000000E+00  0.00000000E+00
  0.00000000E+00  0.00000000E+00  0.00000000E+00
  0.00000000E+00  0.00000000E+00  0.00000000E+00
  0.00000000E+00  0.00000000E+00  0.00000000E+00
  0.00000000E+00  0.00000000E+00  0.00000000E+00
  0.00000000E+00  0.00000000E+00  0.00000000E+00
  0.00000000E+00  0.00000000E+00  0.00000000E+00
  0.00000000E+00  0.00000000E+00  0.00000000E+00
  0.00000000E+00  0.00000000E+00  0.00000000E+00
  0.00000000E+00  0.00000000E+00  0.00000000E+00
  0.00000000E+00  0.00000000E+00  0.00000000E+00
  0.00000000E+00  0.00000000E+00  0.00000000E+00
  0.00000000E+00  0.00000000E+00  0.00000000E+00
  0.00000000E+00  0.00000000E+00  0.00000000E+00
  0.00000000E+00  0.00000000E+00  0.00000000E+00
  0.00000000E+00  0.00000000E+00  0.00000000E+00
  0.00000000E+00  0.00000000E+00  0.00000000E+00
  0.00000000E+00  0.00000000E+00  0.00000000E+00
  0.00000000E+00  0.00000000E+00  0.00000000E+00
  0.00000000E+00  0.00000000E+00  0.00000000E+00
  0.00000000E+00  0.00000000E+00  0.00000000E+00
  0.00000000E+00  0.00000000E+00  0.00000000E+00
  0.00000000E+00  0.00000000E+00  0.00000000E+00
  0.00000000E+00  0.00000000E+00  0.00000000E+00
  0.00000000E+00  0.00000000E+00  0.00000000E+00
  0.00000000E+00  0.00000000E+00  0.00000000E+00
  0.00000000E+00  0.00000000E+00  0.00000000E+00
  0.00000000E+00  0.00000000E+00  0.00000000E+00
  0.00000000E+00  0.00000000E+00  0.00000000E+00
  0.00000000E+00  0.00000000E+00  0.00000000E+00
  0.00000000E+00  0.00000000E+00  0.00000000E+00
  0.00000000E+00  0.00000000E+00  0.00000000E+00
  0.00000000E+00  0.00000000E+00  0.00000000E+00
  0.00000000E+00  0.00000000E+00  0.00000000E+00
  0.00000000E+00  0.00000000E+00  0.00000000E+00
  0.00000000E+00  0.00000000E+00  0.00000000E+00
  0.00000000E+00  0.00000000E+00  0.00000000E+00
  0.00000000E+00  0.00000000E+00  0.00000000E+00
  0.00000000E+00  0.00000000E+00  0.00000000E+00
  0.00000000E+00  0.00000000E+00  0.00000000E+00
  0.00000000E+00  0.00000000E+00  0.00000000E+00
  0.00000000E+00  0.00000000E+00  0.00000000E+00
  0.00000000E+00  0.00000000E+00  0.00000000E+00
  0.00000000E+00  0.00000000E+00  0.00000000E+00
  0.00000000E+00  0.00000000E+00  0.00000000E+00
  0.00000000E+00  0.00000000E+00  0.00000000E+00
  0.00000000E+00  0.00000000E+00  0.00000000E+00
  0.00000000E+00  0.00000000E+00  0.00000000E+00
  0.00000000E+00  0.00000000E+00  0.00000000E+00
  0.00000000E+00  0.00000000E+00  0.00000000E+00
  0.00000000E+00  0.00000000E+00  0.00000000E+00
  0.00000000E+00  0.00000000E+00  0.00000000E+00
  0.00000000E+00  0.00000000E+00  0.00000000E+00
  0.00000000E+00  0.00000000E+00  0.00000000E+00
  0.00000000E+00  0.00000000E+00  0.00000000E+00
  0.00000000E+00  0.00000000E+00  0.00000000E+00
  0.00000000E+00  0.00000000E+00  0.00000000E+00
  0.00000000E+00  0.00000000E+00  0.00000000E+00
  0.00000000E+00  0.00000000E+00  0.00000000E+00
  0.00000000E+00  0.00000000E+00  0.00000000E+00
  0.00000000E+00  0.00000000E+00  0.00000000E+00
  0.00000000E+00  0.00000000E+00  0.00000000E+00
  0.00000000E+00  0.00000000E+00  0.00000000E+00
  0.00000000E+00  0.00000000E+00  0.00000000E+00
  0.00000000E+00  0.00000000E+00  0.00000000E+00
  0.00000000E+00  0.00000000E+00  0.00000000E+00
  0.00000000E+00  0.00000000E+00  0.00000000E+00
  0.00000000E+00  0.00000000E+00  0.00000000E+00
  0.00000000E+00  0.00000000E+00  0.00000000E+00
  0.00000000E+00  0.00000000E+00  0.00000000E+00
  0.00000000E+00  0.00000000E+00  0.00000000E+00
  0.00000000E+00  0.00000000E+00  0.00000000E+00
  0.00000000E+00  0.00000000E+00  0.00000000E+00
  0.00000000E+00  0.00000000E+00  0.00000000E+00
  0.00000000E+00  0.00000000E+00  0.00000000E+00
  0.00000000E+00  0.00000000E+00  0.00000000E+00
  0.00000000E+00  0.00000000E+00  0.00000000E+00
  0.00000000E+00  0.00000000E+00  0.00000000E+00
  0.00000000E+00  0.00000000E+00  0.00000000E+00
  0.00000000E+00  0.00000000E+00  0.00000000E+00
  0.00000000E+00  0.00000000E+00  0.00000000E+00
  0.00000000E+00  0.00000000E+00  0.00000000E+00
  0.00000000E+00  0.00000000E+00  0.00000000E+00
  0.00000000E+00  0.00000000E+00  0.00000000E+00
  0.00000000E+00  0.00000000E+00  0.00000000E+00
  0.00000000E+00  0.00000000E+00  0.00000000E+00
  0.00000000E+00  0.00000000E+00  0.00000000E+00
  0.00000000E+00  0.00000000E+00  0.00000000E+00
  0.00000000E+00  0.00000000E+00  0.00000000E+00
  0.00000000E+00  0.00000000E+00  0.00000000E+00
  0.00000000E+00  0.00000000E+00  0.00000000E+00
  0.00000000E+00  0.00000000E+00  0.00000000E+00
  0.00000000E+00  0.00000000E+00  0.00000000E+00
  0.00000000E+00  0.00000000E+00  0.00000000E+00
  0.00000000E+00  0.00000000E+00  0.00000000E+00
  0.00000000E+00  0.00000000E+00  0.00000000E+00
  0.00000000E+00  0.00000000E+00  0.00000000E+00
  0.00000000E+00  0.00000000E+00  0.00000000E+00
  0.00000000E+00  0.00000000E+00  0.00000000E+00
  0.00000000E+00  0.00000000E+00  0.00000000E+00
  0.00000000E+00  0.00000000E+00  0.00000000E+00
  0.00000000E+00  0.00000000E+00  0.00000000E+00
  0.00000000E+00  0.00000000E+00  0.00000000E+00
  0.00000000E+00  0.00000000E+00  0.00000000E+00
  0.00000000E+00  0.00000000E+00  0.00000000E+00
  0.00000000E+00  0.00000000E+00  0.00000000E+00
  0.00000000E+00  0.00000000E+00  0.00000000E+00
  0.00000000E+00  0.00000000E+00  0.00000000E+00
  0.00000000E+00  0.00000000E+00  0.00000000E+00
  0.00000000E+00  0.00000000E+00  0.00000000E+00
  0.00000000E+00  0.00000000E+00  0.00000000E+00
  0.00000000E+00  0.00000000E+00  0.00000000E+00
  0.00000000E+00  0.00000000E+00  0.00000000E+00
  0.00000000E+00  0.00000000E+00  0.00000000E+00
  0.00000000E+00  0.00000000E+00  0.00000000E+00
  0.00000000E+00  0.00000000E+00  0.00000000E+00
  0.00000000E+00  0.00000000E+00  0.00000000E+00
  0.00000000E+00  0.00000000E+00  0.00000000E+00
  0.00000000E+00  0.00000000E+00  0.00000000E+00
  0.00000000E+00  0.00000000E+00  0.00000000E+00
  0.00000000E+00  0.00000000E+00  0.00000000E+00
  0.00000000E+00  0.00000000E+00  0.00000000E+00
  0.00000000E+00  0.00000000E+00  0.00000000E+00
  0.00000000E+00  0.00000000E+00  0.00000000E+00
  0.00000000E+00  0.00000000E+00  0.00000000E+00
  0.00000000E+00  0.00000000E+00  0.00000000E+00
  0.00000000E+00  0.00000000E+00  0.00000000E+00
  0.00000000E+00  0.00000000E+00  0.00000000E+00
  0.00000000E+00  0.00000000E+00  0.00000000E+00
  0.00000000E+00  0.00000000E+00  0.00000000E+00
  0.00000000E+00  0.00000000E+00  0.00000000E+00
  0.00000000E+00  0.00000000E+00  0.00000000E+00
  0.00000000E+00  0.00000000E+00  0.00000000E+00
  0.00000000E+00  0.00000000E+00  0.00000000E+00
  0.00000000E+00  0.00000000E+00  0.00000000E+00
  0.00000000E+00  0.00000000E+00  0.00000000E+00
  0.00000000E+00  0.00000000E+00  0.00000000E+00
  0.00000000E+00  0.00000000E+00  0.00000000E+00
  0.00000000E+00  0.00000000E+00  0.00000000E+00
  0.00000000E+00  0.00000000E+00  0.00000000E+00
  0.00000000E+00  0.00000000E+00  0.00000000E+00
  0.00000000E+00  0.00000000E+00  0.00000000E+00
  0.00000000E+00  0.00000000E+00  0.00000000E+00
  0.00000000E+00  0.00000000E+00  0.00000000E+00
  0.00000000E+00  0.00000000E+00  0.00000000E+00
  0.00000000E+00  0.00000000E+00  0.00000000E+00
  0.00000000E+00  0.00000000E+00  0.00000000E+00
  0.00000000E+00  0.00000000E+00  0.00000000E+00
  0.00000000E+00  0.00000000E+00  0.00000000E+00
  0.00000000E+00  0.00000000E+00  0.00000000E+00
  0.00000000E+00  0.00000000E+00  0.00000000E+00
  0.00000000E+00  0.00000000E+00  0.00000000E+00
  0.00000000E+00  0.00000000E+00  0.00000000E+00
  0.00000000E+00  0.00000000E+00  0.00000000E+00
  0.00000000E+00  0.00000000E+00  0.00000000E+00
  0.00000000E+00  0.00000000E+00  0.00000000E+00
  0.00000000E+00  0.00000000E+00  0.00000000E+00
  0.00000000E+00  0.00000000E+00  0.00000000E+00
  0.00000000E+00  0.00000000E+00  0.00000000E+00
  0.00000000E+00  0.00000000E+00  0.00000000E+00
  0.00000000E+00  0.00000000E+00  0.00000000E+00
  0.00000000E+00  0.00000000E+00  0.00000000E+00
  0.00000000E+00  0.00000000E+00  0.00000000E+00
  0.00000000E+00  0.00000000E+00  0.00000000E+00
  0.00000000E+00  0.00000000E+00  0.00000000E+00
  0.00000000E+00  0.00000000E+00  0.00000000E+00
  0.00000000E+00  0.00000000E+00  0.00000000E+00
  0.00000000E+00  0.00000000E+00  0.00000000E+00
  0.00000000E+00  0.00000000E+00  0.00000000E+00
  0.00000000E+00  0.00000000E+00  0.00000000E+00
  0.00000000E+00  0.00000000E+00  0.00000000E+00
  0.00000000E+00  0.00000000E+00  0.00000000E+00
  0.00000000E+00  0.00000000E+00  0.00000000E+00
  0.00000000E+00  0.00000000E+00  0.00000000E+00
  0.00000000E+00  0.00000000E+00  0.00000000E+00
  0.00000000E+00  0.00000000E+00  0.00000000E+00
  0.00000000E+00  0.00000000E+00  0.00000000E+00
  0.00000000E+00  0.00000000E+00  0.00000000E+00
  0.00000000E+00  0.00000000E+00  0.00000000E+00
  0.00000000E+00  0.00000000E+00  0.00000000E+00
  0.00000000E+00  0.00000000E+00  0.00000000E+00
  0.00000000E+00  0.00000000E+00  0.00000000E+00
  0.00000000E+00  0.00000000E+00  0.00000000E+00
  0.00000000E+00  0.00000000E+00  0.00000000E+00
  0.00000000E+00  0.00000000E+00  0.00000000E+00
  0.00000000E+00  0.00000000E+00  0.00000000E+00
  0.00000000E+00  0.00000000E+00  0.00000000E+00
  0.00000000E+00  0.00000000E+00  0.00000000E+00
  0.00000000E+00  0.00000000E+00  0.00000000E+00
  0.00000000E+00  0.00000000E+00  0.00000000E+00
  0.00000000E+00  0.00000000E+00  0.00000000E+00
  0.00000000E+00  0.00000000E+00  0.00000000E+00
  0.00000000E+00  0.00000000E+00  0.00000000E+00
  0.00000000E+00  0.00000000E+00  0.00000000E+00
  0.00000000E+00  0.00000000E+00  0.00000000E+00
  0.00000000E+00  0.00000000E+00  0.00000000E+00
  0.00000000E+00  0.00000000E+00  0.00000000E+00
  0.00000000E+00  0.00000000E+00  0.00000000E+00
  0.00000000E+00  0.00000000E+00  0.00000000E+00
  0.00000000E+00  0.00000000E+00  0.00000000E+00
  0.00000000E+00  0.00000000E+00  0.00000000E+00
  0.00000000E+00  0.00000000E+00  0.00000000E+00
  0.00000000E+00  0.00000000E+00  0.00000000E+00
  0.00000000E+00  0.00000000E+00  0.00000000E+00
  0.00000000E+00  0.00000000E+00  0.00000000E+00
  0.00000000E+00  0.00000000E+00  0.00000000E+00
  0.00000000E+00  0.00000000E+00  0.00000000E+00
  0.00000000E+00  0.00000000E+00  0.00000000E+00
  0.00000000E+00  0.00000000E+00  0.00000000E+00
  0.00000000E+00  0.00000000E+00  0.00000000E+00
  0.00000000E+00  0.00000000E+00  0.00000000E+00
  0.00000000E+00  0.00000000E+00  0.00000000E+00
  0.00000000E+00  0.00000000E+00  0.00000000E+00
  0.00000000E+00  0.00000000E+00  0.00000000E+00
  0.00000000E+00  0.00000000E+00  0.00000000E+00
  0.00000000E+00  0.00000000E+00  0.00000000E+00
  0.00000000E+00  0.00000000E+00  0.00000000E+00
  0.00000000E+00  0.00000000E+00  0.00000000E+00
  0.00000000E+00  0.00000000E+00  0.00000000E+00
  0.00000000E+00  0.00000000E+00  0.00000000E+00
  0.00000000E+00  0.00000000E+00  0.00000000E+00
  0.00000000E+00  0.00000000E+00  0.00000000E+00
  0.00000000E+00  0.00000000E+00  0.00000000E+00
  0.00000000E+00  0.00000000E+00  0.00000000E+00
  0.00000000E+00  0.00000000E+00  0.00000000E+00
  0.00000000E+00  0.00000000E+00  0.00000000E+00
  0.00000000E+00  0.00000000E+00  0.00000000E+00
  0.00000000E+00  0.00000000E+00  0.00000000E+00
  0.00000000E+00  0.00000000E+00  0.00000000E+00
  0.00000000E+00  0.00000000E+00  0.00000000E+00
  0.00000000E+00  0.00000000E+00  0.00000000E+00
  0.00000000E+00  0.00000000E+00  0.00000000E+00
  0.00000000E+00  0.00000000E+00  0.00000000E+00
  0.00000000E+00  0.00000000E+00  0.00000000E+00
  0.00000000E+00  0.00000000E+00  0.00000000E+00
  0.00000000E+00  0.00000000E+00  0.00000000E+00
  0.00000000E+00  0.00000000E+00  0.00000000E+00
