This file is generated by VASPKIT code
 1.000000
   42.5376818413898192   -9.7007463582229008  -14.0089517366549448
    0.0000000007737078   29.9949931219359236   -7.1191160950540002
    0.0000000000785718   -0.0000000000683340   46.8891647955269235
   C    H 
  2079  4212
Direct
    0.2027621068220067    0.4207894123411640    0.4855278136032309      C1
    0.2027621068220067    0.4207894123411640    0.8188611469365643      C2
    0.2027621068220067    0.4207894123411640    0.1521944802698976      C3
    0.2027621068220067    0.7541227456744972    0.4855278136032309      C4
    0.2027621068220067    0.7541227456744972    0.8188611469365643      C5
    0.2027621068220067    0.7541227456744972    0.1521944802698976      C6
    0.2027621068220067    0.0874560790078305    0.4855278136032309      C7
    0.2027621068220067    0.0874560790078305    0.8188611469365643      C8
    0.2027621068220067    0.0874560790078305    0.1521944802698976      C9
    0.5360954401553399    0.4207894123411640    0.4855278136032309     C10
    0.5360954401553399    0.4207894123411640    0.8188611469365643     C11
    0.5360954401553399    0.4207894123411640    0.1521944802698976     C12
    0.5360954401553399    0.7541227456744972    0.4855278136032309     C13
    0.5360954401553399    0.7541227456744972    0.8188611469365643     C14
    0.5360954401553399    0.7541227456744972    0.1521944802698976     C15
    0.5360954401553399    0.0874560790078305    0.4855278136032309     C16
    0.5360954401553399    0.0874560790078305    0.8188611469365643     C17
    0.5360954401553399    0.0874560790078305    0.1521944802698976     C18
    0.8694287734886733    0.4207894123411640    0.4855278136032309     C19
    0.8694287734886733    0.4207894123411640    0.8188611469365643     C20
    0.8694287734886733    0.4207894123411640    0.1521944802698976     C21
    0.8694287734886733    0.7541227456744972    0.4855278136032309     C22
    0.8694287734886733    0.7541227456744972    0.8188611469365643     C23
    0.8694287734886733    0.7541227456744972    0.1521944802698976     C24
    0.8694287734886733    0.0874560790078305    0.4855278136032309     C25
    0.8694287734886733    0.0874560790078305    0.8188611469365643     C26
    0.8694287734886733    0.0874560790078305    0.1521944802698976     C27
    0.1486412657059523    0.1905316392188778    0.4487827741848236     C28
    0.1486412657059523    0.1905316392188778    0.7821161075181570     C29
    0.1486412657059523    0.1905316392188778    0.1154494408514903     C30
    0.1486412657059523    0.5238649725522111    0.4487827741848236     C31
    0.1486412657059523    0.5238649725522111    0.7821161075181570     C32
    0.1486412657059523    0.5238649725522111    0.1154494408514903     C33
    0.1486412657059523    0.8571983058855445    0.4487827741848236     C34
    0.1486412657059523    0.8571983058855445    0.7821161075181570     C35
    0.1486412657059523    0.8571983058855445    0.1154494408514903     C36
    0.4819745990392856    0.1905316392188778    0.4487827741848236     C37
    0.4819745990392856    0.1905316392188778    0.7821161075181570     C38
    0.4819745990392856    0.1905316392188778    0.1154494408514903     C39
    0.4819745990392856    0.5238649725522111    0.4487827741848236     C40
    0.4819745990392856    0.5238649725522111    0.7821161075181570     C41
    0.4819745990392856    0.5238649725522111    0.1154494408514903     C42
    0.4819745990392856    0.8571983058855445    0.4487827741848236     C43
    0.4819745990392856    0.8571983058855445    0.7821161075181570     C44
    0.4819745990392856    0.8571983058855445    0.1154494408514903     C45
    0.8153079323726189    0.1905316392188778    0.4487827741848236     C46
    0.8153079323726189    0.1905316392188778    0.7821161075181570     C47
    0.8153079323726189    0.1905316392188778    0.1154494408514903     C48
    0.8153079323726189    0.5238649725522111    0.4487827741848236     C49
    0.8153079323726189    0.5238649725522111    0.7821161075181570     C50
    0.8153079323726189    0.5238649725522111    0.1154494408514903     C51
    0.8153079323726189    0.8571983058855445    0.4487827741848236     C52
    0.8153079323726189    0.8571983058855445    0.7821161075181570     C53
    0.8153079323726189    0.8571983058855445    0.1154494408514903     C54
    0.2013675262000534    0.1583184983867858    0.5665027221082981     C55
    0.2013675262000534    0.1583184983867858    0.8998360554416314     C56
    0.2013675262000534    0.1583184983867858    0.2331693887749646     C57
    0.2013675262000534    0.4916518317201192    0.5665027221082981     C58
    0.2013675262000534    0.4916518317201192    0.8998360554416314     C59
    0.2013675262000534    0.4916518317201192    0.2331693887749646     C60
    0.2013675262000534    0.8249851650534525    0.5665027221082981     C61
    0.2013675262000534    0.8249851650534525    0.8998360554416314     C62
    0.2013675262000534    0.8249851650534525    0.2331693887749646     C63
    0.5347008595333868    0.1583184983867858    0.5665027221082981     C64
    0.5347008595333868    0.1583184983867858    0.8998360554416314     C65
    0.5347008595333868    0.1583184983867858    0.2331693887749646     C66
    0.5347008595333868    0.4916518317201192    0.5665027221082981     C67
    0.5347008595333868    0.4916518317201192    0.8998360554416314     C68
    0.5347008595333868    0.4916518317201192    0.2331693887749646     C69
    0.5347008595333868    0.8249851650534525    0.5665027221082981     C70
    0.5347008595333868    0.8249851650534525    0.8998360554416314     C71
    0.5347008595333868    0.8249851650534525    0.2331693887749646     C72
    0.8680341928667201    0.1583184983867858    0.5665027221082981     C73
    0.8680341928667201    0.1583184983867858    0.8998360554416314     C74
    0.8680341928667201    0.1583184983867858    0.2331693887749646     C75
    0.8680341928667201    0.4916518317201192    0.5665027221082981     C76
    0.8680341928667201    0.4916518317201192    0.8998360554416314     C77
    0.8680341928667201    0.4916518317201192    0.2331693887749646     C78
    0.8680341928667201    0.8249851650534525    0.5665027221082981     C79
    0.8680341928667201    0.8249851650534525    0.8998360554416314     C80
    0.8680341928667201    0.8249851650534525    0.2331693887749646     C81
    0.1610658503551887    0.1723015240686230    0.4222815693281286     C82
    0.1610658503551887    0.1723015240686230    0.7556149026614618     C83
    0.1610658503551887    0.1723015240686230    0.0889482359947951     C84
    0.1610658503551887    0.5056348574019564    0.4222815693281286     C85
    0.1610658503551887    0.5056348574019564    0.7556149026614618     C86
    0.1610658503551887    0.5056348574019564    0.0889482359947951     C87
    0.1610658503551887    0.8389681907352897    0.4222815693281286     C88
    0.1610658503551887    0.8389681907352897    0.7556149026614618     C89
    0.1610658503551887    0.8389681907352897    0.0889482359947951     C90
    0.4943991836885220    0.1723015240686230    0.4222815693281286     C91
    0.4943991836885220    0.1723015240686230    0.7556149026614618     C92
    0.4943991836885220    0.1723015240686230    0.0889482359947951     C93
    0.4943991836885220    0.5056348574019564    0.4222815693281286     C94
    0.4943991836885220    0.5056348574019564    0.7556149026614618     C95
    0.4943991836885220    0.5056348574019564    0.0889482359947951     C96
    0.4943991836885220    0.8389681907352897    0.4222815693281286     C97
    0.4943991836885220    0.8389681907352897    0.7556149026614618     C98
    0.4943991836885220    0.8389681907352897    0.0889482359947951     C99
    0.8277325170218554    0.1723015240686230    0.4222815693281286    C100
    0.8277325170218554    0.1723015240686230    0.7556149026614618    C101
    0.8277325170218554    0.1723015240686230    0.0889482359947951    C102
    0.8277325170218554    0.5056348574019564    0.4222815693281286    C103
    0.8277325170218554    0.5056348574019564    0.7556149026614618    C104
    0.8277325170218554    0.5056348574019564    0.0889482359947951    C105
    0.8277325170218554    0.8389681907352897    0.4222815693281286    C106
    0.8277325170218554    0.8389681907352897    0.7556149026614618    C107
    0.8277325170218554    0.8389681907352897    0.0889482359947951    C108
    0.9343055514644473    0.3144718615477161    0.0542819771461447    C109
    0.9343055514644473    0.3144718615477161    0.3876153104794780    C110
    0.9343055514644473    0.3144718615477161    0.7209486438128114    C111
    0.9343055514644473    0.6478051948810495    0.0542819771461447    C112
    0.9343055514644473    0.6478051948810495    0.3876153104794780    C113
    0.9343055514644473    0.6478051948810495    0.7209486438128114    C114
    0.9343055514644473    0.9811385282143827    0.0542819771461447    C115
    0.9343055514644473    0.9811385282143827    0.3876153104794780    C116
    0.9343055514644473    0.9811385282143827    0.7209486438128114    C117
    0.2676388847977806    0.3144718615477161    0.0542819771461447    C118
    0.2676388847977806    0.3144718615477161    0.3876153104794780    C119
    0.2676388847977806    0.3144718615477161    0.7209486438128114    C120
    0.2676388847977806    0.6478051948810495    0.0542819771461447    C121
    0.2676388847977806    0.6478051948810495    0.3876153104794780    C122
    0.2676388847977806    0.6478051948810495    0.7209486438128114    C123
    0.2676388847977806    0.9811385282143827    0.0542819771461447    C124
    0.2676388847977806    0.9811385282143827    0.3876153104794780    C125
    0.2676388847977806    0.9811385282143827    0.7209486438128114    C126
    0.6009722181311139    0.3144718615477161    0.0542819771461447    C127
    0.6009722181311139    0.3144718615477161    0.3876153104794780    C128
    0.6009722181311139    0.3144718615477161    0.7209486438128114    C129
    0.6009722181311139    0.6478051948810495    0.0542819771461447    C130
    0.6009722181311139    0.6478051948810495    0.3876153104794780    C131
    0.6009722181311139    0.6478051948810495    0.7209486438128114    C132
    0.6009722181311139    0.9811385282143827    0.0542819771461447    C133
    0.6009722181311139    0.9811385282143827    0.3876153104794780    C134
    0.6009722181311139    0.9811385282143827    0.7209486438128114    C135
    0.9811455444245255    0.2329361847396805    0.0234012319480056    C136
    0.9811455444245255    0.2329361847396805    0.3567345652813390    C137
    0.9811455444245255    0.2329361847396805    0.6900678986146722    C138
    0.9811455444245255    0.5662695180730137    0.0234012319480056    C139
    0.9811455444245255    0.5662695180730137    0.3567345652813390    C140
    0.9811455444245255    0.5662695180730137    0.6900678986146722    C141
    0.9811455444245255    0.8996028514063471    0.0234012319480056    C142
    0.9811455444245255    0.8996028514063471    0.3567345652813390    C143
    0.9811455444245255    0.8996028514063471    0.6900678986146722    C144
    0.3144788777578589    0.2329361847396805    0.0234012319480056    C145
    0.3144788777578589    0.2329361847396805    0.3567345652813390    C146
    0.3144788777578589    0.2329361847396805    0.6900678986146722    C147
    0.3144788777578589    0.5662695180730137    0.0234012319480056    C148
    0.3144788777578589    0.5662695180730137    0.3567345652813390    C149
    0.3144788777578589    0.5662695180730137    0.6900678986146722    C150
    0.3144788777578589    0.8996028514063471    0.0234012319480056    C151
    0.3144788777578589    0.8996028514063471    0.3567345652813390    C152
    0.3144788777578589    0.8996028514063471    0.6900678986146722    C153
    0.6478122110911921    0.2329361847396805    0.0234012319480056    C154
    0.6478122110911921    0.2329361847396805    0.3567345652813390    C155
    0.6478122110911921    0.2329361847396805    0.6900678986146722    C156
    0.6478122110911921    0.5662695180730137    0.0234012319480056    C157
    0.6478122110911921    0.5662695180730137    0.3567345652813390    C158
    0.6478122110911921    0.5662695180730137    0.6900678986146722    C159
    0.6478122110911921    0.8996028514063471    0.0234012319480056    C160
    0.6478122110911921    0.8996028514063471    0.3567345652813390    C161
    0.6478122110911921    0.8996028514063471    0.6900678986146722    C162
    0.3311184852516345    0.4227004560102890    0.1544373323574432    C163
    0.3311184852516345    0.4227004560102890    0.4877706656907765    C164
    0.3311184852516345    0.4227004560102890    0.8211039990241098    C165
    0.3311184852516345    0.7560337893436224    0.1544373323574432    C166
    0.3311184852516345    0.7560337893436224    0.4877706656907765    C167
    0.3311184852516345    0.7560337893436224    0.8211039990241098    C168
    0.3311184852516345    0.0893671226769557    0.1544373323574432    C169
    0.3311184852516345    0.0893671226769557    0.4877706656907765    C170
    0.3311184852516345    0.0893671226769557    0.8211039990241098    C171
    0.6644518185849677    0.4227004560102890    0.1544373323574432    C172
    0.6644518185849677    0.4227004560102890    0.4877706656907765    C173
    0.6644518185849677    0.4227004560102890    0.8211039990241098    C174
    0.6644518185849677    0.7560337893436224    0.1544373323574432    C175
    0.6644518185849677    0.7560337893436224    0.4877706656907765    C176
    0.6644518185849677    0.7560337893436224    0.8211039990241098    C177
    0.6644518185849677    0.0893671226769557    0.1544373323574432    C178
    0.6644518185849677    0.0893671226769557    0.4877706656907765    C179
    0.6644518185849677    0.0893671226769557    0.8211039990241098    C180
    0.9977851519183011    0.4227004560102890    0.1544373323574432    C181
    0.9977851519183011    0.4227004560102890    0.4877706656907765    C182
    0.9977851519183011    0.4227004560102890    0.8211039990241098    C183
    0.9977851519183011    0.7560337893436224    0.1544373323574432    C184
    0.9977851519183011    0.7560337893436224    0.4877706656907765    C185
    0.9977851519183011    0.7560337893436224    0.8211039990241098    C186
    0.9977851519183011    0.0893671226769557    0.1544373323574432    C187
    0.9977851519183011    0.0893671226769557    0.4877706656907765    C188
    0.9977851519183011    0.0893671226769557    0.8211039990241098    C189
    0.3142535142888795    0.3733418516633660    0.1438221620007305    C190
    0.3142535142888795    0.3733418516633660    0.4771554953340638    C191
    0.3142535142888795    0.3733418516633660    0.8104888286673972    C192
    0.3142535142888795    0.7066751849966995    0.1438221620007305    C193
    0.3142535142888795    0.7066751849966995    0.4771554953340638    C194
    0.3142535142888795    0.7066751849966995    0.8104888286673972    C195
    0.3142535142888795    0.0400085183300327    0.1438221620007305    C196
    0.3142535142888795    0.0400085183300327    0.4771554953340638    C197
    0.3142535142888795    0.0400085183300327    0.8104888286673972    C198
    0.6475868476222129    0.3733418516633660    0.1438221620007305    C199
    0.6475868476222129    0.3733418516633660    0.4771554953340638    C200
    0.6475868476222129    0.3733418516633660    0.8104888286673972    C201
    0.6475868476222129    0.7066751849966995    0.1438221620007305    C202
    0.6475868476222129    0.7066751849966995    0.4771554953340638    C203
    0.6475868476222129    0.7066751849966995    0.8104888286673972    C204
    0.6475868476222129    0.0400085183300327    0.1438221620007305    C205
    0.6475868476222129    0.0400085183300327    0.4771554953340638    C206
    0.6475868476222129    0.0400085183300327    0.8104888286673972    C207
    0.9809201809555461    0.3733418516633660    0.1438221620007305    C208
    0.9809201809555461    0.3733418516633660    0.4771554953340638    C209
    0.9809201809555461    0.3733418516633660    0.8104888286673972    C210
    0.9809201809555461    0.7066751849966995    0.1438221620007305    C211
    0.9809201809555461    0.7066751849966995    0.4771554953340638    C212
    0.9809201809555461    0.7066751849966995    0.8104888286673972    C213
    0.9809201809555461    0.0400085183300327    0.1438221620007305    C214
    0.9809201809555461    0.0400085183300327    0.4771554953340638    C215
    0.9809201809555461    0.0400085183300327    0.8104888286673972    C216
    0.0087752042506510    0.2544309376309311    0.0160362943325577    C217
    0.0087752042506510    0.2544309376309311    0.3493696276658910    C218
    0.0087752042506510    0.2544309376309311    0.6827029609992242    C219
    0.0087752042506510    0.5877642709642643    0.0160362943325577    C220
    0.0087752042506510    0.5877642709642643    0.3493696276658910    C221
    0.0087752042506510    0.5877642709642643    0.6827029609992242    C222
    0.0087752042506510    0.9210976042975976    0.0160362943325577    C223
    0.0087752042506510    0.9210976042975976    0.3493696276658910    C224
    0.0087752042506510    0.9210976042975976    0.6827029609992242    C225
    0.3421085375839844    0.2544309376309311    0.0160362943325577    C226
    0.3421085375839844    0.2544309376309311    0.3493696276658910    C227
    0.3421085375839844    0.2544309376309311    0.6827029609992242    C228
    0.3421085375839844    0.5877642709642643    0.0160362943325577    C229
    0.3421085375839844    0.5877642709642643    0.3493696276658910    C230
    0.3421085375839844    0.5877642709642643    0.6827029609992242    C231
    0.3421085375839844    0.9210976042975976    0.0160362943325577    C232
    0.3421085375839844    0.9210976042975976    0.3493696276658910    C233
    0.3421085375839844    0.9210976042975976    0.6827029609992242    C234
    0.6754418709173177    0.2544309376309311    0.0160362943325577    C235
    0.6754418709173177    0.2544309376309311    0.3493696276658910    C236
    0.6754418709173177    0.2544309376309311    0.6827029609992242    C237
    0.6754418709173177    0.5877642709642643    0.0160362943325577    C238
    0.6754418709173177    0.5877642709642643    0.3493696276658910    C239
    0.6754418709173177    0.5877642709642643    0.6827029609992242    C240
    0.6754418709173177    0.9210976042975976    0.0160362943325577    C241
    0.6754418709173177    0.9210976042975976    0.3493696276658910    C242
    0.6754418709173177    0.9210976042975976    0.6827029609992242    C243
    0.3030676895455182    0.3616239464559962    0.1069195115395199    C244
    0.3030676895455182    0.3616239464559962    0.4402528448728532    C245
    0.3030676895455182    0.3616239464559962    0.7735861782061866    C246
    0.3030676895455182    0.6949572797893295    0.1069195115395199    C247
    0.3030676895455182    0.6949572797893295    0.4402528448728532    C248
    0.3030676895455182    0.6949572797893295    0.7735861782061866    C249
    0.3030676895455182    0.0282906131226628    0.1069195115395199    C250
    0.3030676895455182    0.0282906131226628    0.4402528448728532    C251
    0.3030676895455182    0.0282906131226628    0.7735861782061866    C252
    0.6364010228788515    0.3616239464559962    0.1069195115395199    C253
    0.6364010228788515    0.3616239464559962    0.4402528448728532    C254
    0.6364010228788515    0.3616239464559962    0.7735861782061866    C255
    0.6364010228788515    0.6949572797893295    0.1069195115395199    C256
    0.6364010228788515    0.6949572797893295    0.4402528448728532    C257
    0.6364010228788515    0.6949572797893295    0.7735861782061866    C258
    0.6364010228788515    0.0282906131226628    0.1069195115395199    C259
    0.6364010228788515    0.0282906131226628    0.4402528448728532    C260
    0.6364010228788515    0.0282906131226628    0.7735861782061866    C261
    0.9697343562121850    0.3616239464559962    0.1069195115395199    C262
    0.9697343562121850    0.3616239464559962    0.4402528448728532    C263
    0.9697343562121850    0.3616239464559962    0.7735861782061866    C264
    0.9697343562121850    0.6949572797893295    0.1069195115395199    C265
    0.9697343562121850    0.6949572797893295    0.4402528448728532    C266
    0.9697343562121850    0.6949572797893295    0.7735861782061866    C267
    0.9697343562121850    0.0282906131226628    0.1069195115395199    C268
    0.9697343562121850    0.0282906131226628    0.4402528448728532    C269
    0.9697343562121850    0.0282906131226628    0.7735861782061866    C270
    0.0642996433265765    0.2773265106621381    0.0266977177920690    C271
    0.0642996433265765    0.2773265106621381    0.3600310511254023    C272
    0.0642996433265765    0.2773265106621381    0.6933643844587356    C273
    0.0642996433265765    0.6106598439954714    0.0266977177920690    C274
    0.0642996433265765    0.6106598439954714    0.3600310511254023    C275
    0.0642996433265765    0.6106598439954714    0.6933643844587356    C276
    0.0642996433265765    0.9439931773288048    0.0266977177920690    C277
    0.0642996433265765    0.9439931773288048    0.3600310511254023    C278
    0.0642996433265765    0.9439931773288048    0.6933643844587356    C279
    0.3976329766599098    0.2773265106621381    0.0266977177920690    C280
    0.3976329766599098    0.2773265106621381    0.3600310511254023    C281
    0.3976329766599098    0.2773265106621381    0.6933643844587356    C282
    0.3976329766599098    0.6106598439954714    0.0266977177920690    C283
    0.3976329766599098    0.6106598439954714    0.3600310511254023    C284
    0.3976329766599098    0.6106598439954714    0.6933643844587356    C285
    0.3976329766599098    0.9439931773288048    0.0266977177920690    C286
    0.3976329766599098    0.9439931773288048    0.3600310511254023    C287
    0.3976329766599098    0.9439931773288048    0.6933643844587356    C288
    0.7309663099932432    0.2773265106621381    0.0266977177920690    C289
    0.7309663099932432    0.2773265106621381    0.3600310511254023    C290
    0.7309663099932432    0.2773265106621381    0.6933643844587356    C291
    0.7309663099932432    0.6106598439954714    0.0266977177920690    C292
    0.7309663099932432    0.6106598439954714    0.3600310511254023    C293
    0.7309663099932432    0.6106598439954714    0.6933643844587356    C294
    0.7309663099932432    0.9439931773288048    0.0266977177920690    C295
    0.7309663099932432    0.9439931773288048    0.3600310511254023    C296
    0.7309663099932432    0.9439931773288048    0.6933643844587356    C297
    0.1701711449251537    0.2159409997561435    0.2545996102260225    C298
    0.1701711449251537    0.2159409997561435    0.5879329435593559    C299
    0.1701711449251537    0.2159409997561435    0.9212662768926891    C300
    0.1701711449251537    0.5492743330894767    0.2545996102260225    C301
    0.1701711449251537    0.5492743330894767    0.5879329435593559    C302
    0.1701711449251537    0.5492743330894767    0.9212662768926891    C303
    0.1701711449251537    0.8826076664228101    0.2545996102260225    C304
    0.1701711449251537    0.8826076664228101    0.5879329435593559    C305
    0.1701711449251537    0.8826076664228101    0.9212662768926891    C306
    0.5035044782584870    0.2159409997561435    0.2545996102260225    C307
    0.5035044782584870    0.2159409997561435    0.5879329435593559    C308
    0.5035044782584870    0.2159409997561435    0.9212662768926891    C309
    0.5035044782584870    0.5492743330894767    0.2545996102260225    C310
    0.5035044782584870    0.5492743330894767    0.5879329435593559    C311
    0.5035044782584870    0.5492743330894767    0.9212662768926891    C312
    0.5035044782584870    0.8826076664228101    0.2545996102260225    C313
    0.5035044782584870    0.8826076664228101    0.5879329435593559    C314
    0.5035044782584870    0.8826076664228101    0.9212662768926891    C315
    0.8368378115918202    0.2159409997561435    0.2545996102260225    C316
    0.8368378115918202    0.2159409997561435    0.5879329435593559    C317
    0.8368378115918202    0.2159409997561435    0.9212662768926891    C318
    0.8368378115918202    0.5492743330894767    0.2545996102260225    C319
    0.8368378115918202    0.5492743330894767    0.5879329435593559    C320
    0.8368378115918202    0.5492743330894767    0.9212662768926891    C321
    0.8368378115918202    0.8826076664228101    0.2545996102260225    C322
    0.8368378115918202    0.8826076664228101    0.5879329435593559    C323
    0.8368378115918202    0.8826076664228101    0.9212662768926891    C324
    0.9590956179032075    0.3058098910312321    0.0383177159171366    C325
    0.9590956179032075    0.3058098910312321    0.3716510492504699    C326
    0.9590956179032075    0.3058098910312321    0.7049843825838034    C327
    0.9590956179032075    0.6391432243645654    0.0383177159171366    C328
    0.9590956179032075    0.6391432243645654    0.3716510492504699    C329
    0.9590956179032075    0.6391432243645654    0.7049843825838034    C330
    0.9590956179032075    0.9724765576978986    0.0383177159171366    C331
    0.9590956179032075    0.9724765576978986    0.3716510492504699    C332
    0.9590956179032075    0.9724765576978986    0.7049843825838034    C333
    0.2924289512365408    0.3058098910312321    0.0383177159171366    C334
    0.2924289512365408    0.3058098910312321    0.3716510492504699    C335
    0.2924289512365408    0.3058098910312321    0.7049843825838034    C336
    0.2924289512365408    0.6391432243645654    0.0383177159171366    C337
    0.2924289512365408    0.6391432243645654    0.3716510492504699    C338
    0.2924289512365408    0.6391432243645654    0.7049843825838034    C339
    0.2924289512365408    0.9724765576978986    0.0383177159171366    C340
    0.2924289512365408    0.9724765576978986    0.3716510492504699    C341
    0.2924289512365408    0.9724765576978986    0.7049843825838034    C342
    0.6257622845698740    0.3058098910312321    0.0383177159171366    C343
    0.6257622845698740    0.3058098910312321    0.3716510492504699    C344
    0.6257622845698740    0.3058098910312321    0.7049843825838034    C345
    0.6257622845698740    0.6391432243645654    0.0383177159171366    C346
    0.6257622845698740    0.6391432243645654    0.3716510492504699    C347
    0.6257622845698740    0.6391432243645654    0.7049843825838034    C348
    0.6257622845698740    0.9724765576978986    0.0383177159171366    C349
    0.6257622845698740    0.9724765576978986    0.3716510492504699    C350
    0.6257622845698740    0.9724765576978986    0.7049843825838034    C351
    0.1428118679280004    0.3940382442577822    0.2450868086286979    C352
    0.1428118679280004    0.3940382442577822    0.5784201419620312    C353
    0.1428118679280004    0.3940382442577822    0.9117534752953645    C354
    0.1428118679280004    0.7273715775911154    0.2450868086286979    C355
    0.1428118679280004    0.7273715775911154    0.5784201419620312    C356
    0.1428118679280004    0.7273715775911154    0.9117534752953645    C357
    0.1428118679280004    0.0607049109244486    0.2450868086286979    C358
    0.1428118679280004    0.0607049109244486    0.5784201419620312    C359
    0.1428118679280004    0.0607049109244486    0.9117534752953645    C360
    0.4761452012613338    0.3940382442577822    0.2450868086286979    C361
    0.4761452012613338    0.3940382442577822    0.5784201419620312    C362
    0.4761452012613338    0.3940382442577822    0.9117534752953645    C363
    0.4761452012613338    0.7273715775911154    0.2450868086286979    C364
    0.4761452012613338    0.7273715775911154    0.5784201419620312    C365
    0.4761452012613338    0.7273715775911154    0.9117534752953645    C366
    0.4761452012613338    0.0607049109244486    0.2450868086286979    C367
    0.4761452012613338    0.0607049109244486    0.5784201419620312    C368
    0.4761452012613338    0.0607049109244486    0.9117534752953645    C369
    0.8094785345946671    0.3940382442577822    0.2450868086286979    C370
    0.8094785345946671    0.3940382442577822    0.5784201419620312    C371
    0.8094785345946671    0.3940382442577822    0.9117534752953645    C372
    0.8094785345946671    0.7273715775911154    0.2450868086286979    C373
    0.8094785345946671    0.7273715775911154    0.5784201419620312    C374
    0.8094785345946671    0.7273715775911154    0.9117534752953645    C375
    0.8094785345946671    0.0607049109244486    0.2450868086286979    C376
    0.8094785345946671    0.0607049109244486    0.5784201419620312    C377
    0.8094785345946671    0.0607049109244486    0.9117534752953645    C378
    0.3569242635922521    0.4988959914491527    0.1947282318743392    C379
    0.3569242635922521    0.4988959914491527    0.5280615652076724    C380
    0.3569242635922521    0.4988959914491527    0.8613948985410058    C381
    0.3569242635922521    0.8322293247824861    0.1947282318743392    C382
    0.3569242635922521    0.8322293247824861    0.5280615652076724    C383
    0.3569242635922521    0.8322293247824861    0.8613948985410058    C384
    0.3569242635922521    0.1655626581158194    0.1947282318743392    C385
    0.3569242635922521    0.1655626581158194    0.5280615652076724    C386
    0.3569242635922521    0.1655626581158194    0.8613948985410058    C387
    0.6902575969255854    0.4988959914491527    0.1947282318743392    C388
    0.6902575969255854    0.4988959914491527    0.5280615652076724    C389
    0.6902575969255854    0.4988959914491527    0.8613948985410058    C390
    0.6902575969255854    0.8322293247824861    0.1947282318743392    C391
    0.6902575969255854    0.8322293247824861    0.5280615652076724    C392
    0.6902575969255854    0.8322293247824861    0.8613948985410058    C393
    0.6902575969255854    0.1655626581158194    0.1947282318743392    C394
    0.6902575969255854    0.1655626581158194    0.5280615652076724    C395
    0.6902575969255854    0.1655626581158194    0.8613948985410058    C396
    0.0235909302589188    0.4988959914491527    0.1947282318743392    C397
    0.0235909302589188    0.4988959914491527    0.5280615652076724    C398
    0.0235909302589188    0.4988959914491527    0.8613948985410058    C399
    0.0235909302589188    0.8322293247824861    0.1947282318743392    C400
    0.0235909302589188    0.8322293247824861    0.5280615652076724    C401
    0.0235909302589188    0.8322293247824861    0.8613948985410058    C402
    0.0235909302589188    0.1655626581158194    0.1947282318743392    C403
    0.0235909302589188    0.1655626581158194    0.5280615652076724    C404
    0.0235909302589188    0.1655626581158194    0.8613948985410058    C405
    0.1142433691914846    0.4141638897393058    0.2537135058682753    C406
    0.1142433691914846    0.4141638897393058    0.5870468392016086    C407
    0.1142433691914846    0.4141638897393058    0.9203801725349419    C408
    0.1142433691914846    0.7474972230726392    0.2537135058682753    C409
    0.1142433691914846    0.7474972230726392    0.5870468392016086    C410
    0.1142433691914846    0.7474972230726392    0.9203801725349419    C411
    0.1142433691914846    0.0808305564059726    0.2537135058682753    C412
    0.1142433691914846    0.0808305564059726    0.5870468392016086    C413
    0.1142433691914846    0.0808305564059726    0.9203801725349419    C414
    0.4475767025248179    0.4141638897393058    0.2537135058682753    C415
    0.4475767025248179    0.4141638897393058    0.5870468392016086    C416
    0.4475767025248179    0.4141638897393058    0.9203801725349419    C417
    0.4475767025248179    0.7474972230726392    0.2537135058682753    C418
    0.4475767025248179    0.7474972230726392    0.5870468392016086    C419
    0.4475767025248179    0.7474972230726392    0.9203801725349419    C420
    0.4475767025248179    0.0808305564059726    0.2537135058682753    C421
    0.4475767025248179    0.0808305564059726    0.5870468392016086    C422
    0.4475767025248179    0.0808305564059726    0.9203801725349419    C423
    0.7809100358581512    0.4141638897393058    0.2537135058682753    C424
    0.7809100358581512    0.4141638897393058    0.5870468392016086    C425
    0.7809100358581512    0.4141638897393058    0.9203801725349419    C426
    0.7809100358581512    0.7474972230726392    0.2537135058682753    C427
    0.7809100358581512    0.7474972230726392    0.5870468392016086    C428
    0.7809100358581512    0.7474972230726392    0.9203801725349419    C429
    0.7809100358581512    0.0808305564059726    0.2537135058682753    C430
    0.7809100358581512    0.0808305564059726    0.5870468392016086    C431
    0.7809100358581512    0.0808305564059726    0.9203801725349419    C432
    0.1622043143368911    0.3706608426429999    0.2663008723575055    C433
    0.1622043143368911    0.3706608426429999    0.5996342056908388    C434
    0.1622043143368911    0.3706608426429999    0.9329675390241722    C435
    0.1622043143368911    0.7039941759763331    0.2663008723575055    C436
    0.1622043143368911    0.7039941759763331    0.5996342056908388    C437
    0.1622043143368911    0.7039941759763331    0.9329675390241722    C438
    0.1622043143368911    0.0373275093096663    0.2663008723575055    C439
    0.1622043143368911    0.0373275093096663    0.5996342056908388    C440
    0.1622043143368911    0.0373275093096663    0.9329675390241722    C441
    0.4955376476702245    0.3706608426429999    0.2663008723575055    C442
    0.4955376476702245    0.3706608426429999    0.5996342056908388    C443
    0.4955376476702245    0.3706608426429999    0.9329675390241722    C444
    0.4955376476702245    0.7039941759763331    0.2663008723575055    C445
    0.4955376476702245    0.7039941759763331    0.5996342056908388    C446
    0.4955376476702245    0.7039941759763331    0.9329675390241722    C447
    0.4955376476702245    0.0373275093096663    0.2663008723575055    C448
    0.4955376476702245    0.0373275093096663    0.5996342056908388    C449
    0.4955376476702245    0.0373275093096663    0.9329675390241722    C450
    0.8288709810035578    0.3706608426429999    0.2663008723575055    C451
    0.8288709810035578    0.3706608426429999    0.5996342056908388    C452
    0.8288709810035578    0.3706608426429999    0.9329675390241722    C453
    0.8288709810035578    0.7039941759763331    0.2663008723575055    C454
    0.8288709810035578    0.7039941759763331    0.5996342056908388    C455
    0.8288709810035578    0.7039941759763331    0.9329675390241722    C456
    0.8288709810035578    0.0373275093096663    0.2663008723575055    C457
    0.8288709810035578    0.0373275093096663    0.5996342056908388    C458
    0.8288709810035578    0.0373275093096663    0.9329675390241722    C459
    0.9422909604052884    0.2955859626217789    0.0012667951590649    C460
    0.9422909604052884    0.2955859626217789    0.3346001284923982    C461
    0.9422909604052884    0.2955859626217789    0.6679334618257315    C462
    0.9422909604052884    0.6289192959551122    0.0012667951590649    C463
    0.9422909604052884    0.6289192959551122    0.3346001284923982    C464
    0.9422909604052884    0.6289192959551122    0.6679334618257315    C465
    0.9422909604052884    0.9622526292884457    0.0012667951590649    C466
    0.9422909604052884    0.9622526292884457    0.3346001284923982    C467
    0.9422909604052884    0.9622526292884457    0.6679334618257315    C468
    0.2756242937386216    0.2955859626217789    0.0012667951590649    C469
    0.2756242937386216    0.2955859626217789    0.3346001284923982    C470
    0.2756242937386216    0.2955859626217789    0.6679334618257315    C471
    0.2756242937386216    0.6289192959551122    0.0012667951590649    C472
    0.2756242937386216    0.6289192959551122    0.3346001284923982    C473
    0.2756242937386216    0.6289192959551122    0.6679334618257315    C474
    0.2756242937386216    0.9622526292884457    0.0012667951590649    C475
    0.2756242937386216    0.9622526292884457    0.3346001284923982    C476
    0.2756242937386216    0.9622526292884457    0.6679334618257315    C477
    0.6089576270719550    0.2955859626217789    0.0012667951590649    C478
    0.6089576270719550    0.2955859626217789    0.3346001284923982    C479
    0.6089576270719550    0.2955859626217789    0.6679334618257315    C480
    0.6089576270719550    0.6289192959551122    0.0012667951590649    C481
    0.6089576270719550    0.6289192959551122    0.3346001284923982    C482
    0.6089576270719550    0.6289192959551122    0.6679334618257315    C483
    0.6089576270719550    0.9622526292884457    0.0012667951590649    C484
    0.6089576270719550    0.9622526292884457    0.3346001284923982    C485
    0.6089576270719550    0.9622526292884457    0.6679334618257315    C486
    0.2125049877889179    0.3263799656961046    0.2135527098958292    C487
    0.2125049877889179    0.3263799656961046    0.5468860432291625    C488
    0.2125049877889179    0.3263799656961046    0.8802193765624958    C489
    0.2125049877889179    0.6597132990294379    0.2135527098958292    C490
    0.2125049877889179    0.6597132990294379    0.5468860432291625    C491
    0.2125049877889179    0.6597132990294379    0.8802193765624958    C492
    0.2125049877889179    0.9930466323627712    0.2135527098958292    C493
    0.2125049877889179    0.9930466323627712    0.5468860432291625    C494
    0.2125049877889179    0.9930466323627712    0.8802193765624958    C495
    0.5458383211222512    0.3263799656961046    0.2135527098958292    C496
    0.5458383211222512    0.3263799656961046    0.5468860432291625    C497
    0.5458383211222512    0.3263799656961046    0.8802193765624958    C498
    0.5458383211222512    0.6597132990294379    0.2135527098958292    C499
    0.5458383211222512    0.6597132990294379    0.5468860432291625    C500
    0.5458383211222512    0.6597132990294379    0.8802193765624958    C501
    0.5458383211222512    0.9930466323627712    0.2135527098958292    C502
    0.5458383211222512    0.9930466323627712    0.5468860432291625    C503
    0.5458383211222512    0.9930466323627712    0.8802193765624958    C504
    0.8791716544555845    0.3263799656961046    0.2135527098958292    C505
    0.8791716544555845    0.3263799656961046    0.5468860432291625    C506
    0.8791716544555845    0.3263799656961046    0.8802193765624958    C507
    0.8791716544555845    0.6597132990294379    0.2135527098958292    C508
    0.8791716544555845    0.6597132990294379    0.5468860432291625    C509
    0.8791716544555845    0.6597132990294379    0.8802193765624958    C510
    0.8791716544555845    0.9930466323627712    0.2135527098958292    C511
    0.8791716544555845    0.9930466323627712    0.5468860432291625    C512
    0.8791716544555845    0.9930466323627712    0.8802193765624958    C513
    0.3370591891246141    0.3401945249112226    0.1556584009410858    C514
    0.3370591891246141    0.3401945249112226    0.4889917342744191    C515
    0.3370591891246141    0.3401945249112226    0.8223250676077525    C516
    0.3370591891246141    0.6735278582445560    0.1556584009410858    C517
    0.3370591891246141    0.6735278582445560    0.4889917342744191    C518
    0.3370591891246141    0.6735278582445560    0.8223250676077525    C519
    0.3370591891246141    0.0068611915778893    0.1556584009410858    C520
    0.3370591891246141    0.0068611915778893    0.4889917342744191    C521
    0.3370591891246141    0.0068611915778893    0.8223250676077525    C522
    0.6703925224579473    0.3401945249112226    0.1556584009410858    C523
    0.6703925224579473    0.3401945249112226    0.4889917342744191    C524
    0.6703925224579473    0.3401945249112226    0.8223250676077525    C525
    0.6703925224579473    0.6735278582445560    0.1556584009410858    C526
    0.6703925224579473    0.6735278582445560    0.4889917342744191    C527
    0.6703925224579473    0.6735278582445560    0.8223250676077525    C528
    0.6703925224579473    0.0068611915778893    0.1556584009410858    C529
    0.6703925224579473    0.0068611915778893    0.4889917342744191    C530
    0.6703925224579473    0.0068611915778893    0.8223250676077525    C531
    0.0037258557912807    0.3401945249112226    0.1556584009410858    C532
    0.0037258557912807    0.3401945249112226    0.4889917342744191    C533
    0.0037258557912807    0.3401945249112226    0.8223250676077525    C534
    0.0037258557912807    0.6735278582445560    0.1556584009410858    C535
    0.0037258557912807    0.6735278582445560    0.4889917342744191    C536
    0.0037258557912807    0.6735278582445560    0.8223250676077525    C537
    0.0037258557912807    0.0068611915778893    0.1556584009410858    C538
    0.0037258557912807    0.0068611915778893    0.4889917342744191    C539
    0.0037258557912807    0.0068611915778893    0.8223250676077525    C540
    0.9291879144964665    0.3311795535611943    0.3197623074579203    C541
    0.9291879144964665    0.3311795535611943    0.6530956407912536    C542
    0.9291879144964665    0.3311795535611943    0.9864289741245870    C543
    0.9291879144964665    0.6645128868945276    0.3197623074579203    C544
    0.9291879144964665    0.6645128868945276    0.6530956407912536    C545
    0.9291879144964665    0.6645128868945276    0.9864289741245870    C546
    0.9291879144964665    0.9978462202278610    0.3197623074579203    C547
    0.9291879144964665    0.9978462202278610    0.6530956407912536    C548
    0.9291879144964665    0.9978462202278610    0.9864289741245870    C549
    0.2625212478297999    0.3311795535611943    0.3197623074579203    C550
    0.2625212478297999    0.3311795535611943    0.6530956407912536    C551
    0.2625212478297999    0.3311795535611943    0.9864289741245870    C552
    0.2625212478297999    0.6645128868945276    0.3197623074579203    C553
    0.2625212478297999    0.6645128868945276    0.6530956407912536    C554
    0.2625212478297999    0.6645128868945276    0.9864289741245870    C555
    0.2625212478297999    0.9978462202278610    0.3197623074579203    C556
    0.2625212478297999    0.9978462202278610    0.6530956407912536    C557
    0.2625212478297999    0.9978462202278610    0.9864289741245870    C558
    0.5958545811631332    0.3311795535611943    0.3197623074579203    C559
    0.5958545811631332    0.3311795535611943    0.6530956407912536    C560
    0.5958545811631332    0.3311795535611943    0.9864289741245870    C561
    0.5958545811631332    0.6645128868945276    0.3197623074579203    C562
    0.5958545811631332    0.6645128868945276    0.6530956407912536    C563
    0.5958545811631332    0.6645128868945276    0.9864289741245870    C564
    0.5958545811631332    0.9978462202278610    0.3197623074579203    C565
    0.5958545811631332    0.9978462202278610    0.6530956407912536    C566
    0.5958545811631332    0.9978462202278610    0.9864289741245870    C567
    0.3501794111269311    0.4475934654881787    0.1884799408021812    C568
    0.3501794111269311    0.4475934654881787    0.5218132741355145    C569
    0.3501794111269311    0.4475934654881787    0.8551466074688477    C570
    0.3501794111269311    0.7809267988215121    0.1884799408021812    C571
    0.3501794111269311    0.7809267988215121    0.5218132741355145    C572
    0.3501794111269311    0.7809267988215121    0.8551466074688477    C573
    0.3501794111269311    0.1142601321548453    0.1884799408021812    C574
    0.3501794111269311    0.1142601321548453    0.5218132741355145    C575
    0.3501794111269311    0.1142601321548453    0.8551466074688477    C576
    0.6835127444602644    0.4475934654881787    0.1884799408021812    C577
    0.6835127444602644    0.4475934654881787    0.5218132741355145    C578
    0.6835127444602644    0.4475934654881787    0.8551466074688477    C579
    0.6835127444602644    0.7809267988215121    0.1884799408021812    C580
    0.6835127444602644    0.7809267988215121    0.5218132741355145    C581
    0.6835127444602644    0.7809267988215121    0.8551466074688477    C582
    0.6835127444602644    0.1142601321548453    0.1884799408021812    C583
    0.6835127444602644    0.1142601321548453    0.5218132741355145    C584
    0.6835127444602644    0.1142601321548453    0.8551466074688477    C585
    0.0168460777935977    0.4475934654881787    0.1884799408021812    C586
    0.0168460777935977    0.4475934654881787    0.5218132741355145    C587
    0.0168460777935977    0.4475934654881787    0.8551466074688477    C588
    0.0168460777935977    0.7809267988215121    0.1884799408021812    C589
    0.0168460777935977    0.7809267988215121    0.5218132741355145    C590
    0.0168460777935977    0.7809267988215121    0.8551466074688477    C591
    0.0168460777935977    0.1142601321548453    0.1884799408021812    C592
    0.0168460777935977    0.1142601321548453    0.5218132741355145    C593
    0.0168460777935977    0.1142601321548453    0.8551466074688477    C594
    0.2201518015804186    0.1069299407096598    0.5214831342553872    C595
    0.2201518015804186    0.1069299407096598    0.8548164675887204    C596
    0.2201518015804186    0.1069299407096598    0.1881498009220537    C597
    0.2201518015804186    0.4402632740429931    0.5214831342553872    C598
    0.2201518015804186    0.4402632740429931    0.8548164675887204    C599
    0.2201518015804186    0.4402632740429931    0.1881498009220537    C600
    0.2201518015804186    0.7735966073763265    0.5214831342553872    C601
    0.2201518015804186    0.7735966073763265    0.8548164675887204    C602
    0.2201518015804186    0.7735966073763265    0.1881498009220537    C603
    0.5534851349137520    0.1069299407096598    0.5214831342553872    C604
    0.5534851349137520    0.1069299407096598    0.8548164675887204    C605
    0.5534851349137520    0.1069299407096598    0.1881498009220537    C606
    0.5534851349137520    0.4402632740429931    0.5214831342553872    C607
    0.5534851349137520    0.4402632740429931    0.8548164675887204    C608
    0.5534851349137520    0.4402632740429931    0.1881498009220537    C609
    0.5534851349137520    0.7735966073763265    0.5214831342553872    C610
    0.5534851349137520    0.7735966073763265    0.8548164675887204    C611
    0.5534851349137520    0.7735966073763265    0.1881498009220537    C612
    0.8868184682470852    0.1069299407096598    0.5214831342553872    C613
    0.8868184682470852    0.1069299407096598    0.8548164675887204    C614
    0.8868184682470852    0.1069299407096598    0.1881498009220537    C615
    0.8868184682470852    0.4402632740429931    0.5214831342553872    C616
    0.8868184682470852    0.4402632740429931    0.8548164675887204    C617
    0.8868184682470852    0.4402632740429931    0.1881498009220537    C618
    0.8868184682470852    0.7735966073763265    0.5214831342553872    C619
    0.8868184682470852    0.7735966073763265    0.8548164675887204    C620
    0.8868184682470852    0.7735966073763265    0.1881498009220537    C621
    0.2069358105793152    0.3700947137553225    0.2048963189059093    C622
    0.2069358105793152    0.3700947137553225    0.5382296522392427    C623
    0.2069358105793152    0.3700947137553225    0.8715629855725761    C624
    0.2069358105793152    0.7034280470886559    0.2048963189059093    C625
    0.2069358105793152    0.7034280470886559    0.5382296522392427    C626
    0.2069358105793152    0.7034280470886559    0.8715629855725761    C627
    0.2069358105793152    0.0367613804219893    0.2048963189059093    C628
    0.2069358105793152    0.0367613804219893    0.5382296522392427    C629
    0.2069358105793152    0.0367613804219893    0.8715629855725761    C630
    0.5402691439126486    0.3700947137553225    0.2048963189059093    C631
    0.5402691439126486    0.3700947137553225    0.5382296522392427    C632
    0.5402691439126486    0.3700947137553225    0.8715629855725761    C633
    0.5402691439126486    0.7034280470886559    0.2048963189059093    C634
    0.5402691439126486    0.7034280470886559    0.5382296522392427    C635
    0.5402691439126486    0.7034280470886559    0.8715629855725761    C636
    0.5402691439126486    0.0367613804219893    0.2048963189059093    C637
    0.5402691439126486    0.0367613804219893    0.5382296522392427    C638
    0.5402691439126486    0.0367613804219893    0.8715629855725761    C639
    0.8736024772459819    0.3700947137553225    0.2048963189059093    C640
    0.8736024772459819    0.3700947137553225    0.5382296522392427    C641
    0.8736024772459819    0.3700947137553225    0.8715629855725761    C642
    0.8736024772459819    0.7034280470886559    0.2048963189059093    C643
    0.8736024772459819    0.7034280470886559    0.5382296522392427    C644
    0.8736024772459819    0.7034280470886559    0.8715629855725761    C645
    0.8736024772459819    0.0367613804219893    0.2048963189059093    C646
    0.8736024772459819    0.0367613804219893    0.5382296522392427    C647
    0.8736024772459819    0.0367613804219893    0.8715629855725761    C648
    0.1675419026798253    0.0889311780564922    0.4329591348202412    C649
    0.1675419026798253    0.0889311780564922    0.7662924681535745    C650
    0.1675419026798253    0.0889311780564922    0.0996258014869078    C651
    0.1675419026798253    0.4222645113898255    0.4329591348202412    C652
    0.1675419026798253    0.4222645113898255    0.7662924681535745    C653
    0.1675419026798253    0.4222645113898255    0.0996258014869078    C654
    0.1675419026798253    0.7555978447231588    0.4329591348202412    C655
    0.1675419026798253    0.7555978447231588    0.7662924681535745    C656
    0.1675419026798253    0.7555978447231588    0.0996258014869078    C657
    0.5008752360131586    0.0889311780564922    0.4329591348202412    C658
    0.5008752360131586    0.0889311780564922    0.7662924681535745    C659
    0.5008752360131586    0.0889311780564922    0.0996258014869078    C660
    0.5008752360131586    0.4222645113898255    0.4329591348202412    C661
    0.5008752360131586    0.4222645113898255    0.7662924681535745    C662
    0.5008752360131586    0.4222645113898255    0.0996258014869078    C663
    0.5008752360131586    0.7555978447231588    0.4329591348202412    C664
    0.5008752360131586    0.7555978447231588    0.7662924681535745    C665
    0.5008752360131586    0.7555978447231588    0.0996258014869078    C666
    0.8342085693464920    0.0889311780564922    0.4329591348202412    C667
    0.8342085693464920    0.0889311780564922    0.7662924681535745    C668
    0.8342085693464920    0.0889311780564922    0.0996258014869078    C669
    0.8342085693464920    0.4222645113898255    0.4329591348202412    C670
    0.8342085693464920    0.4222645113898255    0.7662924681535745    C671
    0.8342085693464920    0.4222645113898255    0.0996258014869078    C672
    0.8342085693464920    0.7555978447231588    0.4329591348202412    C673
    0.8342085693464920    0.7555978447231588    0.7662924681535745    C674
    0.8342085693464920    0.7555978447231588    0.0996258014869078    C675
    0.1233939857068063    0.2501963750933109    0.1999215831349750    C676
    0.1233939857068063    0.2501963750933109    0.5332549164683084    C677
    0.1233939857068063    0.2501963750933109    0.8665882498016417    C678
    0.1233939857068063    0.5835297084266442    0.1999215831349750    C679
    0.1233939857068063    0.5835297084266442    0.5332549164683084    C680
    0.1233939857068063    0.5835297084266442    0.8665882498016417    C681
    0.1233939857068063    0.9168630417599776    0.1999215831349750    C682
    0.1233939857068063    0.9168630417599776    0.5332549164683084    C683
    0.1233939857068063    0.9168630417599776    0.8665882498016417    C684
    0.4567273190401396    0.2501963750933109    0.1999215831349750    C685
    0.4567273190401396    0.2501963750933109    0.5332549164683084    C686
    0.4567273190401396    0.2501963750933109    0.8665882498016417    C687
    0.4567273190401396    0.5835297084266442    0.1999215831349750    C688
    0.4567273190401396    0.5835297084266442    0.5332549164683084    C689
    0.4567273190401396    0.5835297084266442    0.8665882498016417    C690
    0.4567273190401396    0.9168630417599776    0.1999215831349750    C691
    0.4567273190401396    0.9168630417599776    0.5332549164683084    C692
    0.4567273190401396    0.9168630417599776    0.8665882498016417    C693
    0.7900606523734730    0.2501963750933109    0.1999215831349750    C694
    0.7900606523734730    0.2501963750933109    0.5332549164683084    C695
    0.7900606523734730    0.2501963750933109    0.8665882498016417    C696
    0.7900606523734730    0.5835297084266442    0.1999215831349750    C697
    0.7900606523734730    0.5835297084266442    0.5332549164683084    C698
    0.7900606523734730    0.5835297084266442    0.8665882498016417    C699
    0.7900606523734730    0.9168630417599776    0.1999215831349750    C700
    0.7900606523734730    0.9168630417599776    0.5332549164683084    C701
    0.7900606523734730    0.9168630417599776    0.8665882498016417    C702
    0.2436720501867224    0.3193325713583597    0.0960285731001644    C703
    0.2436720501867224    0.3193325713583597    0.4293619064334977    C704
    0.2436720501867224    0.3193325713583597    0.7626952397668310    C705
    0.2436720501867224    0.6526659046916931    0.0960285731001644    C706
    0.2436720501867224    0.6526659046916931    0.4293619064334977    C707
    0.2436720501867224    0.6526659046916931    0.7626952397668310    C708
    0.2436720501867224    0.9859992380250264    0.0960285731001644    C709
    0.2436720501867224    0.9859992380250264    0.4293619064334977    C710
    0.2436720501867224    0.9859992380250264    0.7626952397668310    C711
    0.5770053835200557    0.3193325713583597    0.0960285731001644    C712
    0.5770053835200557    0.3193325713583597    0.4293619064334977    C713
    0.5770053835200557    0.3193325713583597    0.7626952397668310    C714
    0.5770053835200557    0.6526659046916931    0.0960285731001644    C715
    0.5770053835200557    0.6526659046916931    0.4293619064334977    C716
    0.5770053835200557    0.6526659046916931    0.7626952397668310    C717
    0.5770053835200557    0.9859992380250264    0.0960285731001644    C718
    0.5770053835200557    0.9859992380250264    0.4293619064334977    C719
    0.5770053835200557    0.9859992380250264    0.7626952397668310    C720
    0.9103387168533891    0.3193325713583597    0.0960285731001644    C721
    0.9103387168533891    0.3193325713583597    0.4293619064334977    C722
    0.9103387168533891    0.3193325713583597    0.7626952397668310    C723
    0.9103387168533891    0.6526659046916931    0.0960285731001644    C724
    0.9103387168533891    0.6526659046916931    0.4293619064334977    C725
    0.9103387168533891    0.6526659046916931    0.7626952397668310    C726
    0.9103387168533891    0.9859992380250264    0.0960285731001644    C727
    0.9103387168533891    0.9859992380250264    0.4293619064334977    C728
    0.9103387168533891    0.9859992380250264    0.7626952397668310    C729
    0.2107319659986028    0.2322993918358686    0.0587208251893865    C730
    0.2107319659986028    0.2322993918358686    0.3920541585227198    C731
    0.2107319659986028    0.2322993918358686    0.7253874918560530    C732
    0.2107319659986028    0.5656327251692019    0.0587208251893865    C733
    0.2107319659986028    0.5656327251692019    0.3920541585227198    C734
    0.2107319659986028    0.5656327251692019    0.7253874918560530    C735
    0.2107319659986028    0.8989660585025352    0.0587208251893865    C736
    0.2107319659986028    0.8989660585025352    0.3920541585227198    C737
    0.2107319659986028    0.8989660585025352    0.7253874918560530    C738
    0.5440652993319361    0.2322993918358686    0.0587208251893865    C739
    0.5440652993319361    0.2322993918358686    0.3920541585227198    C740
    0.5440652993319361    0.2322993918358686    0.7253874918560530    C741
    0.5440652993319361    0.5656327251692019    0.0587208251893865    C742
    0.5440652993319361    0.5656327251692019    0.3920541585227198    C743
    0.5440652993319361    0.5656327251692019    0.7253874918560530    C744
    0.5440652993319361    0.8989660585025352    0.0587208251893865    C745
    0.5440652993319361    0.8989660585025352    0.3920541585227198    C746
    0.5440652993319361    0.8989660585025352    0.7253874918560530    C747
    0.8773986326652695    0.2322993918358686    0.0587208251893865    C748
    0.8773986326652695    0.2322993918358686    0.3920541585227198    C749
    0.8773986326652695    0.2322993918358686    0.7253874918560530    C750
    0.8773986326652695    0.5656327251692019    0.0587208251893865    C751
    0.8773986326652695    0.5656327251692019    0.3920541585227198    C752
    0.8773986326652695    0.5656327251692019    0.7253874918560530    C753
    0.8773986326652695    0.8989660585025352    0.0587208251893865    C754
    0.8773986326652695    0.8989660585025352    0.3920541585227198    C755
    0.8773986326652695    0.8989660585025352    0.7253874918560530    C756
    0.0196590884711230    0.1354873889295713    0.0540296374896915    C757
    0.0196590884711230    0.1354873889295713    0.3873629708230248    C758
    0.0196590884711230    0.1354873889295713    0.7206963041563582    C759
    0.0196590884711230    0.4688207222629047    0.0540296374896915    C760
    0.0196590884711230    0.4688207222629047    0.3873629708230248    C761
    0.0196590884711230    0.4688207222629047    0.7206963041563582    C762
    0.0196590884711230    0.8021540555962379    0.0540296374896915    C763
    0.0196590884711230    0.8021540555962379    0.3873629708230248    C764
    0.0196590884711230    0.8021540555962379    0.7206963041563582    C765
    0.3529924218044563    0.1354873889295713    0.0540296374896915    C766
    0.3529924218044563    0.1354873889295713    0.3873629708230248    C767
    0.3529924218044563    0.1354873889295713    0.7206963041563582    C768
    0.3529924218044563    0.4688207222629047    0.0540296374896915    C769
    0.3529924218044563    0.4688207222629047    0.3873629708230248    C770
    0.3529924218044563    0.4688207222629047    0.7206963041563582    C771
    0.3529924218044563    0.8021540555962379    0.0540296374896915    C772
    0.3529924218044563    0.8021540555962379    0.3873629708230248    C773
    0.3529924218044563    0.8021540555962379    0.7206963041563582    C774
    0.6863257551377897    0.1354873889295713    0.0540296374896915    C775
    0.6863257551377897    0.1354873889295713    0.3873629708230248    C776
    0.6863257551377897    0.1354873889295713    0.7206963041563582    C777
    0.6863257551377897    0.4688207222629047    0.0540296374896915    C778
    0.6863257551377897    0.4688207222629047    0.3873629708230248    C779
    0.6863257551377897    0.4688207222629047    0.7206963041563582    C780
    0.6863257551377897    0.8021540555962379    0.0540296374896915    C781
    0.6863257551377897    0.8021540555962379    0.3873629708230248    C782
    0.6863257551377897    0.8021540555962379    0.7206963041563582    C783
    0.0484404331903236    0.0458845499613544    0.1058381631049022    C784
    0.0484404331903236    0.0458845499613544    0.4391714964382355    C785
    0.0484404331903236    0.0458845499613544    0.7725048297715689    C786
    0.0484404331903236    0.3792178832946878    0.1058381631049022    C787
    0.0484404331903236    0.3792178832946878    0.4391714964382355    C788
    0.0484404331903236    0.3792178832946878    0.7725048297715689    C789
    0.0484404331903236    0.7125512166280210    0.1058381631049022    C790
    0.0484404331903236    0.7125512166280210    0.4391714964382355    C791
    0.0484404331903236    0.7125512166280210    0.7725048297715689    C792
    0.3817737665236569    0.0458845499613544    0.1058381631049022    C793
    0.3817737665236569    0.0458845499613544    0.4391714964382355    C794
    0.3817737665236569    0.0458845499613544    0.7725048297715689    C795
    0.3817737665236569    0.3792178832946878    0.1058381631049022    C796
    0.3817737665236569    0.3792178832946878    0.4391714964382355    C797
    0.3817737665236569    0.3792178832946878    0.7725048297715689    C798
    0.3817737665236569    0.7125512166280210    0.1058381631049022    C799
    0.3817737665236569    0.7125512166280210    0.4391714964382355    C800
    0.3817737665236569    0.7125512166280210    0.7725048297715689    C801
    0.7151070998569902    0.0458845499613544    0.1058381631049022    C802
    0.7151070998569902    0.0458845499613544    0.4391714964382355    C803
    0.7151070998569902    0.0458845499613544    0.7725048297715689    C804
    0.7151070998569902    0.3792178832946878    0.1058381631049022    C805
    0.7151070998569902    0.3792178832946878    0.4391714964382355    C806
    0.7151070998569902    0.3792178832946878    0.7725048297715689    C807
    0.7151070998569902    0.7125512166280210    0.1058381631049022    C808
    0.7151070998569902    0.7125512166280210    0.4391714964382355    C809
    0.7151070998569902    0.7125512166280210    0.7725048297715689    C810
    0.2603335979975135    0.1891421482413114    0.5771364838111919    C811
    0.2603335979975135    0.1891421482413114    0.9104698171445251    C812
    0.2603335979975135    0.1891421482413114    0.2438031504778584    C813
    0.2603335979975135    0.5224754815746447    0.5771364838111919    C814
    0.2603335979975135    0.5224754815746447    0.9104698171445251    C815
    0.2603335979975135    0.5224754815746447    0.2438031504778584    C816
    0.2603335979975135    0.8558088149079781    0.5771364838111919    C817
    0.2603335979975135    0.8558088149079781    0.9104698171445251    C818
    0.2603335979975135    0.8558088149079781    0.2438031504778584    C819
    0.5936669313308468    0.1891421482413114    0.5771364838111919    C820
    0.5936669313308468    0.1891421482413114    0.9104698171445251    C821
    0.5936669313308468    0.1891421482413114    0.2438031504778584    C822
    0.5936669313308468    0.5224754815746447    0.5771364838111919    C823
    0.5936669313308468    0.5224754815746447    0.9104698171445251    C824
    0.5936669313308468    0.5224754815746447    0.2438031504778584    C825
    0.5936669313308468    0.8558088149079781    0.5771364838111919    C826
    0.5936669313308468    0.8558088149079781    0.9104698171445251    C827
    0.5936669313308468    0.8558088149079781    0.2438031504778584    C828
    0.9270002646641802    0.1891421482413114    0.5771364838111919    C829
    0.9270002646641802    0.1891421482413114    0.9104698171445251    C830
    0.9270002646641802    0.1891421482413114    0.2438031504778584    C831
    0.9270002646641802    0.5224754815746447    0.5771364838111919    C832
    0.9270002646641802    0.5224754815746447    0.9104698171445251    C833
    0.9270002646641802    0.5224754815746447    0.2438031504778584    C834
    0.9270002646641802    0.8558088149079781    0.5771364838111919    C835
    0.9270002646641802    0.8558088149079781    0.9104698171445251    C836
    0.9270002646641802    0.8558088149079781    0.2438031504778584    C837
    0.2227143316921111    0.2693042098362686    0.0902203121577464    C838
    0.2227143316921111    0.2693042098362686    0.4235536454910798    C839
    0.2227143316921111    0.2693042098362686    0.7568869788244130    C840
    0.2227143316921111    0.6026375431696019    0.0902203121577464    C841
    0.2227143316921111    0.6026375431696019    0.4235536454910798    C842
    0.2227143316921111    0.6026375431696019    0.7568869788244130    C843
    0.2227143316921111    0.9359708765029353    0.0902203121577464    C844
    0.2227143316921111    0.9359708765029353    0.4235536454910798    C845
    0.2227143316921111    0.9359708765029353    0.7568869788244130    C846
    0.5560476650254444    0.2693042098362686    0.0902203121577464    C847
    0.5560476650254444    0.2693042098362686    0.4235536454910798    C848
    0.5560476650254444    0.2693042098362686    0.7568869788244130    C849
    0.5560476650254444    0.6026375431696019    0.0902203121577464    C850
    0.5560476650254444    0.6026375431696019    0.4235536454910798    C851
    0.5560476650254444    0.6026375431696019    0.7568869788244130    C852
    0.5560476650254444    0.9359708765029353    0.0902203121577464    C853
    0.5560476650254444    0.9359708765029353    0.4235536454910798    C854
    0.5560476650254444    0.9359708765029353    0.7568869788244130    C855
    0.8893809983587777    0.2693042098362686    0.0902203121577464    C856
    0.8893809983587777    0.2693042098362686    0.4235536454910798    C857
    0.8893809983587777    0.2693042098362686    0.7568869788244130    C858
    0.8893809983587777    0.6026375431696019    0.0902203121577464    C859
    0.8893809983587777    0.6026375431696019    0.4235536454910798    C860
    0.8893809983587777    0.6026375431696019    0.7568869788244130    C861
    0.8893809983587777    0.9359708765029353    0.0902203121577464    C862
    0.8893809983587777    0.9359708765029353    0.4235536454910798    C863
    0.8893809983587777    0.9359708765029353    0.7568869788244130    C864
    0.1951139412336985    0.1247008817023917    0.5330415134341706    C865
    0.1951139412336985    0.1247008817023917    0.8663748467675039    C866
    0.1951139412336985    0.1247008817023917    0.1997081801008371    C867
    0.1951139412336985    0.4580342150357251    0.5330415134341706    C868
    0.1951139412336985    0.4580342150357251    0.8663748467675039    C869
    0.1951139412336985    0.4580342150357251    0.1997081801008371    C870
    0.1951139412336985    0.7913675483690584    0.5330415134341706    C871
    0.1951139412336985    0.7913675483690584    0.8663748467675039    C872
    0.1951139412336985    0.7913675483690584    0.1997081801008371    C873
    0.5284472745670318    0.1247008817023917    0.5330415134341706    C874
    0.5284472745670318    0.1247008817023917    0.8663748467675039    C875
    0.5284472745670318    0.1247008817023917    0.1997081801008371    C876
    0.5284472745670318    0.4580342150357251    0.5330415134341706    C877
    0.5284472745670318    0.4580342150357251    0.8663748467675039    C878
    0.5284472745670318    0.4580342150357251    0.1997081801008371    C879
    0.5284472745670318    0.7913675483690584    0.5330415134341706    C880
    0.5284472745670318    0.7913675483690584    0.8663748467675039    C881
    0.5284472745670318    0.7913675483690584    0.1997081801008371    C882
    0.8617806079003651    0.1247008817023917    0.5330415134341706    C883
    0.8617806079003651    0.1247008817023917    0.8663748467675039    C884
    0.8617806079003651    0.1247008817023917    0.1997081801008371    C885
    0.8617806079003651    0.4580342150357251    0.5330415134341706    C886
    0.8617806079003651    0.4580342150357251    0.8663748467675039    C887
    0.8617806079003651    0.4580342150357251    0.1997081801008371    C888
    0.8617806079003651    0.7913675483690584    0.5330415134341706    C889
    0.8617806079003651    0.7913675483690584    0.8663748467675039    C890
    0.8617806079003651    0.7913675483690584    0.1997081801008371    C891
    0.2467722189048517    0.1217097342718541    0.4028914123301225    C892
    0.2467722189048517    0.1217097342718541    0.7362247456634559    C893
    0.2467722189048517    0.1217097342718541    0.0695580789967891    C894
    0.2467722189048517    0.4550430676051874    0.4028914123301225    C895
    0.2467722189048517    0.4550430676051874    0.7362247456634559    C896
    0.2467722189048517    0.4550430676051874    0.0695580789967891    C897
    0.2467722189048517    0.7883764009385207    0.4028914123301225    C898
    0.2467722189048517    0.7883764009385207    0.7362247456634559    C899
    0.2467722189048517    0.7883764009385207    0.0695580789967891    C900
    0.5801055522381851    0.1217097342718541    0.4028914123301225    C901
    0.5801055522381851    0.1217097342718541    0.7362247456634559    C902
    0.5801055522381851    0.1217097342718541    0.0695580789967891    C903
    0.5801055522381851    0.4550430676051874    0.4028914123301225    C904
    0.5801055522381851    0.4550430676051874    0.7362247456634559    C905
    0.5801055522381851    0.4550430676051874    0.0695580789967891    C906
    0.5801055522381851    0.7883764009385207    0.4028914123301225    C907
    0.5801055522381851    0.7883764009385207    0.7362247456634559    C908
    0.5801055522381851    0.7883764009385207    0.0695580789967891    C909
    0.9134388855715183    0.1217097342718541    0.4028914123301225    C910
    0.9134388855715183    0.1217097342718541    0.7362247456634559    C911
    0.9134388855715183    0.1217097342718541    0.0695580789967891    C912
    0.9134388855715183    0.4550430676051874    0.4028914123301225    C913
    0.9134388855715183    0.4550430676051874    0.7362247456634559    C914
    0.9134388855715183    0.4550430676051874    0.0695580789967891    C915
    0.9134388855715183    0.7883764009385207    0.4028914123301225    C916
    0.9134388855715183    0.7883764009385207    0.7362247456634559    C917
    0.9134388855715183    0.7883764009385207    0.0695580789967891    C918
    0.2281743601032984    0.2015557051164881    0.5733877903012126    C919
    0.2281743601032984    0.2015557051164881    0.9067211236345459    C920
    0.2281743601032984    0.2015557051164881    0.2400544569678793    C921
    0.2281743601032984    0.5348890384498214    0.5733877903012126    C922
    0.2281743601032984    0.5348890384498214    0.9067211236345459    C923
    0.2281743601032984    0.5348890384498214    0.2400544569678793    C924
    0.2281743601032984    0.8682223717831548    0.5733877903012126    C925
    0.2281743601032984    0.8682223717831548    0.9067211236345459    C926
    0.2281743601032984    0.8682223717831548    0.2400544569678793    C927
    0.5615076934366316    0.2015557051164881    0.5733877903012126    C928
    0.5615076934366316    0.2015557051164881    0.9067211236345459    C929
    0.5615076934366316    0.2015557051164881    0.2400544569678793    C930
    0.5615076934366316    0.5348890384498214    0.5733877903012126    C931
    0.5615076934366316    0.5348890384498214    0.9067211236345459    C932
    0.5615076934366316    0.5348890384498214    0.2400544569678793    C933
    0.5615076934366316    0.8682223717831548    0.5733877903012126    C934
    0.5615076934366316    0.8682223717831548    0.9067211236345459    C935
    0.5615076934366316    0.8682223717831548    0.2400544569678793    C936
    0.8948410267699650    0.2015557051164881    0.5733877903012126    C937
    0.8948410267699650    0.2015557051164881    0.9067211236345459    C938
    0.8948410267699650    0.2015557051164881    0.2400544569678793    C939
    0.8948410267699650    0.5348890384498214    0.5733877903012126    C940
    0.8948410267699650    0.5348890384498214    0.9067211236345459    C941
    0.8948410267699650    0.5348890384498214    0.2400544569678793    C942
    0.8948410267699650    0.8682223717831548    0.5733877903012126    C943
    0.8948410267699650    0.8682223717831548    0.9067211236345459    C944
    0.8948410267699650    0.8682223717831548    0.2400544569678793    C945
    0.0680545461213071    0.1102861091154267    0.0843359349159754    C946
    0.0680545461213071    0.1102861091154267    0.4176692682493087    C947
    0.0680545461213071    0.1102861091154267    0.7510026015826421    C948
    0.0680545461213071    0.4436194424487601    0.0843359349159754    C949
    0.0680545461213071    0.4436194424487601    0.4176692682493087    C950
    0.0680545461213071    0.4436194424487601    0.7510026015826421    C951
    0.0680545461213071    0.7769527757820933    0.0843359349159754    C952
    0.0680545461213071    0.7769527757820933    0.4176692682493087    C953
    0.0680545461213071    0.7769527757820933    0.7510026015826421    C954
    0.4013878794546404    0.1102861091154267    0.0843359349159754    C955
    0.4013878794546404    0.1102861091154267    0.4176692682493087    C956
    0.4013878794546404    0.1102861091154267    0.7510026015826421    C957
    0.4013878794546404    0.4436194424487601    0.0843359349159754    C958
    0.4013878794546404    0.4436194424487601    0.4176692682493087    C959
    0.4013878794546404    0.4436194424487601    0.7510026015826421    C960
    0.4013878794546404    0.7769527757820933    0.0843359349159754    C961
    0.4013878794546404    0.7769527757820933    0.4176692682493087    C962
    0.4013878794546404    0.7769527757820933    0.7510026015826421    C963
    0.7347212127879736    0.1102861091154267    0.0843359349159754    C964
    0.7347212127879736    0.1102861091154267    0.4176692682493087    C965
    0.7347212127879736    0.1102861091154267    0.7510026015826421    C966
    0.7347212127879736    0.4436194424487601    0.0843359349159754    C967
    0.7347212127879736    0.4436194424487601    0.4176692682493087    C968
    0.7347212127879736    0.4436194424487601    0.7510026015826421    C969
    0.7347212127879736    0.7769527757820933    0.0843359349159754    C970
    0.7347212127879736    0.7769527757820933    0.4176692682493087    C971
    0.7347212127879736    0.7769527757820933    0.7510026015826421    C972
    0.1705347287539049    0.1754618616062733    0.2290320019483400    C973
    0.1705347287539049    0.1754618616062733    0.5623653352816733    C974
    0.1705347287539049    0.1754618616062733    0.8956986686150066    C975
    0.1705347287539049    0.5087951949396066    0.2290320019483400    C976
    0.1705347287539049    0.5087951949396066    0.5623653352816733    C977
    0.1705347287539049    0.5087951949396066    0.8956986686150066    C978
    0.1705347287539049    0.8421285282729399    0.2290320019483400    C979
    0.1705347287539049    0.8421285282729399    0.5623653352816733    C980
    0.1705347287539049    0.8421285282729399    0.8956986686150066    C981
    0.5038680620872382    0.1754618616062733    0.2290320019483400    C982
    0.5038680620872382    0.1754618616062733    0.5623653352816733    C983
    0.5038680620872382    0.1754618616062733    0.8956986686150066    C984
    0.5038680620872382    0.5087951949396066    0.2290320019483400    C985
    0.5038680620872382    0.5087951949396066    0.5623653352816733    C986
    0.5038680620872382    0.5087951949396066    0.8956986686150066    C987
    0.5038680620872382    0.8421285282729399    0.2290320019483400    C988
    0.5038680620872382    0.8421285282729399    0.5623653352816733    C989
    0.5038680620872382    0.8421285282729399    0.8956986686150066    C990
    0.8372013954205715    0.1754618616062733    0.2290320019483400    C991
    0.8372013954205715    0.1754618616062733    0.5623653352816733    C992
    0.8372013954205715    0.1754618616062733    0.8956986686150066    C993
    0.8372013954205715    0.5087951949396066    0.2290320019483400    C994
    0.8372013954205715    0.5087951949396066    0.5623653352816733    C995
    0.8372013954205715    0.5087951949396066    0.8956986686150066    C996
    0.8372013954205715    0.8421285282729399    0.2290320019483400    C997
    0.8372013954205715    0.8421285282729399    0.5623653352816733    C998
    0.8372013954205715    0.8421285282729399    0.8956986686150066    C999
    0.0404745848166188    0.0650669735901397    0.0326899174624199   C1000
    0.0404745848166188    0.0650669735901397    0.3660232507957532   C1001
    0.0404745848166188    0.0650669735901397    0.6993565841290865   C1002
    0.0404745848166188    0.3984003069234731    0.0326899174624199   C1003
    0.0404745848166188    0.3984003069234731    0.3660232507957532   C1004
    0.0404745848166188    0.3984003069234731    0.6993565841290865   C1005
    0.0404745848166188    0.7317336402568064    0.0326899174624199   C1006
    0.0404745848166188    0.7317336402568064    0.3660232507957532   C1007
    0.0404745848166188    0.7317336402568064    0.6993565841290865   C1008
    0.3738079181499521    0.0650669735901397    0.0326899174624199   C1009
    0.3738079181499521    0.0650669735901397    0.3660232507957532   C1010
    0.3738079181499521    0.0650669735901397    0.6993565841290865   C1011
    0.3738079181499521    0.3984003069234731    0.0326899174624199   C1012
    0.3738079181499521    0.3984003069234731    0.3660232507957532   C1013
    0.3738079181499521    0.3984003069234731    0.6993565841290865   C1014
    0.3738079181499521    0.7317336402568064    0.0326899174624199   C1015
    0.3738079181499521    0.7317336402568064    0.3660232507957532   C1016
    0.3738079181499521    0.7317336402568064    0.6993565841290865   C1017
    0.7071412514832854    0.0650669735901397    0.0326899174624199   C1018
    0.7071412514832854    0.0650669735901397    0.3660232507957532   C1019
    0.7071412514832854    0.0650669735901397    0.6993565841290865   C1020
    0.7071412514832854    0.3984003069234731    0.0326899174624199   C1021
    0.7071412514832854    0.3984003069234731    0.3660232507957532   C1022
    0.7071412514832854    0.3984003069234731    0.6993565841290865   C1023
    0.7071412514832854    0.7317336402568064    0.0326899174624199   C1024
    0.7071412514832854    0.7317336402568064    0.3660232507957532   C1025
    0.7071412514832854    0.7317336402568064    0.6993565841290865   C1026
    0.0746060155636969    0.0687721825909661    0.0933959588992782   C1027
    0.0746060155636969    0.0687721825909661    0.4267292922326116   C1028
    0.0746060155636969    0.0687721825909661    0.7600626255659448   C1029
    0.0746060155636969    0.4021055159242994    0.0933959588992782   C1030
    0.0746060155636969    0.4021055159242994    0.4267292922326116   C1031
    0.0746060155636969    0.4021055159242994    0.7600626255659448   C1032
    0.0746060155636969    0.7354388492576327    0.0933959588992782   C1033
    0.0746060155636969    0.7354388492576327    0.4267292922326116   C1034
    0.0746060155636969    0.7354388492576327    0.7600626255659448   C1035
    0.4079393488970303    0.0687721825909661    0.0933959588992782   C1036
    0.4079393488970303    0.0687721825909661    0.4267292922326116   C1037
    0.4079393488970303    0.0687721825909661    0.7600626255659448   C1038
    0.4079393488970303    0.4021055159242994    0.0933959588992782   C1039
    0.4079393488970303    0.4021055159242994    0.4267292922326116   C1040
    0.4079393488970303    0.4021055159242994    0.7600626255659448   C1041
    0.4079393488970303    0.7354388492576327    0.0933959588992782   C1042
    0.4079393488970303    0.7354388492576327    0.4267292922326116   C1043
    0.4079393488970303    0.7354388492576327    0.7600626255659448   C1044
    0.7412726822303635    0.0687721825909661    0.0933959588992782   C1045
    0.7412726822303635    0.0687721825909661    0.4267292922326116   C1046
    0.7412726822303635    0.0687721825909661    0.7600626255659448   C1047
    0.7412726822303635    0.4021055159242994    0.0933959588992782   C1048
    0.7412726822303635    0.4021055159242994    0.4267292922326116   C1049
    0.7412726822303635    0.4021055159242994    0.7600626255659448   C1050
    0.7412726822303635    0.7354388492576327    0.0933959588992782   C1051
    0.7412726822303635    0.7354388492576327    0.4267292922326116   C1052
    0.7412726822303635    0.7354388492576327    0.7600626255659448   C1053
    0.1244732855710825    0.2188686126568680    0.4387241221786649   C1054
    0.1244732855710825    0.2188686126568680    0.7720574555119981   C1055
    0.1244732855710825    0.2188686126568680    0.1053907888453314   C1056
    0.1244732855710825    0.5522019459902012    0.4387241221786649   C1057
    0.1244732855710825    0.5522019459902012    0.7720574555119981   C1058
    0.1244732855710825    0.5522019459902012    0.1053907888453314   C1059
    0.1244732855710825    0.8855352793235346    0.4387241221786649   C1060
    0.1244732855710825    0.8855352793235346    0.7720574555119981   C1061
    0.1244732855710825    0.8855352793235346    0.1053907888453314   C1062
    0.4578066189044159    0.2188686126568680    0.4387241221786649   C1063
    0.4578066189044159    0.2188686126568680    0.7720574555119981   C1064
    0.4578066189044159    0.2188686126568680    0.1053907888453314   C1065
    0.4578066189044159    0.5522019459902012    0.4387241221786649   C1066
    0.4578066189044159    0.5522019459902012    0.7720574555119981   C1067
    0.4578066189044159    0.5522019459902012    0.1053907888453314   C1068
    0.4578066189044159    0.8855352793235346    0.4387241221786649   C1069
    0.4578066189044159    0.8855352793235346    0.7720574555119981   C1070
    0.4578066189044159    0.8855352793235346    0.1053907888453314   C1071
    0.7911399522377491    0.2188686126568680    0.4387241221786649   C1072
    0.7911399522377491    0.2188686126568680    0.7720574555119981   C1073
    0.7911399522377491    0.2188686126568680    0.1053907888453314   C1074
    0.7911399522377491    0.5522019459902012    0.4387241221786649   C1075
    0.7911399522377491    0.5522019459902012    0.7720574555119981   C1076
    0.7911399522377491    0.5522019459902012    0.1053907888453314   C1077
    0.7911399522377491    0.8855352793235346    0.4387241221786649   C1078
    0.7911399522377491    0.8855352793235346    0.7720574555119981   C1079
    0.7911399522377491    0.8855352793235346    0.1053907888453314   C1080
    0.0583309944083403    0.3171855385280096    0.2003976476219596   C1081
    0.0583309944083403    0.3171855385280096    0.5337309809552929   C1082
    0.0583309944083403    0.3171855385280096    0.8670643142886263   C1083
    0.0583309944083403    0.6505188718613429    0.2003976476219596   C1084
    0.0583309944083403    0.6505188718613429    0.5337309809552929   C1085
    0.0583309944083403    0.6505188718613429    0.8670643142886263   C1086
    0.0583309944083403    0.9838522051946763    0.2003976476219596   C1087
    0.0583309944083403    0.9838522051946763    0.5337309809552929   C1088
    0.0583309944083403    0.9838522051946763    0.8670643142886263   C1089
    0.3916643277416736    0.3171855385280096    0.2003976476219596   C1090
    0.3916643277416736    0.3171855385280096    0.5337309809552929   C1091
    0.3916643277416736    0.3171855385280096    0.8670643142886263   C1092
    0.3916643277416736    0.6505188718613429    0.2003976476219596   C1093
    0.3916643277416736    0.6505188718613429    0.5337309809552929   C1094
    0.3916643277416736    0.6505188718613429    0.8670643142886263   C1095
    0.3916643277416736    0.9838522051946763    0.2003976476219596   C1096
    0.3916643277416736    0.9838522051946763    0.5337309809552929   C1097
    0.3916643277416736    0.9838522051946763    0.8670643142886263   C1098
    0.7249976610750070    0.3171855385280096    0.2003976476219596   C1099
    0.7249976610750070    0.3171855385280096    0.5337309809552929   C1100
    0.7249976610750070    0.3171855385280096    0.8670643142886263   C1101
    0.7249976610750070    0.6505188718613429    0.2003976476219596   C1102
    0.7249976610750070    0.6505188718613429    0.5337309809552929   C1103
    0.7249976610750070    0.6505188718613429    0.8670643142886263   C1104
    0.7249976610750070    0.9838522051946763    0.2003976476219596   C1105
    0.7249976610750070    0.9838522051946763    0.5337309809552929   C1106
    0.7249976610750070    0.9838522051946763    0.8670643142886263   C1107
    0.0545681966385576    0.3515130119159094    0.2262598404661935   C1108
    0.0545681966385576    0.3515130119159094    0.5595931737995269   C1109
    0.0545681966385576    0.3515130119159094    0.8929265071328603   C1110
    0.0545681966385576    0.6848463452492428    0.2262598404661935   C1111
    0.0545681966385576    0.6848463452492428    0.5595931737995269   C1112
    0.0545681966385576    0.6848463452492428    0.8929265071328603   C1113
    0.0545681966385576    0.0181796785825761    0.2262598404661935   C1114
    0.0545681966385576    0.0181796785825761    0.5595931737995269   C1115
    0.0545681966385576    0.0181796785825761    0.8929265071328603   C1116
    0.3879015299718909    0.3515130119159094    0.2262598404661935   C1117
    0.3879015299718909    0.3515130119159094    0.5595931737995269   C1118
    0.3879015299718909    0.3515130119159094    0.8929265071328603   C1119
    0.3879015299718909    0.6848463452492428    0.2262598404661935   C1120
    0.3879015299718909    0.6848463452492428    0.5595931737995269   C1121
    0.3879015299718909    0.6848463452492428    0.8929265071328603   C1122
    0.3879015299718909    0.0181796785825761    0.2262598404661935   C1123
    0.3879015299718909    0.0181796785825761    0.5595931737995269   C1124
    0.3879015299718909    0.0181796785825761    0.8929265071328603   C1125
    0.7212348633052242    0.3515130119159094    0.2262598404661935   C1126
    0.7212348633052242    0.3515130119159094    0.5595931737995269   C1127
    0.7212348633052242    0.3515130119159094    0.8929265071328603   C1128
    0.7212348633052242    0.6848463452492428    0.2262598404661935   C1129
    0.7212348633052242    0.6848463452492428    0.5595931737995269   C1130
    0.7212348633052242    0.6848463452492428    0.8929265071328603   C1131
    0.7212348633052242    0.0181796785825761    0.2262598404661935   C1132
    0.7212348633052242    0.0181796785825761    0.5595931737995269   C1133
    0.7212348633052242    0.0181796785825761    0.8929265071328603   C1134
    0.0898464296173155    0.2559799280121712    0.1809587322631773   C1135
    0.0898464296173155    0.2559799280121712    0.5142920655965106   C1136
    0.0898464296173155    0.2559799280121712    0.8476253989298439   C1137
    0.0898464296173155    0.5893132613455045    0.1809587322631773   C1138
    0.0898464296173155    0.5893132613455045    0.5142920655965106   C1139
    0.0898464296173155    0.5893132613455045    0.8476253989298439   C1140
    0.0898464296173155    0.9226465946788378    0.1809587322631773   C1141
    0.0898464296173155    0.9226465946788378    0.5142920655965106   C1142
    0.0898464296173155    0.9226465946788378    0.8476253989298439   C1143
    0.4231797629506487    0.2559799280121712    0.1809587322631773   C1144
    0.4231797629506487    0.2559799280121712    0.5142920655965106   C1145
    0.4231797629506487    0.2559799280121712    0.8476253989298439   C1146
    0.4231797629506487    0.5893132613455045    0.1809587322631773   C1147
    0.4231797629506487    0.5893132613455045    0.5142920655965106   C1148
    0.4231797629506487    0.5893132613455045    0.8476253989298439   C1149
    0.4231797629506487    0.9226465946788378    0.1809587322631773   C1150
    0.4231797629506487    0.9226465946788378    0.5142920655965106   C1151
    0.4231797629506487    0.9226465946788378    0.8476253989298439   C1152
    0.7565130962839821    0.2559799280121712    0.1809587322631773   C1153
    0.7565130962839821    0.2559799280121712    0.5142920655965106   C1154
    0.7565130962839821    0.2559799280121712    0.8476253989298439   C1155
    0.7565130962839821    0.5893132613455045    0.1809587322631773   C1156
    0.7565130962839821    0.5893132613455045    0.5142920655965106   C1157
    0.7565130962839821    0.5893132613455045    0.8476253989298439   C1158
    0.7565130962839821    0.9226465946788378    0.1809587322631773   C1159
    0.7565130962839821    0.9226465946788378    0.5142920655965106   C1160
    0.7565130962839821    0.9226465946788378    0.8476253989298439   C1161
    0.2351851991044273    0.1006286148683134    0.4248453676916557   C1162
    0.2351851991044273    0.1006286148683134    0.7581787010249890   C1163
    0.2351851991044273    0.1006286148683134    0.0915120343583222   C1164
    0.2351851991044273    0.4339619482016467    0.4248453676916557   C1165
    0.2351851991044273    0.4339619482016467    0.7581787010249890   C1166
    0.2351851991044273    0.4339619482016467    0.0915120343583222   C1167
    0.2351851991044273    0.7672952815349801    0.4248453676916557   C1168
    0.2351851991044273    0.7672952815349801    0.7581787010249890   C1169
    0.2351851991044273    0.7672952815349801    0.0915120343583222   C1170
    0.5685185324377606    0.1006286148683134    0.4248453676916557   C1171
    0.5685185324377606    0.1006286148683134    0.7581787010249890   C1172
    0.5685185324377606    0.1006286148683134    0.0915120343583222   C1173
    0.5685185324377606    0.4339619482016467    0.4248453676916557   C1174
    0.5685185324377606    0.4339619482016467    0.7581787010249890   C1175
    0.5685185324377606    0.4339619482016467    0.0915120343583222   C1176
    0.5685185324377606    0.7672952815349801    0.4248453676916557   C1177
    0.5685185324377606    0.7672952815349801    0.7581787010249890   C1178
    0.5685185324377606    0.7672952815349801    0.0915120343583222   C1179
    0.9018518657710939    0.1006286148683134    0.4248453676916557   C1180
    0.9018518657710939    0.1006286148683134    0.7581787010249890   C1181
    0.9018518657710939    0.1006286148683134    0.0915120343583222   C1182
    0.9018518657710939    0.4339619482016467    0.4248453676916557   C1183
    0.9018518657710939    0.4339619482016467    0.7581787010249890   C1184
    0.9018518657710939    0.4339619482016467    0.0915120343583222   C1185
    0.9018518657710939    0.7672952815349801    0.4248453676916557   C1186
    0.9018518657710939    0.7672952815349801    0.7581787010249890   C1187
    0.9018518657710939    0.7672952815349801    0.0915120343583222   C1188
    0.0871090797828625    0.3811801164962231    0.2573782675962828   C1189
    0.0871090797828625    0.3811801164962231    0.5907116009296162   C1190
    0.0871090797828625    0.3811801164962231    0.9240449342629495   C1191
    0.0871090797828625    0.7145134498295564    0.2573782675962828   C1192
    0.0871090797828625    0.7145134498295564    0.5907116009296162   C1193
    0.0871090797828625    0.7145134498295564    0.9240449342629495   C1194
    0.0871090797828625    0.0478467831628897    0.2573782675962828   C1195
    0.0871090797828625    0.0478467831628897    0.5907116009296162   C1196
    0.0871090797828625    0.0478467831628897    0.9240449342629495   C1197
    0.4204424131161959    0.3811801164962231    0.2573782675962828   C1198
    0.4204424131161959    0.3811801164962231    0.5907116009296162   C1199
    0.4204424131161959    0.3811801164962231    0.9240449342629495   C1200
    0.4204424131161959    0.7145134498295564    0.2573782675962828   C1201
    0.4204424131161959    0.7145134498295564    0.5907116009296162   C1202
    0.4204424131161959    0.7145134498295564    0.9240449342629495   C1203
    0.4204424131161959    0.0478467831628897    0.2573782675962828   C1204
    0.4204424131161959    0.0478467831628897    0.5907116009296162   C1205
    0.4204424131161959    0.0478467831628897    0.9240449342629495   C1206
    0.7537757464495292    0.3811801164962231    0.2573782675962828   C1207
    0.7537757464495292    0.3811801164962231    0.5907116009296162   C1208
    0.7537757464495292    0.3811801164962231    0.9240449342629495   C1209
    0.7537757464495292    0.7145134498295564    0.2573782675962828   C1210
    0.7537757464495292    0.7145134498295564    0.5907116009296162   C1211
    0.7537757464495292    0.7145134498295564    0.9240449342629495   C1212
    0.7537757464495292    0.0478467831628897    0.2573782675962828   C1213
    0.7537757464495292    0.0478467831628897    0.5907116009296162   C1214
    0.7537757464495292    0.0478467831628897    0.9240449342629495   C1215
    0.0824625539247209    0.2864919761955616    0.2092409604324849   C1216
    0.0824625539247209    0.2864919761955616    0.5425742937658181   C1217
    0.0824625539247209    0.2864919761955616    0.8759076270991515   C1218
    0.0824625539247209    0.6198253095288949    0.2092409604324849   C1219
    0.0824625539247209    0.6198253095288949    0.5425742937658181   C1220
    0.0824625539247209    0.6198253095288949    0.8759076270991515   C1221
    0.0824625539247209    0.9531586428622282    0.2092409604324849   C1222
    0.0824625539247209    0.9531586428622282    0.5425742937658181   C1223
    0.0824625539247209    0.9531586428622282    0.8759076270991515   C1224
    0.4157958872580543    0.2864919761955616    0.2092409604324849   C1225
    0.4157958872580543    0.2864919761955616    0.5425742937658181   C1226
    0.4157958872580543    0.2864919761955616    0.8759076270991515   C1227
    0.4157958872580543    0.6198253095288949    0.2092409604324849   C1228
    0.4157958872580543    0.6198253095288949    0.5425742937658181   C1229
    0.4157958872580543    0.6198253095288949    0.8759076270991515   C1230
    0.4157958872580543    0.9531586428622282    0.2092409604324849   C1231
    0.4157958872580543    0.9531586428622282    0.5425742937658181   C1232
    0.4157958872580543    0.9531586428622282    0.8759076270991515   C1233
    0.7491292205913875    0.2864919761955616    0.2092409604324849   C1234
    0.7491292205913875    0.2864919761955616    0.5425742937658181   C1235
    0.7491292205913875    0.2864919761955616    0.8759076270991515   C1236
    0.7491292205913875    0.6198253095288949    0.2092409604324849   C1237
    0.7491292205913875    0.6198253095288949    0.5425742937658181   C1238
    0.7491292205913875    0.6198253095288949    0.8759076270991515   C1239
    0.7491292205913875    0.9531586428622282    0.2092409604324849   C1240
    0.7491292205913875    0.9531586428622282    0.5425742937658181   C1241
    0.7491292205913875    0.9531586428622282    0.8759076270991515   C1242
    0.1960223847053833    0.1164673657126807    0.4622852004860266   C1243
    0.1960223847053833    0.1164673657126807    0.7956185338193600   C1244
    0.1960223847053833    0.1164673657126807    0.1289518671526932   C1245
    0.1960223847053833    0.4498006990460141    0.4622852004860266   C1246
    0.1960223847053833    0.4498006990460141    0.7956185338193600   C1247
    0.1960223847053833    0.4498006990460141    0.1289518671526932   C1248
    0.1960223847053833    0.7831340323793473    0.4622852004860266   C1249
    0.1960223847053833    0.7831340323793473    0.7956185338193600   C1250
    0.1960223847053833    0.7831340323793473    0.1289518671526932   C1251
    0.5293557180387166    0.1164673657126807    0.4622852004860266   C1252
    0.5293557180387166    0.1164673657126807    0.7956185338193600   C1253
    0.5293557180387166    0.1164673657126807    0.1289518671526932   C1254
    0.5293557180387166    0.4498006990460141    0.4622852004860266   C1255
    0.5293557180387166    0.4498006990460141    0.7956185338193600   C1256
    0.5293557180387166    0.4498006990460141    0.1289518671526932   C1257
    0.5293557180387166    0.7831340323793473    0.4622852004860266   C1258
    0.5293557180387166    0.7831340323793473    0.7956185338193600   C1259
    0.5293557180387166    0.7831340323793473    0.1289518671526932   C1260
    0.8626890513720499    0.1164673657126807    0.4622852004860266   C1261
    0.8626890513720499    0.1164673657126807    0.7956185338193600   C1262
    0.8626890513720499    0.1164673657126807    0.1289518671526932   C1263
    0.8626890513720499    0.4498006990460141    0.4622852004860266   C1264
    0.8626890513720499    0.4498006990460141    0.7956185338193600   C1265
    0.8626890513720499    0.4498006990460141    0.1289518671526932   C1266
    0.8626890513720499    0.7831340323793473    0.4622852004860266   C1267
    0.8626890513720499    0.7831340323793473    0.7956185338193600   C1268
    0.8626890513720499    0.7831340323793473    0.1289518671526932   C1269
    0.0255748229221635    0.2852906332544183    0.1838228211390027   C1270
    0.0255748229221635    0.2852906332544183    0.5171561544723360   C1271
    0.0255748229221635    0.2852906332544183    0.8504894878056694   C1272
    0.0255748229221635    0.6186239665877517    0.1838228211390027   C1273
    0.0255748229221635    0.6186239665877517    0.5171561544723360   C1274
    0.0255748229221635    0.6186239665877517    0.8504894878056694   C1275
    0.0255748229221635    0.9519572999210850    0.1838228211390027   C1276
    0.0255748229221635    0.9519572999210850    0.5171561544723360   C1277
    0.0255748229221635    0.9519572999210850    0.8504894878056694   C1278
    0.3589081562554968    0.2852906332544183    0.1838228211390027   C1279
    0.3589081562554968    0.2852906332544183    0.5171561544723360   C1280
    0.3589081562554968    0.2852906332544183    0.8504894878056694   C1281
    0.3589081562554968    0.6186239665877517    0.1838228211390027   C1282
    0.3589081562554968    0.6186239665877517    0.5171561544723360   C1283
    0.3589081562554968    0.6186239665877517    0.8504894878056694   C1284
    0.3589081562554968    0.9519572999210850    0.1838228211390027   C1285
    0.3589081562554968    0.9519572999210850    0.5171561544723360   C1286
    0.3589081562554968    0.9519572999210850    0.8504894878056694   C1287
    0.6922414895888301    0.2852906332544183    0.1838228211390027   C1288
    0.6922414895888301    0.2852906332544183    0.5171561544723360   C1289
    0.6922414895888301    0.2852906332544183    0.8504894878056694   C1290
    0.6922414895888301    0.6186239665877517    0.1838228211390027   C1291
    0.6922414895888301    0.6186239665877517    0.5171561544723360   C1292
    0.6922414895888301    0.6186239665877517    0.8504894878056694   C1293
    0.6922414895888301    0.9519572999210850    0.1838228211390027   C1294
    0.6922414895888301    0.9519572999210850    0.5171561544723360   C1295
    0.6922414895888301    0.9519572999210850    0.8504894878056694   C1296
    0.1277971062558856    0.9413741107419860    0.2898832179928554   C1297
    0.1277971062558856    0.9413741107419860    0.6232165513261887   C1298
    0.1277971062558856    0.9413741107419860    0.9565498846595221   C1299
    0.1277971062558856    0.2747074440753192    0.2898832179928554   C1300
    0.1277971062558856    0.2747074440753192    0.6232165513261887   C1301
    0.1277971062558856    0.2747074440753192    0.9565498846595221   C1302
    0.1277971062558856    0.6080407774086525    0.2898832179928554   C1303
    0.1277971062558856    0.6080407774086525    0.6232165513261887   C1304
    0.1277971062558856    0.6080407774086525    0.9565498846595221   C1305
    0.4611304395892190    0.9413741107419860    0.2898832179928554   C1306
    0.4611304395892190    0.9413741107419860    0.6232165513261887   C1307
    0.4611304395892190    0.9413741107419860    0.9565498846595221   C1308
    0.4611304395892190    0.2747074440753192    0.2898832179928554   C1309
    0.4611304395892190    0.2747074440753192    0.6232165513261887   C1310
    0.4611304395892190    0.2747074440753192    0.9565498846595221   C1311
    0.4611304395892190    0.6080407774086525    0.2898832179928554   C1312
    0.4611304395892190    0.6080407774086525    0.6232165513261887   C1313
    0.4611304395892190    0.6080407774086525    0.9565498846595221   C1314
    0.7944637729225523    0.9413741107419860    0.2898832179928554   C1315
    0.7944637729225523    0.9413741107419860    0.6232165513261887   C1316
    0.7944637729225523    0.9413741107419860    0.9565498846595221   C1317
    0.7944637729225523    0.2747074440753192    0.2898832179928554   C1318
    0.7944637729225523    0.2747074440753192    0.6232165513261887   C1319
    0.7944637729225523    0.2747074440753192    0.9565498846595221   C1320
    0.7944637729225523    0.6080407774086525    0.2898832179928554   C1321
    0.7944637729225523    0.6080407774086525    0.6232165513261887   C1322
    0.7944637729225523    0.6080407774086525    0.9565498846595221   C1323
    0.0415678696235297    0.2764641276647638    0.0437217994136379   C1324
    0.0415678696235297    0.2764641276647638    0.3770551327469712   C1325
    0.0415678696235297    0.2764641276647638    0.7103884660803046   C1326
    0.0415678696235297    0.6097974609980971    0.0437217994136379   C1327
    0.0415678696235297    0.6097974609980971    0.3770551327469712   C1328
    0.0415678696235297    0.6097974609980971    0.7103884660803046   C1329
    0.0415678696235297    0.9431307943314304    0.0437217994136379   C1330
    0.0415678696235297    0.9431307943314304    0.3770551327469712   C1331
    0.0415678696235297    0.9431307943314304    0.7103884660803046   C1332
    0.3749012029568630    0.2764641276647638    0.0437217994136379   C1333
    0.3749012029568630    0.2764641276647638    0.3770551327469712   C1334
    0.3749012029568630    0.2764641276647638    0.7103884660803046   C1335
    0.3749012029568630    0.6097974609980971    0.0437217994136379   C1336
    0.3749012029568630    0.6097974609980971    0.3770551327469712   C1337
    0.3749012029568630    0.6097974609980971    0.7103884660803046   C1338
    0.3749012029568630    0.9431307943314304    0.0437217994136379   C1339
    0.3749012029568630    0.9431307943314304    0.3770551327469712   C1340
    0.3749012029568630    0.9431307943314304    0.7103884660803046   C1341
    0.7082345362901964    0.2764641276647638    0.0437217994136379   C1342
    0.7082345362901964    0.2764641276647638    0.3770551327469712   C1343
    0.7082345362901964    0.2764641276647638    0.7103884660803046   C1344
    0.7082345362901964    0.6097974609980971    0.0437217994136379   C1345
    0.7082345362901964    0.6097974609980971    0.3770551327469712   C1346
    0.7082345362901964    0.6097974609980971    0.7103884660803046   C1347
    0.7082345362901964    0.9431307943314304    0.0437217994136379   C1348
    0.7082345362901964    0.9431307943314304    0.3770551327469712   C1349
    0.7082345362901964    0.9431307943314304    0.7103884660803046   C1350
    0.0470726017665723    0.1151140312734707    0.0525431641828694   C1351
    0.0470726017665723    0.1151140312734707    0.3858764975162027   C1352
    0.0470726017665723    0.1151140312734707    0.7192098308495360   C1353
    0.0470726017665723    0.4484473646068040    0.0525431641828694   C1354
    0.0470726017665723    0.4484473646068040    0.3858764975162027   C1355
    0.0470726017665723    0.4484473646068040    0.7192098308495360   C1356
    0.0470726017665723    0.7817806979401373    0.0525431641828694   C1357
    0.0470726017665723    0.7817806979401373    0.3858764975162027   C1358
    0.0470726017665723    0.7817806979401373    0.7192098308495360   C1359
    0.3804059350999056    0.1151140312734707    0.0525431641828694   C1360
    0.3804059350999056    0.1151140312734707    0.3858764975162027   C1361
    0.3804059350999056    0.1151140312734707    0.7192098308495360   C1362
    0.3804059350999056    0.4484473646068040    0.0525431641828694   C1363
    0.3804059350999056    0.4484473646068040    0.3858764975162027   C1364
    0.3804059350999056    0.4484473646068040    0.7192098308495360   C1365
    0.3804059350999056    0.7817806979401373    0.0525431641828694   C1366
    0.3804059350999056    0.7817806979401373    0.3858764975162027   C1367
    0.3804059350999056    0.7817806979401373    0.7192098308495360   C1368
    0.7137392684332389    0.1151140312734707    0.0525431641828694   C1369
    0.7137392684332389    0.1151140312734707    0.3858764975162027   C1370
    0.7137392684332389    0.1151140312734707    0.7192098308495360   C1371
    0.7137392684332389    0.4484473646068040    0.0525431641828694   C1372
    0.7137392684332389    0.4484473646068040    0.3858764975162027   C1373
    0.7137392684332389    0.4484473646068040    0.7192098308495360   C1374
    0.7137392684332389    0.7817806979401373    0.0525431641828694   C1375
    0.7137392684332389    0.7817806979401373    0.3858764975162027   C1376
    0.7137392684332389    0.7817806979401373    0.7192098308495360   C1377
    0.1265795197582752    0.0476314948408820    0.3529098548997547   C1378
    0.1265795197582752    0.0476314948408820    0.6862431882330881   C1379
    0.1265795197582752    0.0476314948408820    0.0195765215664214   C1380
    0.1265795197582752    0.3809648281742153    0.3529098548997547   C1381
    0.1265795197582752    0.3809648281742153    0.6862431882330881   C1382
    0.1265795197582752    0.3809648281742153    0.0195765215664214   C1383
    0.1265795197582752    0.7142981615075487    0.3529098548997547   C1384
    0.1265795197582752    0.7142981615075487    0.6862431882330881   C1385
    0.1265795197582752    0.7142981615075487    0.0195765215664214   C1386
    0.4599128530916085    0.0476314948408820    0.3529098548997547   C1387
    0.4599128530916085    0.0476314948408820    0.6862431882330881   C1388
    0.4599128530916085    0.0476314948408820    0.0195765215664214   C1389
    0.4599128530916085    0.3809648281742153    0.3529098548997547   C1390
    0.4599128530916085    0.3809648281742153    0.6862431882330881   C1391
    0.4599128530916085    0.3809648281742153    0.0195765215664214   C1392
    0.4599128530916085    0.7142981615075487    0.3529098548997547   C1393
    0.4599128530916085    0.7142981615075487    0.6862431882330881   C1394
    0.4599128530916085    0.7142981615075487    0.0195765215664214   C1395
    0.7932461864249418    0.0476314948408820    0.3529098548997547   C1396
    0.7932461864249418    0.0476314948408820    0.6862431882330881   C1397
    0.7932461864249418    0.0476314948408820    0.0195765215664214   C1398
    0.7932461864249418    0.3809648281742153    0.3529098548997547   C1399
    0.7932461864249418    0.3809648281742153    0.6862431882330881   C1400
    0.7932461864249418    0.3809648281742153    0.0195765215664214   C1401
    0.7932461864249418    0.7142981615075487    0.3529098548997547   C1402
    0.7932461864249418    0.7142981615075487    0.6862431882330881   C1403
    0.7932461864249418    0.7142981615075487    0.0195765215664214   C1404
    0.2906499016708812    0.2567930259303531    0.1869802284906686   C1405
    0.2906499016708812    0.2567930259303531    0.5203135618240019   C1406
    0.2906499016708812    0.2567930259303531    0.8536468951573353   C1407
    0.2906499016708812    0.5901263592636864    0.1869802284906686   C1408
    0.2906499016708812    0.5901263592636864    0.5203135618240019   C1409
    0.2906499016708812    0.5901263592636864    0.8536468951573353   C1410
    0.2906499016708812    0.9234596925970197    0.1869802284906686   C1411
    0.2906499016708812    0.9234596925970197    0.5203135618240019   C1412
    0.2906499016708812    0.9234596925970197    0.8536468951573353   C1413
    0.6239832350042145    0.2567930259303531    0.1869802284906686   C1414
    0.6239832350042145    0.2567930259303531    0.5203135618240019   C1415
    0.6239832350042145    0.2567930259303531    0.8536468951573353   C1416
    0.6239832350042145    0.5901263592636864    0.1869802284906686   C1417
    0.6239832350042145    0.5901263592636864    0.5203135618240019   C1418
    0.6239832350042145    0.5901263592636864    0.8536468951573353   C1419
    0.6239832350042145    0.9234596925970197    0.1869802284906686   C1420
    0.6239832350042145    0.9234596925970197    0.5203135618240019   C1421
    0.6239832350042145    0.9234596925970197    0.8536468951573353   C1422
    0.9573165683375479    0.2567930259303531    0.1869802284906686   C1423
    0.9573165683375479    0.2567930259303531    0.5203135618240019   C1424
    0.9573165683375479    0.2567930259303531    0.8536468951573353   C1425
    0.9573165683375479    0.5901263592636864    0.1869802284906686   C1426
    0.9573165683375479    0.5901263592636864    0.5203135618240019   C1427
    0.9573165683375479    0.5901263592636864    0.8536468951573353   C1428
    0.9573165683375479    0.9234596925970197    0.1869802284906686   C1429
    0.9573165683375479    0.9234596925970197    0.5203135618240019   C1430
    0.9573165683375479    0.9234596925970197    0.8536468951573353   C1431
    0.3317217813825258    0.3094658224599434    0.1770883349381214   C1432
    0.3317217813825258    0.3094658224599434    0.5104216682714546   C1433
    0.3317217813825258    0.3094658224599434    0.8437550016047881   C1434
    0.3317217813825258    0.6427991557932767    0.1770883349381214   C1435
    0.3317217813825258    0.6427991557932767    0.5104216682714546   C1436
    0.3317217813825258    0.6427991557932767    0.8437550016047881   C1437
    0.3317217813825258    0.9761324891266101    0.1770883349381214   C1438
    0.3317217813825258    0.9761324891266101    0.5104216682714546   C1439
    0.3317217813825258    0.9761324891266101    0.8437550016047881   C1440
    0.6650551147158592    0.3094658224599434    0.1770883349381214   C1441
    0.6650551147158592    0.3094658224599434    0.5104216682714546   C1442
    0.6650551147158592    0.3094658224599434    0.8437550016047881   C1443
    0.6650551147158592    0.6427991557932767    0.1770883349381214   C1444
    0.6650551147158592    0.6427991557932767    0.5104216682714546   C1445
    0.6650551147158592    0.6427991557932767    0.8437550016047881   C1446
    0.6650551147158592    0.9761324891266101    0.1770883349381214   C1447
    0.6650551147158592    0.9761324891266101    0.5104216682714546   C1448
    0.6650551147158592    0.9761324891266101    0.8437550016047881   C1449
    0.9983884480491925    0.3094658224599434    0.1770883349381214   C1450
    0.9983884480491925    0.3094658224599434    0.5104216682714546   C1451
    0.9983884480491925    0.3094658224599434    0.8437550016047881   C1452
    0.9983884480491925    0.6427991557932767    0.1770883349381214   C1453
    0.9983884480491925    0.6427991557932767    0.5104216682714546   C1454
    0.9983884480491925    0.6427991557932767    0.8437550016047881   C1455
    0.9983884480491925    0.9761324891266101    0.1770883349381214   C1456
    0.9983884480491925    0.9761324891266101    0.5104216682714546   C1457
    0.9983884480491925    0.9761324891266101    0.8437550016047881   C1458
    0.3000274793396552    0.2790571150240047    0.1657779936498966   C1459
    0.3000274793396552    0.2790571150240047    0.4991113269832299   C1460
    0.3000274793396552    0.2790571150240047    0.8324446603165632   C1461
    0.3000274793396552    0.6123904483573380    0.1657779936498966   C1462
    0.3000274793396552    0.6123904483573380    0.4991113269832299   C1463
    0.3000274793396552    0.6123904483573380    0.8324446603165632   C1464
    0.3000274793396552    0.9457237816906714    0.1657779936498966   C1465
    0.3000274793396552    0.9457237816906714    0.4991113269832299   C1466
    0.3000274793396552    0.9457237816906714    0.8324446603165632   C1467
    0.6333608126729886    0.2790571150240047    0.1657779936498966   C1468
    0.6333608126729886    0.2790571150240047    0.4991113269832299   C1469
    0.6333608126729886    0.2790571150240047    0.8324446603165632   C1470
    0.6333608126729886    0.6123904483573380    0.1657779936498966   C1471
    0.6333608126729886    0.6123904483573380    0.4991113269832299   C1472
    0.6333608126729886    0.6123904483573380    0.8324446603165632   C1473
    0.6333608126729886    0.9457237816906714    0.1657779936498966   C1474
    0.6333608126729886    0.9457237816906714    0.4991113269832299   C1475
    0.6333608126729886    0.9457237816906714    0.8324446603165632   C1476
    0.9666941460063219    0.2790571150240047    0.1657779936498966   C1477
    0.9666941460063219    0.2790571150240047    0.4991113269832299   C1478
    0.9666941460063219    0.2790571150240047    0.8324446603165632   C1479
    0.9666941460063219    0.6123904483573380    0.1657779936498966   C1480
    0.9666941460063219    0.6123904483573380    0.4991113269832299   C1481
    0.9666941460063219    0.6123904483573380    0.8324446603165632   C1482
    0.9666941460063219    0.9457237816906714    0.1657779936498966   C1483
    0.9666941460063219    0.9457237816906714    0.4991113269832299   C1484
    0.9666941460063219    0.9457237816906714    0.8324446603165632   C1485
    0.0969776402775608    0.0951856478154958    0.3161588930438447   C1486
    0.0969776402775608    0.0951856478154958    0.6494922263771780   C1487
    0.0969776402775608    0.0951856478154958    0.9828255597105113   C1488
    0.0969776402775608    0.4285189811488291    0.3161588930438447   C1489
    0.0969776402775608    0.4285189811488291    0.6494922263771780   C1490
    0.0969776402775608    0.4285189811488291    0.9828255597105113   C1491
    0.0969776402775608    0.7618523144821624    0.3161588930438447   C1492
    0.0969776402775608    0.7618523144821624    0.6494922263771780   C1493
    0.0969776402775608    0.7618523144821624    0.9828255597105113   C1494
    0.4303109736108941    0.0951856478154958    0.3161588930438447   C1495
    0.4303109736108941    0.0951856478154958    0.6494922263771780   C1496
    0.4303109736108941    0.0951856478154958    0.9828255597105113   C1497
    0.4303109736108941    0.4285189811488291    0.3161588930438447   C1498
    0.4303109736108941    0.4285189811488291    0.6494922263771780   C1499
    0.4303109736108941    0.4285189811488291    0.9828255597105113   C1500
    0.4303109736108941    0.7618523144821624    0.3161588930438447   C1501
    0.4303109736108941    0.7618523144821624    0.6494922263771780   C1502
    0.4303109736108941    0.7618523144821624    0.9828255597105113   C1503
    0.7636443069442274    0.0951856478154958    0.3161588930438447   C1504
    0.7636443069442274    0.0951856478154958    0.6494922263771780   C1505
    0.7636443069442274    0.0951856478154958    0.9828255597105113   C1506
    0.7636443069442274    0.4285189811488291    0.3161588930438447   C1507
    0.7636443069442274    0.4285189811488291    0.6494922263771780   C1508
    0.7636443069442274    0.4285189811488291    0.9828255597105113   C1509
    0.7636443069442274    0.7618523144821624    0.3161588930438447   C1510
    0.7636443069442274    0.7618523144821624    0.6494922263771780   C1511
    0.7636443069442274    0.7618523144821624    0.9828255597105113   C1512
    0.1128301339802818    0.9648780079999770    0.3147080366572003   C1513
    0.1128301339802818    0.9648780079999770    0.6480413699905336   C1514
    0.1128301339802818    0.9648780079999770    0.9813747033238670   C1515
    0.1128301339802818    0.2982113413333103    0.3147080366572003   C1516
    0.1128301339802818    0.2982113413333103    0.6480413699905336   C1517
    0.1128301339802818    0.2982113413333103    0.9813747033238670   C1518
    0.1128301339802818    0.6315446746666437    0.3147080366572003   C1519
    0.1128301339802818    0.6315446746666437    0.6480413699905336   C1520
    0.1128301339802818    0.6315446746666437    0.9813747033238670   C1521
    0.4461634673136151    0.9648780079999770    0.3147080366572003   C1522
    0.4461634673136151    0.9648780079999770    0.6480413699905336   C1523
    0.4461634673136151    0.9648780079999770    0.9813747033238670   C1524
    0.4461634673136151    0.2982113413333103    0.3147080366572003   C1525
    0.4461634673136151    0.2982113413333103    0.6480413699905336   C1526
    0.4461634673136151    0.2982113413333103    0.9813747033238670   C1527
    0.4461634673136151    0.6315446746666437    0.3147080366572003   C1528
    0.4461634673136151    0.6315446746666437    0.6480413699905336   C1529
    0.4461634673136151    0.6315446746666437    0.9813747033238670   C1530
    0.7794968006469484    0.9648780079999770    0.3147080366572003   C1531
    0.7794968006469484    0.9648780079999770    0.6480413699905336   C1532
    0.7794968006469484    0.9648780079999770    0.9813747033238670   C1533
    0.7794968006469484    0.2982113413333103    0.3147080366572003   C1534
    0.7794968006469484    0.2982113413333103    0.6480413699905336   C1535
    0.7794968006469484    0.2982113413333103    0.9813747033238670   C1536
    0.7794968006469484    0.6315446746666437    0.3147080366572003   C1537
    0.7794968006469484    0.6315446746666437    0.6480413699905336   C1538
    0.7794968006469484    0.6315446746666437    0.9813747033238670   C1539
    0.0088053806655663    0.1625686883133245    0.0305651507381213   C1540
    0.0088053806655663    0.1625686883133245    0.3638984840714546   C1541
    0.0088053806655663    0.1625686883133245    0.6972318174047879   C1542
    0.0088053806655663    0.4959020216466579    0.0305651507381213   C1543
    0.0088053806655663    0.4959020216466579    0.3638984840714546   C1544
    0.0088053806655663    0.4959020216466579    0.6972318174047879   C1545
    0.0088053806655663    0.8292353549799911    0.0305651507381213   C1546
    0.0088053806655663    0.8292353549799911    0.3638984840714546   C1547
    0.0088053806655663    0.8292353549799911    0.6972318174047879   C1548
    0.3421387139988996    0.1625686883133245    0.0305651507381213   C1549
    0.3421387139988996    0.1625686883133245    0.3638984840714546   C1550
    0.3421387139988996    0.1625686883133245    0.6972318174047879   C1551
    0.3421387139988996    0.4959020216466579    0.0305651507381213   C1552
    0.3421387139988996    0.4959020216466579    0.3638984840714546   C1553
    0.3421387139988996    0.4959020216466579    0.6972318174047879   C1554
    0.3421387139988996    0.8292353549799911    0.0305651507381213   C1555
    0.3421387139988996    0.8292353549799911    0.3638984840714546   C1556
    0.3421387139988996    0.8292353549799911    0.6972318174047879   C1557
    0.6754720473322330    0.1625686883133245    0.0305651507381213   C1558
    0.6754720473322330    0.1625686883133245    0.3638984840714546   C1559
    0.6754720473322330    0.1625686883133245    0.6972318174047879   C1560
    0.6754720473322330    0.4959020216466579    0.0305651507381213   C1561
    0.6754720473322330    0.4959020216466579    0.3638984840714546   C1562
    0.6754720473322330    0.4959020216466579    0.6972318174047879   C1563
    0.6754720473322330    0.8292353549799911    0.0305651507381213   C1564
    0.6754720473322330    0.8292353549799911    0.3638984840714546   C1565
    0.6754720473322330    0.8292353549799911    0.6972318174047879   C1566
    0.2334218087590224    0.4073479651829919    0.5359258399944051   C1567
    0.2334218087590224    0.4073479651829919    0.8692591733277384   C1568
    0.2334218087590224    0.4073479651829919    0.2025925066610716   C1569
    0.2334218087590224    0.7406812985163251    0.5359258399944051   C1570
    0.2334218087590224    0.7406812985163251    0.8692591733277384   C1571
    0.2334218087590224    0.7406812985163251    0.2025925066610716   C1572
    0.2334218087590224    0.0740146318496584    0.5359258399944051   C1573
    0.2334218087590224    0.0740146318496584    0.8692591733277384   C1574
    0.2334218087590224    0.0740146318496584    0.2025925066610716   C1575
    0.5667551420923558    0.4073479651829919    0.5359258399944051   C1576
    0.5667551420923558    0.4073479651829919    0.8692591733277384   C1577
    0.5667551420923558    0.4073479651829919    0.2025925066610716   C1578
    0.5667551420923558    0.7406812985163251    0.5359258399944051   C1579
    0.5667551420923558    0.7406812985163251    0.8692591733277384   C1580
    0.5667551420923558    0.7406812985163251    0.2025925066610716   C1581
    0.5667551420923558    0.0740146318496584    0.5359258399944051   C1582
    0.5667551420923558    0.0740146318496584    0.8692591733277384   C1583
    0.5667551420923558    0.0740146318496584    0.2025925066610716   C1584
    0.9000884754256890    0.4073479651829919    0.5359258399944051   C1585
    0.9000884754256890    0.4073479651829919    0.8692591733277384   C1586
    0.9000884754256890    0.4073479651829919    0.2025925066610716   C1587
    0.9000884754256890    0.7406812985163251    0.5359258399944051   C1588
    0.9000884754256890    0.7406812985163251    0.8692591733277384   C1589
    0.9000884754256890    0.7406812985163251    0.2025925066610716   C1590
    0.9000884754256890    0.0740146318496584    0.5359258399944051   C1591
    0.9000884754256890    0.0740146318496584    0.8692591733277384   C1592
    0.9000884754256890    0.0740146318496584    0.2025925066610716   C1593
    0.9699185626931867    0.2647595142268110    0.0457838690227958   C1594
    0.9699185626931867    0.2647595142268110    0.3791172023561291   C1595
    0.9699185626931867    0.2647595142268110    0.7124505356894624   C1596
    0.9699185626931867    0.5980928475601444    0.0457838690227958   C1597
    0.9699185626931867    0.5980928475601444    0.3791172023561291   C1598
    0.9699185626931867    0.5980928475601444    0.7124505356894624   C1599
    0.9699185626931867    0.9314261808934777    0.0457838690227958   C1600
    0.9699185626931867    0.9314261808934777    0.3791172023561291   C1601
    0.9699185626931867    0.9314261808934777    0.7124505356894624   C1602
    0.3032518960265199    0.2647595142268110    0.0457838690227958   C1603
    0.3032518960265199    0.2647595142268110    0.3791172023561291   C1604
    0.3032518960265199    0.2647595142268110    0.7124505356894624   C1605
    0.3032518960265199    0.5980928475601444    0.0457838690227958   C1606
    0.3032518960265199    0.5980928475601444    0.3791172023561291   C1607
    0.3032518960265199    0.5980928475601444    0.7124505356894624   C1608
    0.3032518960265199    0.9314261808934777    0.0457838690227958   C1609
    0.3032518960265199    0.9314261808934777    0.3791172023561291   C1610
    0.3032518960265199    0.9314261808934777    0.7124505356894624   C1611
    0.6365852293598533    0.2647595142268110    0.0457838690227958   C1612
    0.6365852293598533    0.2647595142268110    0.3791172023561291   C1613
    0.6365852293598533    0.2647595142268110    0.7124505356894624   C1614
    0.6365852293598533    0.5980928475601444    0.0457838690227958   C1615
    0.6365852293598533    0.5980928475601444    0.3791172023561291   C1616
    0.6365852293598533    0.5980928475601444    0.7124505356894624   C1617
    0.6365852293598533    0.9314261808934777    0.0457838690227958   C1618
    0.6365852293598533    0.9314261808934777    0.3791172023561291   C1619
    0.6365852293598533    0.9314261808934777    0.7124505356894624   C1620
    0.2270410385242704    0.4634647442883737    0.4521452797145503   C1621
    0.2270410385242704    0.4634647442883737    0.7854786130478836   C1622
    0.2270410385242704    0.4634647442883737    0.1188119463812169   C1623
    0.2270410385242704    0.7967980776217070    0.4521452797145503   C1624
    0.2270410385242704    0.7967980776217070    0.7854786130478836   C1625
    0.2270410385242704    0.7967980776217070    0.1188119463812169   C1626
    0.2270410385242704    0.1301314109550402    0.4521452797145503   C1627
    0.2270410385242704    0.1301314109550402    0.7854786130478836   C1628
    0.2270410385242704    0.1301314109550402    0.1188119463812169   C1629
    0.5603743718576037    0.4634647442883737    0.4521452797145503   C1630
    0.5603743718576037    0.4634647442883737    0.7854786130478836   C1631
    0.5603743718576037    0.4634647442883737    0.1188119463812169   C1632
    0.5603743718576037    0.7967980776217070    0.4521452797145503   C1633
    0.5603743718576037    0.7967980776217070    0.7854786130478836   C1634
    0.5603743718576037    0.7967980776217070    0.1188119463812169   C1635
    0.5603743718576037    0.1301314109550402    0.4521452797145503   C1636
    0.5603743718576037    0.1301314109550402    0.7854786130478836   C1637
    0.5603743718576037    0.1301314109550402    0.1188119463812169   C1638
    0.8937077051909370    0.4634647442883737    0.4521452797145503   C1639
    0.8937077051909370    0.4634647442883737    0.7854786130478836   C1640
    0.8937077051909370    0.4634647442883737    0.1188119463812169   C1641
    0.8937077051909370    0.7967980776217070    0.4521452797145503   C1642
    0.8937077051909370    0.7967980776217070    0.7854786130478836   C1643
    0.8937077051909370    0.7967980776217070    0.1188119463812169   C1644
    0.8937077051909370    0.1301314109550402    0.4521452797145503   C1645
    0.8937077051909370    0.1301314109550402    0.7854786130478836   C1646
    0.8937077051909370    0.1301314109550402    0.1188119463812169   C1647
    0.2543636563008081    0.2345191085281532    0.1741451580188850   C1648
    0.2543636563008081    0.2345191085281532    0.5074784913522183   C1649
    0.2543636563008081    0.2345191085281532    0.8408118246855516   C1650
    0.2543636563008081    0.5678524418614865    0.1741451580188850   C1651
    0.2543636563008081    0.5678524418614865    0.5074784913522183   C1652
    0.2543636563008081    0.5678524418614865    0.8408118246855516   C1653
    0.2543636563008081    0.9011857751948199    0.1741451580188850   C1654
    0.2543636563008081    0.9011857751948199    0.5074784913522183   C1655
    0.2543636563008081    0.9011857751948199    0.8408118246855516   C1656
    0.5876969896341414    0.2345191085281532    0.1741451580188850   C1657
    0.5876969896341414    0.2345191085281532    0.5074784913522183   C1658
    0.5876969896341414    0.2345191085281532    0.8408118246855516   C1659
    0.5876969896341414    0.5678524418614865    0.1741451580188850   C1660
    0.5876969896341414    0.5678524418614865    0.5074784913522183   C1661
    0.5876969896341414    0.5678524418614865    0.8408118246855516   C1662
    0.5876969896341414    0.9011857751948199    0.1741451580188850   C1663
    0.5876969896341414    0.9011857751948199    0.5074784913522183   C1664
    0.5876969896341414    0.9011857751948199    0.8408118246855516   C1665
    0.9210303229674747    0.2345191085281532    0.1741451580188850   C1666
    0.9210303229674747    0.2345191085281532    0.5074784913522183   C1667
    0.9210303229674747    0.2345191085281532    0.8408118246855516   C1668
    0.9210303229674747    0.5678524418614865    0.1741451580188850   C1669
    0.9210303229674747    0.5678524418614865    0.5074784913522183   C1670
    0.9210303229674747    0.5678524418614865    0.8408118246855516   C1671
    0.9210303229674747    0.9011857751948199    0.1741451580188850   C1672
    0.9210303229674747    0.9011857751948199    0.5074784913522183   C1673
    0.9210303229674747    0.9011857751948199    0.8408118246855516   C1674
    0.0729007509489590    0.0758242309888807    0.2823090792807657   C1675
    0.0729007509489590    0.0758242309888807    0.6156424126140989   C1676
    0.0729007509489590    0.0758242309888807    0.9489757459474323   C1677
    0.0729007509489590    0.4091575643222141    0.2823090792807657   C1678
    0.0729007509489590    0.4091575643222141    0.6156424126140989   C1679
    0.0729007509489590    0.4091575643222141    0.9489757459474323   C1680
    0.0729007509489590    0.7424908976555473    0.2823090792807657   C1681
    0.0729007509489590    0.7424908976555473    0.6156424126140989   C1682
    0.0729007509489590    0.7424908976555473    0.9489757459474323   C1683
    0.4062340842822924    0.0758242309888807    0.2823090792807657   C1684
    0.4062340842822924    0.0758242309888807    0.6156424126140989   C1685
    0.4062340842822924    0.0758242309888807    0.9489757459474323   C1686
    0.4062340842822924    0.4091575643222141    0.2823090792807657   C1687
    0.4062340842822924    0.4091575643222141    0.6156424126140989   C1688
    0.4062340842822924    0.4091575643222141    0.9489757459474323   C1689
    0.4062340842822924    0.7424908976555473    0.2823090792807657   C1690
    0.4062340842822924    0.7424908976555473    0.6156424126140989   C1691
    0.4062340842822924    0.7424908976555473    0.9489757459474323   C1692
    0.7395674176156257    0.0758242309888807    0.2823090792807657   C1693
    0.7395674176156257    0.0758242309888807    0.6156424126140989   C1694
    0.7395674176156257    0.0758242309888807    0.9489757459474323   C1695
    0.7395674176156257    0.4091575643222141    0.2823090792807657   C1696
    0.7395674176156257    0.4091575643222141    0.6156424126140989   C1697
    0.7395674176156257    0.4091575643222141    0.9489757459474323   C1698
    0.7395674176156257    0.7424908976555473    0.2823090792807657   C1699
    0.7395674176156257    0.7424908976555473    0.6156424126140989   C1700
    0.7395674176156257    0.7424908976555473    0.9489757459474323   C1701
    0.0080665010908854    0.1204230070275838    0.2890937683221756   C1702
    0.0080665010908854    0.1204230070275838    0.6224271016555090   C1703
    0.0080665010908854    0.1204230070275838    0.9557604349888422   C1704
    0.0080665010908854    0.4537563403609171    0.2890937683221756   C1705
    0.0080665010908854    0.4537563403609171    0.6224271016555090   C1706
    0.0080665010908854    0.4537563403609171    0.9557604349888422   C1707
    0.0080665010908854    0.7870896736942503    0.2890937683221756   C1708
    0.0080665010908854    0.7870896736942503    0.6224271016555090   C1709
    0.0080665010908854    0.7870896736942503    0.9557604349888422   C1710
    0.3413998344242187    0.1204230070275838    0.2890937683221756   C1711
    0.3413998344242187    0.1204230070275838    0.6224271016555090   C1712
    0.3413998344242187    0.1204230070275838    0.9557604349888422   C1713
    0.3413998344242187    0.4537563403609171    0.2890937683221756   C1714
    0.3413998344242187    0.4537563403609171    0.6224271016555090   C1715
    0.3413998344242187    0.4537563403609171    0.9557604349888422   C1716
    0.3413998344242187    0.7870896736942503    0.2890937683221756   C1717
    0.3413998344242187    0.7870896736942503    0.6224271016555090   C1718
    0.3413998344242187    0.7870896736942503    0.9557604349888422   C1719
    0.6747331677575521    0.1204230070275838    0.2890937683221756   C1720
    0.6747331677575521    0.1204230070275838    0.6224271016555090   C1721
    0.6747331677575521    0.1204230070275838    0.9557604349888422   C1722
    0.6747331677575521    0.4537563403609171    0.2890937683221756   C1723
    0.6747331677575521    0.4537563403609171    0.6224271016555090   C1724
    0.6747331677575521    0.4537563403609171    0.9557604349888422   C1725
    0.6747331677575521    0.7870896736942503    0.2890937683221756   C1726
    0.6747331677575521    0.7870896736942503    0.6224271016555090   C1727
    0.6747331677575521    0.7870896736942503    0.9557604349888422   C1728
    0.9896967822264685    0.1260454313789440    0.0010400535630463   C1729
    0.9896967822264685    0.1260454313789440    0.3343733868963796   C1730
    0.9896967822264685    0.1260454313789440    0.6677067202297129   C1731
    0.9896967822264685    0.4593787647122772    0.0010400535630463   C1732
    0.9896967822264685    0.4593787647122772    0.3343733868963796   C1733
    0.9896967822264685    0.4593787647122772    0.6677067202297129   C1734
    0.9896967822264685    0.7927120980456106    0.0010400535630463   C1735
    0.9896967822264685    0.7927120980456106    0.3343733868963796   C1736
    0.9896967822264685    0.7927120980456106    0.6677067202297129   C1737
    0.3230301155598018    0.1260454313789440    0.0010400535630463   C1738
    0.3230301155598018    0.1260454313789440    0.3343733868963796   C1739
    0.3230301155598018    0.1260454313789440    0.6677067202297129   C1740
    0.3230301155598018    0.4593787647122772    0.0010400535630463   C1741
    0.3230301155598018    0.4593787647122772    0.3343733868963796   C1742
    0.3230301155598018    0.4593787647122772    0.6677067202297129   C1743
    0.3230301155598018    0.7927120980456106    0.0010400535630463   C1744
    0.3230301155598018    0.7927120980456106    0.3343733868963796   C1745
    0.3230301155598018    0.7927120980456106    0.6677067202297129   C1746
    0.6563634488931351    0.1260454313789440    0.0010400535630463   C1747
    0.6563634488931351    0.1260454313789440    0.3343733868963796   C1748
    0.6563634488931351    0.1260454313789440    0.6677067202297129   C1749
    0.6563634488931351    0.4593787647122772    0.0010400535630463   C1750
    0.6563634488931351    0.4593787647122772    0.3343733868963796   C1751
    0.6563634488931351    0.4593787647122772    0.6677067202297129   C1752
    0.6563634488931351    0.7927120980456106    0.0010400535630463   C1753
    0.6563634488931351    0.7927120980456106    0.3343733868963796   C1754
    0.6563634488931351    0.7927120980456106    0.6677067202297129   C1755
    0.0959826010526752    0.1794543365187434    0.3184066860064930   C1756
    0.0959826010526752    0.1794543365187434    0.6517400193398263   C1757
    0.0959826010526752    0.1794543365187434    0.9850733526731595   C1758
    0.0959826010526752    0.5127876698520767    0.3184066860064930   C1759
    0.0959826010526752    0.5127876698520767    0.6517400193398263   C1760
    0.0959826010526752    0.5127876698520767    0.9850733526731595   C1761
    0.0959826010526752    0.8461210031854099    0.3184066860064930   C1762
    0.0959826010526752    0.8461210031854099    0.6517400193398263   C1763
    0.0959826010526752    0.8461210031854099    0.9850733526731595   C1764
    0.4293159343860085    0.1794543365187434    0.3184066860064930   C1765
    0.4293159343860085    0.1794543365187434    0.6517400193398263   C1766
    0.4293159343860085    0.1794543365187434    0.9850733526731595   C1767
    0.4293159343860085    0.5127876698520767    0.3184066860064930   C1768
    0.4293159343860085    0.5127876698520767    0.6517400193398263   C1769
    0.4293159343860085    0.5127876698520767    0.9850733526731595   C1770
    0.4293159343860085    0.8461210031854099    0.3184066860064930   C1771
    0.4293159343860085    0.8461210031854099    0.6517400193398263   C1772
    0.4293159343860085    0.8461210031854099    0.9850733526731595   C1773
    0.7626492677193417    0.1794543365187434    0.3184066860064930   C1774
    0.7626492677193417    0.1794543365187434    0.6517400193398263   C1775
    0.7626492677193417    0.1794543365187434    0.9850733526731595   C1776
    0.7626492677193417    0.5127876698520767    0.3184066860064930   C1777
    0.7626492677193417    0.5127876698520767    0.6517400193398263   C1778
    0.7626492677193417    0.5127876698520767    0.9850733526731595   C1779
    0.7626492677193417    0.8461210031854099    0.3184066860064930   C1780
    0.7626492677193417    0.8461210031854099    0.6517400193398263   C1781
    0.7626492677193417    0.8461210031854099    0.9850733526731595   C1782
    0.1525296538724015    0.0938988837922352    0.3752114580977087   C1783
    0.1525296538724015    0.0938988837922352    0.7085447914310420   C1784
    0.1525296538724015    0.0938988837922352    0.0418781247643754   C1785
    0.1525296538724015    0.4272322171255685    0.3752114580977087   C1786
    0.1525296538724015    0.4272322171255685    0.7085447914310420   C1787
    0.1525296538724015    0.4272322171255685    0.0418781247643754   C1788
    0.1525296538724015    0.7605655504589018    0.3752114580977087   C1789
    0.1525296538724015    0.7605655504589018    0.7085447914310420   C1790
    0.1525296538724015    0.7605655504589018    0.0418781247643754   C1791
    0.4858629872057348    0.0938988837922352    0.3752114580977087   C1792
    0.4858629872057348    0.0938988837922352    0.7085447914310420   C1793
    0.4858629872057348    0.0938988837922352    0.0418781247643754   C1794
    0.4858629872057348    0.4272322171255685    0.3752114580977087   C1795
    0.4858629872057348    0.4272322171255685    0.7085447914310420   C1796
    0.4858629872057348    0.4272322171255685    0.0418781247643754   C1797
    0.4858629872057348    0.7605655504589018    0.3752114580977087   C1798
    0.4858629872057348    0.7605655504589018    0.7085447914310420   C1799
    0.4858629872057348    0.7605655504589018    0.0418781247643754   C1800
    0.8191963205390681    0.0938988837922352    0.3752114580977087   C1801
    0.8191963205390681    0.0938988837922352    0.7085447914310420   C1802
    0.8191963205390681    0.0938988837922352    0.0418781247643754   C1803
    0.8191963205390681    0.4272322171255685    0.3752114580977087   C1804
    0.8191963205390681    0.4272322171255685    0.7085447914310420   C1805
    0.8191963205390681    0.4272322171255685    0.0418781247643754   C1806
    0.8191963205390681    0.7605655504589018    0.3752114580977087   C1807
    0.8191963205390681    0.7605655504589018    0.7085447914310420   C1808
    0.8191963205390681    0.7605655504589018    0.0418781247643754   C1809
    0.0904546410010993    0.1396587735642504    0.3323978478171024   C1810
    0.0904546410010993    0.1396587735642504    0.6657311811504357   C1811
    0.0904546410010993    0.1396587735642504    0.9990645144837691   C1812
    0.0904546410010993    0.4729921068975838    0.3323978478171024   C1813
    0.0904546410010993    0.4729921068975838    0.6657311811504357   C1814
    0.0904546410010993    0.4729921068975838    0.9990645144837691   C1815
    0.0904546410010993    0.8063254402309170    0.3323978478171024   C1816
    0.0904546410010993    0.8063254402309170    0.6657311811504357   C1817
    0.0904546410010993    0.8063254402309170    0.9990645144837691   C1818
    0.4237879743344326    0.1396587735642504    0.3323978478171024   C1819
    0.4237879743344326    0.1396587735642504    0.6657311811504357   C1820
    0.4237879743344326    0.1396587735642504    0.9990645144837691   C1821
    0.4237879743344326    0.4729921068975838    0.3323978478171024   C1822
    0.4237879743344326    0.4729921068975838    0.6657311811504357   C1823
    0.4237879743344326    0.4729921068975838    0.9990645144837691   C1824
    0.4237879743344326    0.8063254402309170    0.3323978478171024   C1825
    0.4237879743344326    0.8063254402309170    0.6657311811504357   C1826
    0.4237879743344326    0.8063254402309170    0.9990645144837691   C1827
    0.7571213076677659    0.1396587735642504    0.3323978478171024   C1828
    0.7571213076677659    0.1396587735642504    0.6657311811504357   C1829
    0.7571213076677659    0.1396587735642504    0.9990645144837691   C1830
    0.7571213076677659    0.4729921068975838    0.3323978478171024   C1831
    0.7571213076677659    0.4729921068975838    0.6657311811504357   C1832
    0.7571213076677659    0.4729921068975838    0.9990645144837691   C1833
    0.7571213076677659    0.8063254402309170    0.3323978478171024   C1834
    0.7571213076677659    0.8063254402309170    0.6657311811504357   C1835
    0.7571213076677659    0.8063254402309170    0.9990645144837691   C1836
    0.0973436887819503    0.0617173607061924    0.3349160649796682   C1837
    0.0973436887819503    0.0617173607061924    0.6682493983130016   C1838
    0.0973436887819503    0.0617173607061924    0.0015827316463348   C1839
    0.0973436887819503    0.3950506940395256    0.3349160649796682   C1840
    0.0973436887819503    0.3950506940395256    0.6682493983130016   C1841
    0.0973436887819503    0.3950506940395256    0.0015827316463348   C1842
    0.0973436887819503    0.7283840273728590    0.3349160649796682   C1843
    0.0973436887819503    0.7283840273728590    0.6682493983130016   C1844
    0.0973436887819503    0.7283840273728590    0.0015827316463348   C1845
    0.4306770221152836    0.0617173607061924    0.3349160649796682   C1846
    0.4306770221152836    0.0617173607061924    0.6682493983130016   C1847
    0.4306770221152836    0.0617173607061924    0.0015827316463348   C1848
    0.4306770221152836    0.3950506940395256    0.3349160649796682   C1849
    0.4306770221152836    0.3950506940395256    0.6682493983130016   C1850
    0.4306770221152836    0.3950506940395256    0.0015827316463348   C1851
    0.4306770221152836    0.7283840273728590    0.3349160649796682   C1852
    0.4306770221152836    0.7283840273728590    0.6682493983130016   C1853
    0.4306770221152836    0.7283840273728590    0.0015827316463348   C1854
    0.7640103554486168    0.0617173607061924    0.3349160649796682   C1855
    0.7640103554486168    0.0617173607061924    0.6682493983130016   C1856
    0.7640103554486168    0.0617173607061924    0.0015827316463348   C1857
    0.7640103554486168    0.3950506940395256    0.3349160649796682   C1858
    0.7640103554486168    0.3950506940395256    0.6682493983130016   C1859
    0.7640103554486168    0.3950506940395256    0.0015827316463348   C1860
    0.7640103554486168    0.7283840273728590    0.3349160649796682   C1861
    0.7640103554486168    0.7283840273728590    0.6682493983130016   C1862
    0.7640103554486168    0.7283840273728590    0.0015827316463348   C1863
    0.9834249369883136    0.1283552766288292    0.9690513327102821   C1864
    0.9834249369883136    0.1283552766288292    0.3023846660436155   C1865
    0.9834249369883136    0.1283552766288292    0.6357179993769488   C1866
    0.9834249369883136    0.4616886099621625    0.9690513327102821   C1867
    0.9834249369883136    0.4616886099621625    0.3023846660436155   C1868
    0.9834249369883136    0.4616886099621625    0.6357179993769488   C1869
    0.9834249369883136    0.7950219432954958    0.9690513327102821   C1870
    0.9834249369883136    0.7950219432954958    0.3023846660436155   C1871
    0.9834249369883136    0.7950219432954958    0.6357179993769488   C1872
    0.3167582703216468    0.1283552766288292    0.9690513327102821   C1873
    0.3167582703216468    0.1283552766288292    0.3023846660436155   C1874
    0.3167582703216468    0.1283552766288292    0.6357179993769488   C1875
    0.3167582703216468    0.4616886099621625    0.9690513327102821   C1876
    0.3167582703216468    0.4616886099621625    0.3023846660436155   C1877
    0.3167582703216468    0.4616886099621625    0.6357179993769488   C1878
    0.3167582703216468    0.7950219432954958    0.9690513327102821   C1879
    0.3167582703216468    0.7950219432954958    0.3023846660436155   C1880
    0.3167582703216468    0.7950219432954958    0.6357179993769488   C1881
    0.6500916036549802    0.1283552766288292    0.9690513327102821   C1882
    0.6500916036549802    0.1283552766288292    0.3023846660436155   C1883
    0.6500916036549802    0.1283552766288292    0.6357179993769488   C1884
    0.6500916036549802    0.4616886099621625    0.9690513327102821   C1885
    0.6500916036549802    0.4616886099621625    0.3023846660436155   C1886
    0.6500916036549802    0.4616886099621625    0.6357179993769488   C1887
    0.6500916036549802    0.7950219432954958    0.9690513327102821   C1888
    0.6500916036549802    0.7950219432954958    0.3023846660436155   C1889
    0.6500916036549802    0.7950219432954958    0.6357179993769488   C1890
    0.2742662434377209    0.3189201086685931    0.0887153504067549   C1891
    0.2742662434377209    0.3189201086685931    0.4220486837400881   C1892
    0.2742662434377209    0.3189201086685931    0.7553820170734215   C1893
    0.2742662434377209    0.6522534420019264    0.0887153504067549   C1894
    0.2742662434377209    0.6522534420019264    0.4220486837400881   C1895
    0.2742662434377209    0.6522534420019264    0.7553820170734215   C1896
    0.2742662434377209    0.9855867753352597    0.0887153504067549   C1897
    0.2742662434377209    0.9855867753352597    0.4220486837400881   C1898
    0.2742662434377209    0.9855867753352597    0.7553820170734215   C1899
    0.6075995767710541    0.3189201086685931    0.0887153504067549   C1900
    0.6075995767710541    0.3189201086685931    0.4220486837400881   C1901
    0.6075995767710541    0.3189201086685931    0.7553820170734215   C1902
    0.6075995767710541    0.6522534420019264    0.0887153504067549   C1903
    0.6075995767710541    0.6522534420019264    0.4220486837400881   C1904
    0.6075995767710541    0.6522534420019264    0.7553820170734215   C1905
    0.6075995767710541    0.9855867753352597    0.0887153504067549   C1906
    0.6075995767710541    0.9855867753352597    0.4220486837400881   C1907
    0.6075995767710541    0.9855867753352597    0.7553820170734215   C1908
    0.9409329101043875    0.3189201086685931    0.0887153504067549   C1909
    0.9409329101043875    0.3189201086685931    0.4220486837400881   C1910
    0.9409329101043875    0.3189201086685931    0.7553820170734215   C1911
    0.9409329101043875    0.6522534420019264    0.0887153504067549   C1912
    0.9409329101043875    0.6522534420019264    0.4220486837400881   C1913
    0.9409329101043875    0.6522534420019264    0.7553820170734215   C1914
    0.9409329101043875    0.9855867753352597    0.0887153504067549   C1915
    0.9409329101043875    0.9855867753352597    0.4220486837400881   C1916
    0.9409329101043875    0.9855867753352597    0.7553820170734215   C1917
    0.1374916206707464    0.0098012303676615    0.3315041955974357   C1918
    0.1374916206707464    0.0098012303676615    0.6648375289307691   C1919
    0.1374916206707464    0.0098012303676615    0.9981708622641025   C1920
    0.1374916206707464    0.3431345637009949    0.3315041955974357   C1921
    0.1374916206707464    0.3431345637009949    0.6648375289307691   C1922
    0.1374916206707464    0.3431345637009949    0.9981708622641025   C1923
    0.1374916206707464    0.6764678970343281    0.3315041955974357   C1924
    0.1374916206707464    0.6764678970343281    0.6648375289307691   C1925
    0.1374916206707464    0.6764678970343281    0.9981708622641025   C1926
    0.4708249540040798    0.0098012303676615    0.3315041955974357   C1927
    0.4708249540040798    0.0098012303676615    0.6648375289307691   C1928
    0.4708249540040798    0.0098012303676615    0.9981708622641025   C1929
    0.4708249540040798    0.3431345637009949    0.3315041955974357   C1930
    0.4708249540040798    0.3431345637009949    0.6648375289307691   C1931
    0.4708249540040798    0.3431345637009949    0.9981708622641025   C1932
    0.4708249540040798    0.6764678970343281    0.3315041955974357   C1933
    0.4708249540040798    0.6764678970343281    0.6648375289307691   C1934
    0.4708249540040798    0.6764678970343281    0.9981708622641025   C1935
    0.8041582873374131    0.0098012303676615    0.3315041955974357   C1936
    0.8041582873374131    0.0098012303676615    0.6648375289307691   C1937
    0.8041582873374131    0.0098012303676615    0.9981708622641025   C1938
    0.8041582873374131    0.3431345637009949    0.3315041955974357   C1939
    0.8041582873374131    0.3431345637009949    0.6648375289307691   C1940
    0.8041582873374131    0.3431345637009949    0.9981708622641025   C1941
    0.8041582873374131    0.6764678970343281    0.3315041955974357   C1942
    0.8041582873374131    0.6764678970343281    0.6648375289307691   C1943
    0.8041582873374131    0.6764678970343281    0.9981708622641025   C1944
    0.8948130002979445    0.3280265583151334    0.3186115075279082   C1945
    0.8948130002979445    0.3280265583151334    0.6519448408612415   C1946
    0.8948130002979445    0.3280265583151334    0.9852781741945749   C1947
    0.8948130002979445    0.6613598916484666    0.3186115075279082   C1948
    0.8948130002979445    0.6613598916484666    0.6519448408612415   C1949
    0.8948130002979445    0.6613598916484666    0.9852781741945749   C1950
    0.8948130002979445    0.9946932249818001    0.3186115075279082   C1951
    0.8948130002979445    0.9946932249818001    0.6519448408612415   C1952
    0.8948130002979445    0.9946932249818001    0.9852781741945749   C1953
    0.2281463336312779    0.3280265583151334    0.3186115075279082   C1954
    0.2281463336312779    0.3280265583151334    0.6519448408612415   C1955
    0.2281463336312779    0.3280265583151334    0.9852781741945749   C1956
    0.2281463336312779    0.6613598916484666    0.3186115075279082   C1957
    0.2281463336312779    0.6613598916484666    0.6519448408612415   C1958
    0.2281463336312779    0.6613598916484666    0.9852781741945749   C1959
    0.2281463336312779    0.9946932249818001    0.3186115075279082   C1960
    0.2281463336312779    0.9946932249818001    0.6519448408612415   C1961
    0.2281463336312779    0.9946932249818001    0.9852781741945749   C1962
    0.5614796669646112    0.3280265583151334    0.3186115075279082   C1963
    0.5614796669646112    0.3280265583151334    0.6519448408612415   C1964
    0.5614796669646112    0.3280265583151334    0.9852781741945749   C1965
    0.5614796669646112    0.6613598916484666    0.3186115075279082   C1966
    0.5614796669646112    0.6613598916484666    0.6519448408612415   C1967
    0.5614796669646112    0.6613598916484666    0.9852781741945749   C1968
    0.5614796669646112    0.9946932249818001    0.3186115075279082   C1969
    0.5614796669646112    0.9946932249818001    0.6519448408612415   C1970
    0.5614796669646112    0.9946932249818001    0.9852781741945749   C1971
    0.8448947331271162    0.2112922595739375    0.2876977780132959   C1972
    0.8448947331271162    0.2112922595739375    0.6210311113466292   C1973
    0.8448947331271162    0.2112922595739375    0.9543644446799626   C1974
    0.8448947331271162    0.5446255929072708    0.2876977780132959   C1975
    0.8448947331271162    0.5446255929072708    0.6210311113466292   C1976
    0.8448947331271162    0.5446255929072708    0.9543644446799626   C1977
    0.8448947331271162    0.8779589262406040    0.2876977780132959   C1978
    0.8448947331271162    0.8779589262406040    0.6210311113466292   C1979
    0.8448947331271162    0.8779589262406040    0.9543644446799626   C1980
    0.1782280664604495    0.2112922595739375    0.2876977780132959   C1981
    0.1782280664604495    0.2112922595739375    0.6210311113466292   C1982
    0.1782280664604495    0.2112922595739375    0.9543644446799626   C1983
    0.1782280664604495    0.5446255929072708    0.2876977780132959   C1984
    0.1782280664604495    0.5446255929072708    0.6210311113466292   C1985
    0.1782280664604495    0.5446255929072708    0.9543644446799626   C1986
    0.1782280664604495    0.8779589262406040    0.2876977780132959   C1987
    0.1782280664604495    0.8779589262406040    0.6210311113466292   C1988
    0.1782280664604495    0.8779589262406040    0.9543644446799626   C1989
    0.5115613997937828    0.2112922595739375    0.2876977780132959   C1990
    0.5115613997937828    0.2112922595739375    0.6210311113466292   C1991
    0.5115613997937828    0.2112922595739375    0.9543644446799626   C1992
    0.5115613997937828    0.5446255929072708    0.2876977780132959   C1993
    0.5115613997937828    0.5446255929072708    0.6210311113466292   C1994
    0.5115613997937828    0.5446255929072708    0.9543644446799626   C1995
    0.5115613997937828    0.8779589262406040    0.2876977780132959   C1996
    0.5115613997937828    0.8779589262406040    0.6210311113466292   C1997
    0.5115613997937828    0.8779589262406040    0.9543644446799626   C1998
    0.1510796425467603    0.1157552418674784    0.4100039122776736   C1999
    0.1510796425467603    0.1157552418674784    0.7433372456110068   C2000
    0.1510796425467603    0.1157552418674784    0.0766705789443400   C2001
    0.1510796425467603    0.4490885752008117    0.4100039122776736   C2002
    0.1510796425467603    0.4490885752008117    0.7433372456110068   C2003
    0.1510796425467603    0.4490885752008117    0.0766705789443400   C2004
    0.1510796425467603    0.7824219085341451    0.4100039122776736   C2005
    0.1510796425467603    0.7824219085341451    0.7433372456110068   C2006
    0.1510796425467603    0.7824219085341451    0.0766705789443400   C2007
    0.4844129758800936    0.1157552418674784    0.4100039122776736   C2008
    0.4844129758800936    0.1157552418674784    0.7433372456110068   C2009
    0.4844129758800936    0.1157552418674784    0.0766705789443400   C2010
    0.4844129758800936    0.4490885752008117    0.4100039122776736   C2011
    0.4844129758800936    0.4490885752008117    0.7433372456110068   C2012
    0.4844129758800936    0.4490885752008117    0.0766705789443400   C2013
    0.4844129758800936    0.7824219085341451    0.4100039122776736   C2014
    0.4844129758800936    0.7824219085341451    0.7433372456110068   C2015
    0.4844129758800936    0.7824219085341451    0.0766705789443400   C2016
    0.8177463092134269    0.1157552418674784    0.4100039122776736   C2017
    0.8177463092134269    0.1157552418674784    0.7433372456110068   C2018
    0.8177463092134269    0.1157552418674784    0.0766705789443400   C2019
    0.8177463092134269    0.4490885752008117    0.4100039122776736   C2020
    0.8177463092134269    0.4490885752008117    0.7433372456110068   C2021
    0.8177463092134269    0.4490885752008117    0.0766705789443400   C2022
    0.8177463092134269    0.7824219085341451    0.4100039122776736   C2023
    0.8177463092134269    0.7824219085341451    0.7433372456110068   C2024
    0.8177463092134269    0.7824219085341451    0.0766705789443400   C2025
    0.1318135310286663    0.2037631427771225    0.3366043426629806   C2026
    0.1318135310286663    0.2037631427771225    0.6699376759963140   C2027
    0.1318135310286663    0.2037631427771225    0.0032710093296473   C2028
    0.1318135310286663    0.5370964761104557    0.3366043426629806   C2029
    0.1318135310286663    0.5370964761104557    0.6699376759963140   C2030
    0.1318135310286663    0.5370964761104557    0.0032710093296473   C2031
    0.1318135310286663    0.8704298094437891    0.3366043426629806   C2032
    0.1318135310286663    0.8704298094437891    0.6699376759963140   C2033
    0.1318135310286663    0.8704298094437891    0.0032710093296473   C2034
    0.4651468643619996    0.2037631427771225    0.3366043426629806   C2035
    0.4651468643619996    0.2037631427771225    0.6699376759963140   C2036
    0.4651468643619996    0.2037631427771225    0.0032710093296473   C2037
    0.4651468643619996    0.5370964761104557    0.3366043426629806   C2038
    0.4651468643619996    0.5370964761104557    0.6699376759963140   C2039
    0.4651468643619996    0.5370964761104557    0.0032710093296473   C2040
    0.4651468643619996    0.8704298094437891    0.3366043426629806   C2041
    0.4651468643619996    0.8704298094437891    0.6699376759963140   C2042
    0.4651468643619996    0.8704298094437891    0.0032710093296473   C2043
    0.7984801976953328    0.2037631427771225    0.3366043426629806   C2044
    0.7984801976953328    0.2037631427771225    0.6699376759963140   C2045
    0.7984801976953328    0.2037631427771225    0.0032710093296473   C2046
    0.7984801976953328    0.5370964761104557    0.3366043426629806   C2047
    0.7984801976953328    0.5370964761104557    0.6699376759963140   C2048
    0.7984801976953328    0.5370964761104557    0.0032710093296473   C2049
    0.7984801976953328    0.8704298094437891    0.3366043426629806   C2050
    0.7984801976953328    0.8704298094437891    0.6699376759963140   C2051
    0.7984801976953328    0.8704298094437891    0.0032710093296473   C2052
    0.9891382020580496    0.1944395172904983    0.0408821264427391   C2053
    0.9891382020580496    0.1944395172904983    0.3742154597760724   C2054
    0.9891382020580496    0.1944395172904983    0.7075487931094058   C2055
    0.9891382020580496    0.5277728506238316    0.0408821264427391   C2056
    0.9891382020580496    0.5277728506238316    0.3742154597760724   C2057
    0.9891382020580496    0.5277728506238316    0.7075487931094058   C2058
    0.9891382020580496    0.8611061839571650    0.0408821264427391   C2059
    0.9891382020580496    0.8611061839571650    0.3742154597760724   C2060
    0.9891382020580496    0.8611061839571650    0.7075487931094058   C2061
    0.3224715353913828    0.1944395172904983    0.0408821264427391   C2062
    0.3224715353913828    0.1944395172904983    0.3742154597760724   C2063
    0.3224715353913828    0.1944395172904983    0.7075487931094058   C2064
    0.3224715353913828    0.5277728506238316    0.0408821264427391   C2065
    0.3224715353913828    0.5277728506238316    0.3742154597760724   C2066
    0.3224715353913828    0.5277728506238316    0.7075487931094058   C2067
    0.3224715353913828    0.8611061839571650    0.0408821264427391   C2068
    0.3224715353913828    0.8611061839571650    0.3742154597760724   C2069
    0.3224715353913828    0.8611061839571650    0.7075487931094058   C2070
    0.6558048687247162    0.1944395172904983    0.0408821264427391   C2071
    0.6558048687247162    0.1944395172904983    0.3742154597760724   C2072
    0.6558048687247162    0.1944395172904983    0.7075487931094058   C2073
    0.6558048687247162    0.5277728506238316    0.0408821264427391   C2074
    0.6558048687247162    0.5277728506238316    0.3742154597760724   C2075
    0.6558048687247162    0.5277728506238316    0.7075487931094058   C2076
    0.6558048687247162    0.8611061839571650    0.0408821264427391   C2077
    0.6558048687247162    0.8611061839571650    0.3742154597760724   C2078
    0.6558048687247162    0.8611061839571650    0.7075487931094058   C2079
    0.2157727662247030    0.3957642692880580    0.4809710996315116      H1
    0.2157727662247030    0.3957642692880580    0.8143044329648449      H2
    0.2157727662247030    0.3957642692880580    0.1476377662981783      H3
    0.2157727662247030    0.7290976026213913    0.4809710996315116      H4
    0.2157727662247030    0.7290976026213913    0.8143044329648449      H5
    0.2157727662247030    0.7290976026213913    0.1476377662981783      H6
    0.2157727662247030    0.0624309359547246    0.4809710996315116      H7
    0.2157727662247030    0.0624309359547246    0.8143044329648449      H8
    0.2157727662247030    0.0624309359547246    0.1476377662981783      H9
    0.5491060995580364    0.3957642692880580    0.4809710996315116     H10
    0.5491060995580364    0.3957642692880580    0.8143044329648449     H11
    0.5491060995580364    0.3957642692880580    0.1476377662981783     H12
    0.5491060995580364    0.7290976026213913    0.4809710996315116     H13
    0.5491060995580364    0.7290976026213913    0.8143044329648449     H14
    0.5491060995580364    0.7290976026213913    0.1476377662981783     H15
    0.5491060995580364    0.0624309359547246    0.4809710996315116     H16
    0.5491060995580364    0.0624309359547246    0.8143044329648449     H17
    0.5491060995580364    0.0624309359547246    0.1476377662981783     H18
    0.8824394328913696    0.3957642692880580    0.4809710996315116     H19
    0.8824394328913696    0.3957642692880580    0.8143044329648449     H20
    0.8824394328913696    0.3957642692880580    0.1476377662981783     H21
    0.8824394328913696    0.7290976026213913    0.4809710996315116     H22
    0.8824394328913696    0.7290976026213913    0.8143044329648449     H23
    0.8824394328913696    0.7290976026213913    0.1476377662981783     H24
    0.8824394328913696    0.0624309359547246    0.4809710996315116     H25
    0.8824394328913696    0.0624309359547246    0.8143044329648449     H26
    0.8824394328913696    0.0624309359547246    0.1476377662981783     H27
    0.1772375234204095    0.0642860778882722    0.4194848481584433     H28
    0.1772375234204095    0.0642860778882722    0.7528181814917767     H29
    0.1772375234204095    0.0642860778882722    0.0861515148251100     H30
    0.1772375234204095    0.3976194112216055    0.4194848481584433     H31
    0.1772375234204095    0.3976194112216055    0.7528181814917767     H32
    0.1772375234204095    0.3976194112216055    0.0861515148251100     H33
    0.1772375234204095    0.7309527445549389    0.4194848481584433     H34
    0.1772375234204095    0.7309527445549389    0.7528181814917767     H35
    0.1772375234204095    0.7309527445549389    0.0861515148251100     H36
    0.5105708567537428    0.0642860778882722    0.4194848481584433     H37
    0.5105708567537428    0.0642860778882722    0.7528181814917767     H38
    0.5105708567537428    0.0642860778882722    0.0861515148251100     H39
    0.5105708567537428    0.3976194112216055    0.4194848481584433     H40
    0.5105708567537428    0.3976194112216055    0.7528181814917767     H41
    0.5105708567537428    0.3976194112216055    0.0861515148251100     H42
    0.5105708567537428    0.7309527445549389    0.4194848481584433     H43
    0.5105708567537428    0.7309527445549389    0.7528181814917767     H44
    0.5105708567537428    0.7309527445549389    0.0861515148251100     H45
    0.8439041900870761    0.0642860778882722    0.4194848481584433     H46
    0.8439041900870761    0.0642860778882722    0.7528181814917767     H47
    0.8439041900870761    0.0642860778882722    0.0861515148251100     H48
    0.8439041900870761    0.3976194112216055    0.4194848481584433     H49
    0.8439041900870761    0.3976194112216055    0.7528181814917767     H50
    0.8439041900870761    0.3976194112216055    0.0861515148251100     H51
    0.8439041900870761    0.7309527445549389    0.4194848481584433     H52
    0.8439041900870761    0.7309527445549389    0.7528181814917767     H53
    0.8439041900870761    0.7309527445549389    0.0861515148251100     H54
    0.1470785723336780    0.1779703388209466    0.3993620737556123     H55
    0.1470785723336780    0.1779703388209466    0.7326954070889455     H56
    0.1470785723336780    0.1779703388209466    0.0660287404222788     H57
    0.1470785723336780    0.5113036721542799    0.3993620737556123     H58
    0.1470785723336780    0.5113036721542799    0.7326954070889455     H59
    0.1470785723336780    0.5113036721542799    0.0660287404222788     H60
    0.1470785723336780    0.8446370054876132    0.3993620737556123     H61
    0.1470785723336780    0.8446370054876132    0.7326954070889455     H62
    0.1470785723336780    0.8446370054876132    0.0660287404222788     H63
    0.4804119056670114    0.1779703388209466    0.3993620737556123     H64
    0.4804119056670114    0.1779703388209466    0.7326954070889455     H65
    0.4804119056670114    0.1779703388209466    0.0660287404222788     H66
    0.4804119056670114    0.5113036721542799    0.3993620737556123     H67
    0.4804119056670114    0.5113036721542799    0.7326954070889455     H68
    0.4804119056670114    0.5113036721542799    0.0660287404222788     H69
    0.4804119056670114    0.8446370054876132    0.3993620737556123     H70
    0.4804119056670114    0.8446370054876132    0.7326954070889455     H71
    0.4804119056670114    0.8446370054876132    0.0660287404222788     H72
    0.8137452390003448    0.1779703388209466    0.3993620737556123     H73
    0.8137452390003448    0.1779703388209466    0.7326954070889455     H74
    0.8137452390003448    0.1779703388209466    0.0660287404222788     H75
    0.8137452390003448    0.5113036721542799    0.3993620737556123     H76
    0.8137452390003448    0.5113036721542799    0.7326954070889455     H77
    0.8137452390003448    0.5113036721542799    0.0660287404222788     H78
    0.8137452390003448    0.8446370054876132    0.3993620737556123     H79
    0.8137452390003448    0.8446370054876132    0.7326954070889455     H80
    0.8137452390003448    0.8446370054876132    0.0660287404222788     H81
    0.2471875643764655    0.2233075459146389    0.1477128621810001     H82
    0.2471875643764655    0.2233075459146389    0.4810461955143334     H83
    0.2471875643764655    0.2233075459146389    0.8143795288476667     H84
    0.2471875643764655    0.5566408792479721    0.1477128621810001     H85
    0.2471875643764655    0.5566408792479721    0.4810461955143334     H86
    0.2471875643764655    0.5566408792479721    0.8143795288476667     H87
    0.2471875643764655    0.8899742125813055    0.1477128621810001     H88
    0.2471875643764655    0.8899742125813055    0.4810461955143334     H89
    0.2471875643764655    0.8899742125813055    0.8143795288476667     H90
    0.5805208977097989    0.2233075459146389    0.1477128621810001     H91
    0.5805208977097989    0.2233075459146389    0.4810461955143334     H92
    0.5805208977097989    0.2233075459146389    0.8143795288476667     H93
    0.5805208977097989    0.5566408792479721    0.1477128621810001     H94
    0.5805208977097989    0.5566408792479721    0.4810461955143334     H95
    0.5805208977097989    0.5566408792479721    0.8143795288476667     H96
    0.5805208977097989    0.8899742125813055    0.1477128621810001     H97
    0.5805208977097989    0.8899742125813055    0.4810461955143334     H98
    0.5805208977097989    0.8899742125813055    0.8143795288476667     H99
    0.9138542310431321    0.2233075459146389    0.1477128621810001    H100
    0.9138542310431321    0.2233075459146389    0.4810461955143334    H101
    0.9138542310431321    0.2233075459146389    0.8143795288476667    H102
    0.9138542310431321    0.5566408792479721    0.1477128621810001    H103
    0.9138542310431321    0.5566408792479721    0.4810461955143334    H104
    0.9138542310431321    0.5566408792479721    0.8143795288476667    H105
    0.9138542310431321    0.8899742125813055    0.1477128621810001    H106
    0.9138542310431321    0.8899742125813055    0.4810461955143334    H107
    0.9138542310431321    0.8899742125813055    0.8143795288476667    H108
    0.2479429272569306    0.3911573902836336    0.5218023486080080    H109
    0.2479429272569306    0.3911573902836336    0.8551356819413414    H110
    0.2479429272569306    0.3911573902836336    0.1884690152746746    H111
    0.2479429272569306    0.7244907236169669    0.5218023486080080    H112
    0.2479429272569306    0.7244907236169669    0.8551356819413414    H113
    0.2479429272569306    0.7244907236169669    0.1884690152746746    H114
    0.2479429272569306    0.0578240569503001    0.5218023486080080    H115
    0.2479429272569306    0.0578240569503001    0.8551356819413414    H116
    0.2479429272569306    0.0578240569503001    0.1884690152746746    H117
    0.5812762605902639    0.3911573902836336    0.5218023486080080    H118
    0.5812762605902639    0.3911573902836336    0.8551356819413414    H119
    0.5812762605902639    0.3911573902836336    0.1884690152746746    H120
    0.5812762605902639    0.7244907236169669    0.5218023486080080    H121
    0.5812762605902639    0.7244907236169669    0.8551356819413414    H122
    0.5812762605902639    0.7244907236169669    0.1884690152746746    H123
    0.5812762605902639    0.0578240569503001    0.5218023486080080    H124
    0.5812762605902639    0.0578240569503001    0.8551356819413414    H125
    0.5812762605902639    0.0578240569503001    0.1884690152746746    H126
    0.9146095939235972    0.3911573902836336    0.5218023486080080    H127
    0.9146095939235972    0.3911573902836336    0.8551356819413414    H128
    0.9146095939235972    0.3911573902836336    0.1884690152746746    H129
    0.9146095939235972    0.7244907236169669    0.5218023486080080    H130
    0.9146095939235972    0.7244907236169669    0.8551356819413414    H131
    0.9146095939235972    0.7244907236169669    0.1884690152746746    H132
    0.9146095939235972    0.0578240569503001    0.5218023486080080    H133
    0.9146095939235972    0.0578240569503001    0.8551356819413414    H134
    0.9146095939235972    0.0578240569503001    0.1884690152746746    H135
    0.2805817973995968    0.2158883699116013    0.5970557106724226    H136
    0.2805817973995968    0.2158883699116013    0.9303890440057559    H137
    0.2805817973995968    0.2158883699116013    0.2637223773390893    H138
    0.2805817973995968    0.5492217032449347    0.5970557106724226    H139
    0.2805817973995968    0.5492217032449347    0.9303890440057559    H140
    0.2805817973995968    0.5492217032449347    0.2637223773390893    H141
    0.2805817973995968    0.8825550365782681    0.5970557106724226    H142
    0.2805817973995968    0.8825550365782681    0.9303890440057559    H143
    0.2805817973995968    0.8825550365782681    0.2637223773390893    H144
    0.6139151307329300    0.2158883699116013    0.5970557106724226    H145
    0.6139151307329300    0.2158883699116013    0.9303890440057559    H146
    0.6139151307329300    0.2158883699116013    0.2637223773390893    H147
    0.6139151307329300    0.5492217032449347    0.5970557106724226    H148
    0.6139151307329300    0.5492217032449347    0.9303890440057559    H149
    0.6139151307329300    0.5492217032449347    0.2637223773390893    H150
    0.6139151307329300    0.8825550365782681    0.5970557106724226    H151
    0.6139151307329300    0.8825550365782681    0.9303890440057559    H152
    0.6139151307329300    0.8825550365782681    0.2637223773390893    H153
    0.9472484640662634    0.2158883699116013    0.5970557106724226    H154
    0.9472484640662634    0.2158883699116013    0.9303890440057559    H155
    0.9472484640662634    0.2158883699116013    0.2637223773390893    H156
    0.9472484640662634    0.5492217032449347    0.5970557106724226    H157
    0.9472484640662634    0.5492217032449347    0.9303890440057559    H158
    0.9472484640662634    0.5492217032449347    0.2637223773390893    H159
    0.9472484640662634    0.8825550365782681    0.5970557106724226    H160
    0.9472484640662634    0.8825550365782681    0.9303890440057559    H161
    0.9472484640662634    0.8825550365782681    0.2637223773390893    H162
    0.0573617495083547    0.0476873221501255    0.0293954384112873    H163
    0.0573617495083547    0.0476873221501255    0.3627287717446206    H164
    0.0573617495083547    0.0476873221501255    0.6960621050779540    H165
    0.0573617495083547    0.3810206554834588    0.0293954384112873    H166
    0.0573617495083547    0.3810206554834588    0.3627287717446206    H167
    0.0573617495083547    0.3810206554834588    0.6960621050779540    H168
    0.0573617495083547    0.7143539888167921    0.0293954384112873    H169
    0.0573617495083547    0.7143539888167921    0.3627287717446206    H170
    0.0573617495083547    0.7143539888167921    0.6960621050779540    H171
    0.3906950828416880    0.0476873221501255    0.0293954384112873    H172
    0.3906950828416880    0.0476873221501255    0.3627287717446206    H173
    0.3906950828416880    0.0476873221501255    0.6960621050779540    H174
    0.3906950828416880    0.3810206554834588    0.0293954384112873    H175
    0.3906950828416880    0.3810206554834588    0.3627287717446206    H176
    0.3906950828416880    0.3810206554834588    0.6960621050779540    H177
    0.3906950828416880    0.7143539888167921    0.0293954384112873    H178
    0.3906950828416880    0.7143539888167921    0.3627287717446206    H179
    0.3906950828416880    0.7143539888167921    0.6960621050779540    H180
    0.7240284161750213    0.0476873221501255    0.0293954384112873    H181
    0.7240284161750213    0.0476873221501255    0.3627287717446206    H182
    0.7240284161750213    0.0476873221501255    0.6960621050779540    H183
    0.7240284161750213    0.3810206554834588    0.0293954384112873    H184
    0.7240284161750213    0.3810206554834588    0.3627287717446206    H185
    0.7240284161750213    0.3810206554834588    0.6960621050779540    H186
    0.7240284161750213    0.7143539888167921    0.0293954384112873    H187
    0.7240284161750213    0.7143539888167921    0.3627287717446206    H188
    0.7240284161750213    0.7143539888167921    0.6960621050779540    H189
    0.9968282060656798    0.1212326186127452    0.2647430145311124    H190
    0.9968282060656798    0.1212326186127452    0.5980763478644456    H191
    0.9968282060656798    0.1212326186127452    0.9314096811977790    H192
    0.9968282060656798    0.4545659519460785    0.2647430145311124    H193
    0.9968282060656798    0.4545659519460785    0.5980763478644456    H194
    0.9968282060656798    0.4545659519460785    0.9314096811977790    H195
    0.9968282060656798    0.7878992852794118    0.2647430145311124    H196
    0.9968282060656798    0.7878992852794118    0.5980763478644456    H197
    0.9968282060656798    0.7878992852794118    0.9314096811977790    H198
    0.3301615393990131    0.1212326186127452    0.2647430145311124    H199
    0.3301615393990131    0.1212326186127452    0.5980763478644456    H200
    0.3301615393990131    0.1212326186127452    0.9314096811977790    H201
    0.3301615393990131    0.4545659519460785    0.2647430145311124    H202
    0.3301615393990131    0.4545659519460785    0.5980763478644456    H203
    0.3301615393990131    0.4545659519460785    0.9314096811977790    H204
    0.3301615393990131    0.7878992852794118    0.2647430145311124    H205
    0.3301615393990131    0.7878992852794118    0.5980763478644456    H206
    0.3301615393990131    0.7878992852794118    0.9314096811977790    H207
    0.6634948727323464    0.1212326186127452    0.2647430145311124    H208
    0.6634948727323464    0.1212326186127452    0.5980763478644456    H209
    0.6634948727323464    0.1212326186127452    0.9314096811977790    H210
    0.6634948727323464    0.4545659519460785    0.2647430145311124    H211
    0.6634948727323464    0.4545659519460785    0.5980763478644456    H212
    0.6634948727323464    0.4545659519460785    0.9314096811977790    H213
    0.6634948727323464    0.7878992852794118    0.2647430145311124    H214
    0.6634948727323464    0.7878992852794118    0.5980763478644456    H215
    0.6634948727323464    0.7878992852794118    0.9314096811977790    H216
    0.0311762349966896    0.1843994933406308    0.0290155128035104    H217
    0.0311762349966896    0.1843994933406308    0.3623488461368437    H218
    0.0311762349966896    0.1843994933406308    0.6956821794701771    H219
    0.0311762349966896    0.5177328266739640    0.0290155128035104    H220
    0.0311762349966896    0.5177328266739640    0.3623488461368437    H221
    0.0311762349966896    0.5177328266739640    0.6956821794701771    H222
    0.0311762349966896    0.8510661600072975    0.0290155128035104    H223
    0.0311762349966896    0.8510661600072975    0.3623488461368437    H224
    0.0311762349966896    0.8510661600072975    0.6956821794701771    H225
    0.3645095683300228    0.1843994933406308    0.0290155128035104    H226
    0.3645095683300228    0.1843994933406308    0.3623488461368437    H227
    0.3645095683300228    0.1843994933406308    0.6956821794701771    H228
    0.3645095683300228    0.5177328266739640    0.0290155128035104    H229
    0.3645095683300228    0.5177328266739640    0.3623488461368437    H230
    0.3645095683300228    0.5177328266739640    0.6956821794701771    H231
    0.3645095683300228    0.8510661600072975    0.0290155128035104    H232
    0.3645095683300228    0.8510661600072975    0.3623488461368437    H233
    0.3645095683300228    0.8510661600072975    0.6956821794701771    H234
    0.6978429016633562    0.1843994933406308    0.0290155128035104    H235
    0.6978429016633562    0.1843994933406308    0.3623488461368437    H236
    0.6978429016633562    0.1843994933406308    0.6956821794701771    H237
    0.6978429016633562    0.5177328266739640    0.0290155128035104    H238
    0.6978429016633562    0.5177328266739640    0.3623488461368437    H239
    0.6978429016633562    0.5177328266739640    0.6956821794701771    H240
    0.6978429016633562    0.8510661600072975    0.0290155128035104    H241
    0.6978429016633562    0.8510661600072975    0.3623488461368437    H242
    0.6978429016633562    0.8510661600072975    0.6956821794701771    H243
    0.0786573104860842    0.0469018655192633    0.0749088106892657    H244
    0.0786573104860842    0.0469018655192633    0.4082421440225990    H245
    0.0786573104860842    0.0469018655192633    0.7415754773559323    H246
    0.0786573104860842    0.3802351988525966    0.0749088106892657    H247
    0.0786573104860842    0.3802351988525966    0.4082421440225990    H248
    0.0786573104860842    0.3802351988525966    0.7415754773559323    H249
    0.0786573104860842    0.7135685321859300    0.0749088106892657    H250
    0.0786573104860842    0.7135685321859300    0.4082421440225990    H251
    0.0786573104860842    0.7135685321859300    0.7415754773559323    H252
    0.4119906438194175    0.0469018655192633    0.0749088106892657    H253
    0.4119906438194175    0.0469018655192633    0.4082421440225990    H254
    0.4119906438194175    0.0469018655192633    0.7415754773559323    H255
    0.4119906438194175    0.3802351988525966    0.0749088106892657    H256
    0.4119906438194175    0.3802351988525966    0.4082421440225990    H257
    0.4119906438194175    0.3802351988525966    0.7415754773559323    H258
    0.4119906438194175    0.7135685321859300    0.0749088106892657    H259
    0.4119906438194175    0.7135685321859300    0.4082421440225990    H260
    0.4119906438194175    0.7135685321859300    0.7415754773559323    H261
    0.7453239771527508    0.0469018655192633    0.0749088106892657    H262
    0.7453239771527508    0.0469018655192633    0.4082421440225990    H263
    0.7453239771527508    0.0469018655192633    0.7415754773559323    H264
    0.7453239771527508    0.3802351988525966    0.0749088106892657    H265
    0.7453239771527508    0.3802351988525966    0.4082421440225990    H266
    0.7453239771527508    0.3802351988525966    0.7415754773559323    H267
    0.7453239771527508    0.7135685321859300    0.0749088106892657    H268
    0.7453239771527508    0.7135685321859300    0.4082421440225990    H269
    0.7453239771527508    0.7135685321859300    0.7415754773559323    H270
    0.0972015597715275    0.0731133608688266    0.1121673087817326    H271
    0.0972015597715275    0.0731133608688266    0.4455006421150659    H272
    0.0972015597715275    0.0731133608688266    0.7788339754483993    H273
    0.0972015597715275    0.4064466942021600    0.1121673087817326    H274
    0.0972015597715275    0.4064466942021600    0.4455006421150659    H275
    0.0972015597715275    0.4064466942021600    0.7788339754483993    H276
    0.0972015597715275    0.7397800275354932    0.1121673087817326    H277
    0.0972015597715275    0.7397800275354932    0.4455006421150659    H278
    0.0972015597715275    0.7397800275354932    0.7788339754483993    H279
    0.4305348931048608    0.0731133608688266    0.1121673087817326    H280
    0.4305348931048608    0.0731133608688266    0.4455006421150659    H281
    0.4305348931048608    0.0731133608688266    0.7788339754483993    H282
    0.4305348931048608    0.4064466942021600    0.1121673087817326    H283
    0.4305348931048608    0.4064466942021600    0.4455006421150659    H284
    0.4305348931048608    0.4064466942021600    0.7788339754483993    H285
    0.4305348931048608    0.7397800275354932    0.1121673087817326    H286
    0.4305348931048608    0.7397800275354932    0.4455006421150659    H287
    0.4305348931048608    0.7397800275354932    0.7788339754483993    H288
    0.7638682264381942    0.0731133608688266    0.1121673087817326    H289
    0.7638682264381942    0.0731133608688266    0.4455006421150659    H290
    0.7638682264381942    0.0731133608688266    0.7788339754483993    H291
    0.7638682264381942    0.4064466942021600    0.1121673087817326    H292
    0.7638682264381942    0.4064466942021600    0.4455006421150659    H293
    0.7638682264381942    0.4064466942021600    0.7788339754483993    H294
    0.7638682264381942    0.7397800275354932    0.1121673087817326    H295
    0.7638682264381942    0.7397800275354932    0.4455006421150659    H296
    0.7638682264381942    0.7397800275354932    0.7788339754483993    H297
    0.2264983905421598    0.2216156813571246    0.5952229720579929    H298
    0.2264983905421598    0.2216156813571246    0.9285563053913262    H299
    0.2264983905421598    0.2216156813571246    0.2618896387246594    H300
    0.2264983905421598    0.5549490146904580    0.5952229720579929    H301
    0.2264983905421598    0.5549490146904580    0.9285563053913262    H302
    0.2264983905421598    0.5549490146904580    0.2618896387246594    H303
    0.2264983905421598    0.8882823480237914    0.5952229720579929    H304
    0.2264983905421598    0.8882823480237914    0.9285563053913262    H305
    0.2264983905421598    0.8882823480237914    0.2618896387246594    H306
    0.5598317238754931    0.2216156813571246    0.5952229720579929    H307
    0.5598317238754931    0.2216156813571246    0.9285563053913262    H308
    0.5598317238754931    0.2216156813571246    0.2618896387246594    H309
    0.5598317238754931    0.5549490146904580    0.5952229720579929    H310
    0.5598317238754931    0.5549490146904580    0.9285563053913262    H311
    0.5598317238754931    0.5549490146904580    0.2618896387246594    H312
    0.5598317238754931    0.8882823480237914    0.5952229720579929    H313
    0.5598317238754931    0.8882823480237914    0.9285563053913262    H314
    0.5598317238754931    0.8882823480237914    0.2618896387246594    H315
    0.8931650572088264    0.2216156813571246    0.5952229720579929    H316
    0.8931650572088264    0.2216156813571246    0.9285563053913262    H317
    0.8931650572088264    0.2216156813571246    0.2618896387246594    H318
    0.8931650572088264    0.5549490146904580    0.5952229720579929    H319
    0.8931650572088264    0.5549490146904580    0.9285563053913262    H320
    0.8931650572088264    0.5549490146904580    0.2618896387246594    H321
    0.8931650572088264    0.8882823480237914    0.5952229720579929    H322
    0.8931650572088264    0.8882823480237914    0.9285563053913262    H323
    0.8931650572088264    0.8882823480237914    0.2618896387246594    H324
    0.2657085400646048    0.1767495528256752    0.5555538415560097    H325
    0.2657085400646048    0.1767495528256752    0.8888871748893431    H326
    0.2657085400646048    0.1767495528256752    0.2222205082226765    H327
    0.2657085400646048    0.5100828861590085    0.5555538415560097    H328
    0.2657085400646048    0.5100828861590085    0.8888871748893431    H329
    0.2657085400646048    0.5100828861590085    0.2222205082226765    H330
    0.2657085400646048    0.8434162194923418    0.5555538415560097    H331
    0.2657085400646048    0.8434162194923418    0.8888871748893431    H332
    0.2657085400646048    0.8434162194923418    0.2222205082226765    H333
    0.5990418733979381    0.1767495528256752    0.5555538415560097    H334
    0.5990418733979381    0.1767495528256752    0.8888871748893431    H335
    0.5990418733979381    0.1767495528256752    0.2222205082226765    H336
    0.5990418733979381    0.5100828861590085    0.5555538415560097    H337
    0.5990418733979381    0.5100828861590085    0.8888871748893431    H338
    0.5990418733979381    0.5100828861590085    0.2222205082226765    H339
    0.5990418733979381    0.8434162194923418    0.5555538415560097    H340
    0.5990418733979381    0.8434162194923418    0.8888871748893431    H341
    0.5990418733979381    0.8434162194923418    0.2222205082226765    H342
    0.9323752067312714    0.1767495528256752    0.5555538415560097    H343
    0.9323752067312714    0.1767495528256752    0.8888871748893431    H344
    0.9323752067312714    0.1767495528256752    0.2222205082226765    H345
    0.9323752067312714    0.5100828861590085    0.5555538415560097    H346
    0.9323752067312714    0.5100828861590085    0.8888871748893431    H347
    0.9323752067312714    0.5100828861590085    0.2222205082226765    H348
    0.9323752067312714    0.8434162194923418    0.5555538415560097    H349
    0.9323752067312714    0.8434162194923418    0.8888871748893431    H350
    0.9323752067312714    0.8434162194923418    0.2222205082226765    H351
    0.0287420460330691    0.1584224503186134    0.0782543466654535    H352
    0.0287420460330691    0.1584224503186134    0.4115876799987868    H353
    0.0287420460330691    0.1584224503186134    0.7449210133321201    H354
    0.0287420460330691    0.4917557836519467    0.0782543466654535    H355
    0.0287420460330691    0.4917557836519467    0.4115876799987868    H356
    0.0287420460330691    0.4917557836519467    0.7449210133321201    H357
    0.0287420460330691    0.8250891169852800    0.0782543466654535    H358
    0.0287420460330691    0.8250891169852800    0.4115876799987868    H359
    0.0287420460330691    0.8250891169852800    0.7449210133321201    H360
    0.3620753793664024    0.1584224503186134    0.0782543466654535    H361
    0.3620753793664024    0.1584224503186134    0.4115876799987868    H362
    0.3620753793664024    0.1584224503186134    0.7449210133321201    H363
    0.3620753793664024    0.4917557836519467    0.0782543466654535    H364
    0.3620753793664024    0.4917557836519467    0.4115876799987868    H365
    0.3620753793664024    0.4917557836519467    0.7449210133321201    H366
    0.3620753793664024    0.8250891169852800    0.0782543466654535    H367
    0.3620753793664024    0.8250891169852800    0.4115876799987868    H368
    0.3620753793664024    0.8250891169852800    0.7449210133321201    H369
    0.6954087126997358    0.1584224503186134    0.0782543466654535    H370
    0.6954087126997358    0.1584224503186134    0.4115876799987868    H371
    0.6954087126997358    0.1584224503186134    0.7449210133321201    H372
    0.6954087126997358    0.4917557836519467    0.0782543466654535    H373
    0.6954087126997358    0.4917557836519467    0.4115876799987868    H374
    0.6954087126997358    0.4917557836519467    0.7449210133321201    H375
    0.6954087126997358    0.8250891169852800    0.0782543466654535    H376
    0.6954087126997358    0.8250891169852800    0.4115876799987868    H377
    0.6954087126997358    0.8250891169852800    0.7449210133321201    H378
    0.3014784552362696    0.2283240558591203    0.1833352808732037    H379
    0.3014784552362696    0.2283240558591203    0.5166686142065371    H380
    0.3014784552362696    0.2283240558591203    0.8500019475398704    H381
    0.3014784552362696    0.5616573891924537    0.1833352808732037    H382
    0.3014784552362696    0.5616573891924537    0.5166686142065371    H383
    0.3014784552362696    0.5616573891924537    0.8500019475398704    H384
    0.3014784552362696    0.8949907225257869    0.1833352808732037    H385
    0.3014784552362696    0.8949907225257869    0.5166686142065371    H386
    0.3014784552362696    0.8949907225257869    0.8500019475398704    H387
    0.6348117885696030    0.2283240558591203    0.1833352808732037    H388
    0.6348117885696030    0.2283240558591203    0.5166686142065371    H389
    0.6348117885696030    0.2283240558591203    0.8500019475398704    H390
    0.6348117885696030    0.5616573891924537    0.1833352808732037    H391
    0.6348117885696030    0.5616573891924537    0.5166686142065371    H392
    0.6348117885696030    0.5616573891924537    0.8500019475398704    H393
    0.6348117885696030    0.8949907225257869    0.1833352808732037    H394
    0.6348117885696030    0.8949907225257869    0.5166686142065371    H395
    0.6348117885696030    0.8949907225257869    0.8500019475398704    H396
    0.9681451219029362    0.2283240558591203    0.1833352808732037    H397
    0.9681451219029362    0.2283240558591203    0.5166686142065371    H398
    0.9681451219029362    0.2283240558591203    0.8500019475398704    H399
    0.9681451219029362    0.5616573891924537    0.1833352808732037    H400
    0.9681451219029362    0.5616573891924537    0.5166686142065371    H401
    0.9681451219029362    0.5616573891924537    0.8500019475398704    H402
    0.9681451219029362    0.8949907225257869    0.1833352808732037    H403
    0.9681451219029362    0.8949907225257869    0.5166686142065371    H404
    0.9681451219029362    0.8949907225257869    0.8500019475398704    H405
    0.1885663834532756    0.1465199914850241    0.4703438337679916    H406
    0.1885663834532756    0.1465199914850241    0.8036771671013249    H407
    0.1885663834532756    0.1465199914850241    0.1370105004346582    H408
    0.1885663834532756    0.4798533248183575    0.4703438337679916    H409
    0.1885663834532756    0.4798533248183575    0.8036771671013249    H410
    0.1885663834532756    0.4798533248183575    0.1370105004346582    H411
    0.1885663834532756    0.8131866581516909    0.4703438337679916    H412
    0.1885663834532756    0.8131866581516909    0.8036771671013249    H413
    0.1885663834532756    0.8131866581516909    0.1370105004346582    H414
    0.5218997167866088    0.1465199914850241    0.4703438337679916    H415
    0.5218997167866088    0.1465199914850241    0.8036771671013249    H416
    0.5218997167866088    0.1465199914850241    0.1370105004346582    H417
    0.5218997167866088    0.4798533248183575    0.4703438337679916    H418
    0.5218997167866088    0.4798533248183575    0.8036771671013249    H419
    0.5218997167866088    0.4798533248183575    0.1370105004346582    H420
    0.5218997167866088    0.8131866581516909    0.4703438337679916    H421
    0.5218997167866088    0.8131866581516909    0.8036771671013249    H422
    0.5218997167866088    0.8131866581516909    0.1370105004346582    H423
    0.8552330501199422    0.1465199914850241    0.4703438337679916    H424
    0.8552330501199422    0.1465199914850241    0.8036771671013249    H425
    0.8552330501199422    0.1465199914850241    0.1370105004346582    H426
    0.8552330501199422    0.4798533248183575    0.4703438337679916    H427
    0.8552330501199422    0.4798533248183575    0.8036771671013249    H428
    0.8552330501199422    0.4798533248183575    0.1370105004346582    H429
    0.8552330501199422    0.8131866581516909    0.4703438337679916    H430
    0.8552330501199422    0.8131866581516909    0.8036771671013249    H431
    0.8552330501199422    0.8131866581516909    0.1370105004346582    H432
    0.1265891998261901    0.2322169975499288    0.4201843064807607    H433
    0.1265891998261901    0.2322169975499288    0.7535176398140939    H434
    0.1265891998261901    0.2322169975499288    0.0868509731474272    H435
    0.1265891998261901    0.5655503308832621    0.4201843064807607    H436
    0.1265891998261901    0.5655503308832621    0.7535176398140939    H437
    0.1265891998261901    0.5655503308832621    0.0868509731474272    H438
    0.1265891998261901    0.8988836642165954    0.4201843064807607    H439
    0.1265891998261901    0.8988836642165954    0.7535176398140939    H440
    0.1265891998261901    0.8988836642165954    0.0868509731474272    H441
    0.4599225331595235    0.2322169975499288    0.4201843064807607    H442
    0.4599225331595235    0.2322169975499288    0.7535176398140939    H443
    0.4599225331595235    0.2322169975499288    0.0868509731474272    H444
    0.4599225331595235    0.5655503308832621    0.4201843064807607    H445
    0.4599225331595235    0.5655503308832621    0.7535176398140939    H446
    0.4599225331595235    0.5655503308832621    0.0868509731474272    H447
    0.4599225331595235    0.8988836642165954    0.4201843064807607    H448
    0.4599225331595235    0.8988836642165954    0.7535176398140939    H449
    0.4599225331595235    0.8988836642165954    0.0868509731474272    H450
    0.7932558664928568    0.2322169975499288    0.4201843064807607    H451
    0.7932558664928568    0.2322169975499288    0.7535176398140939    H452
    0.7932558664928568    0.2322169975499288    0.0868509731474272    H453
    0.7932558664928568    0.5655503308832621    0.4201843064807607    H454
    0.7932558664928568    0.5655503308832621    0.7535176398140939    H455
    0.7932558664928568    0.5655503308832621    0.0868509731474272    H456
    0.7932558664928568    0.8988836642165954    0.4201843064807607    H457
    0.7932558664928568    0.8988836642165954    0.7535176398140939    H458
    0.7932558664928568    0.8988836642165954    0.0868509731474272    H459
    0.3295494937630915    0.3389489042775244    0.1962029628715242    H460
    0.3295494937630915    0.3389489042775244    0.5295362962048575    H461
    0.3295494937630915    0.3389489042775244    0.8628696295381909    H462
    0.3295494937630915    0.6722822376108578    0.1962029628715242    H463
    0.3295494937630915    0.6722822376108578    0.5295362962048575    H464
    0.3295494937630915    0.6722822376108578    0.8628696295381909    H465
    0.3295494937630915    0.0056155709441912    0.1962029628715242    H466
    0.3295494937630915    0.0056155709441912    0.5295362962048575    H467
    0.3295494937630915    0.0056155709441912    0.8628696295381909    H468
    0.6628828270964249    0.3389489042775244    0.1962029628715242    H469
    0.6628828270964249    0.3389489042775244    0.5295362962048575    H470
    0.6628828270964249    0.3389489042775244    0.8628696295381909    H471
    0.6628828270964249    0.6722822376108578    0.1962029628715242    H472
    0.6628828270964249    0.6722822376108578    0.5295362962048575    H473
    0.6628828270964249    0.6722822376108578    0.8628696295381909    H474
    0.6628828270964249    0.0056155709441912    0.1962029628715242    H475
    0.6628828270964249    0.0056155709441912    0.5295362962048575    H476
    0.6628828270964249    0.0056155709441912    0.8628696295381909    H477
    0.9962161604297581    0.3389489042775244    0.1962029628715242    H478
    0.9962161604297581    0.3389489042775244    0.5295362962048575    H479
    0.9962161604297581    0.3389489042775244    0.8628696295381909    H480
    0.9962161604297581    0.6722822376108578    0.1962029628715242    H481
    0.9962161604297581    0.6722822376108578    0.5295362962048575    H482
    0.9962161604297581    0.6722822376108578    0.8628696295381909    H483
    0.9962161604297581    0.0056155709441912    0.1962029628715242    H484
    0.9962161604297581    0.0056155709441912    0.5295362962048575    H485
    0.9962161604297581    0.0056155709441912    0.8628696295381909    H486
    0.2046799223047173    0.1378013757570479    0.5834491378597235    H487
    0.2046799223047173    0.1378013757570479    0.9167824711930568    H488
    0.2046799223047173    0.1378013757570479    0.2501158045263900    H489
    0.2046799223047173    0.4711347090903812    0.5834491378597235    H490
    0.2046799223047173    0.4711347090903812    0.9167824711930568    H491
    0.2046799223047173    0.4711347090903812    0.2501158045263900    H492
    0.2046799223047173    0.8044680424237145    0.5834491378597235    H493
    0.2046799223047173    0.8044680424237145    0.9167824711930568    H494
    0.2046799223047173    0.8044680424237145    0.2501158045263900    H495
    0.5380132556380507    0.1378013757570479    0.5834491378597235    H496
    0.5380132556380507    0.1378013757570479    0.9167824711930568    H497
    0.5380132556380507    0.1378013757570479    0.2501158045263900    H498
    0.5380132556380507    0.4711347090903812    0.5834491378597235    H499
    0.5380132556380507    0.4711347090903812    0.9167824711930568    H500
    0.5380132556380507    0.4711347090903812    0.2501158045263900    H501
    0.5380132556380507    0.8044680424237145    0.5834491378597235    H502
    0.5380132556380507    0.8044680424237145    0.9167824711930568    H503
    0.5380132556380507    0.8044680424237145    0.2501158045263900    H504
    0.8713465889713841    0.1378013757570479    0.5834491378597235    H505
    0.8713465889713841    0.1378013757570479    0.9167824711930568    H506
    0.8713465889713841    0.1378013757570479    0.2501158045263900    H507
    0.8713465889713841    0.4711347090903812    0.5834491378597235    H508
    0.8713465889713841    0.4711347090903812    0.9167824711930568    H509
    0.8713465889713841    0.4711347090903812    0.2501158045263900    H510
    0.8713465889713841    0.8044680424237145    0.5834491378597235    H511
    0.8713465889713841    0.8044680424237145    0.9167824711930568    H512
    0.8713465889713841    0.8044680424237145    0.2501158045263900    H513
    0.2207857386763533    0.2169622597712957    0.5531287161494668    H514
    0.2207857386763533    0.2169622597712957    0.8864620494828002    H515
    0.2207857386763533    0.2169622597712957    0.2197953828161334    H516
    0.2207857386763533    0.5502955931046291    0.5531287161494668    H517
    0.2207857386763533    0.5502955931046291    0.8864620494828002    H518
    0.2207857386763533    0.5502955931046291    0.2197953828161334    H519
    0.2207857386763533    0.8836289264379623    0.5531287161494668    H520
    0.2207857386763533    0.8836289264379623    0.8864620494828002    H521
    0.2207857386763533    0.8836289264379623    0.2197953828161334    H522
    0.5541190720096867    0.2169622597712957    0.5531287161494668    H523
    0.5541190720096867    0.2169622597712957    0.8864620494828002    H524
    0.5541190720096867    0.2169622597712957    0.2197953828161334    H525
    0.5541190720096867    0.5502955931046291    0.5531287161494668    H526
    0.5541190720096867    0.5502955931046291    0.8864620494828002    H527
    0.5541190720096867    0.5502955931046291    0.2197953828161334    H528
    0.5541190720096867    0.8836289264379623    0.5531287161494668    H529
    0.5541190720096867    0.8836289264379623    0.8864620494828002    H530
    0.5541190720096867    0.8836289264379623    0.2197953828161334    H531
    0.8874524053430199    0.2169622597712957    0.5531287161494668    H532
    0.8874524053430199    0.2169622597712957    0.8864620494828002    H533
    0.8874524053430199    0.2169622597712957    0.2197953828161334    H534
    0.8874524053430199    0.5502955931046291    0.5531287161494668    H535
    0.8874524053430199    0.5502955931046291    0.8864620494828002    H536
    0.8874524053430199    0.5502955931046291    0.2197953828161334    H537
    0.8874524053430199    0.8836289264379623    0.5531287161494668    H538
    0.8874524053430199    0.8836289264379623    0.8864620494828002    H539
    0.8874524053430199    0.8836289264379623    0.2197953828161334    H540
    0.2467641998008438    0.2025128033004795    0.1822146596431201    H541
    0.2467641998008438    0.2025128033004795    0.5155479929764534    H542
    0.2467641998008438    0.2025128033004795    0.8488813263097867    H543
    0.2467641998008438    0.5358461366338128    0.1822146596431201    H544
    0.2467641998008438    0.5358461366338128    0.5155479929764534    H545
    0.2467641998008438    0.5358461366338128    0.8488813263097867    H546
    0.2467641998008438    0.8691794699671461    0.1822146596431201    H547
    0.2467641998008438    0.8691794699671461    0.5155479929764534    H548
    0.2467641998008438    0.8691794699671461    0.8488813263097867    H549
    0.5800975331341771    0.2025128033004795    0.1822146596431201    H550
    0.5800975331341771    0.2025128033004795    0.5155479929764534    H551
    0.5800975331341771    0.2025128033004795    0.8488813263097867    H552
    0.5800975331341771    0.5358461366338128    0.1822146596431201    H553
    0.5800975331341771    0.5358461366338128    0.5155479929764534    H554
    0.5800975331341771    0.5358461366338128    0.8488813263097867    H555
    0.5800975331341771    0.8691794699671461    0.1822146596431201    H556
    0.5800975331341771    0.8691794699671461    0.5155479929764534    H557
    0.5800975331341771    0.8691794699671461    0.8488813263097867    H558
    0.9134308664675104    0.2025128033004795    0.1822146596431201    H559
    0.9134308664675104    0.2025128033004795    0.5155479929764534    H560
    0.9134308664675104    0.2025128033004795    0.8488813263097867    H561
    0.9134308664675104    0.5358461366338128    0.1822146596431201    H562
    0.9134308664675104    0.5358461366338128    0.5155479929764534    H563
    0.9134308664675104    0.5358461366338128    0.8488813263097867    H564
    0.9134308664675104    0.8691794699671461    0.1822146596431201    H565
    0.9134308664675104    0.8691794699671461    0.5155479929764534    H566
    0.9134308664675104    0.8691794699671461    0.8488813263097867    H567
    0.2483417881976546    0.4266485332078951    0.5614786537126456    H568
    0.2483417881976546    0.4266485332078951    0.8948119870459790    H569
    0.2483417881976546    0.4266485332078951    0.2281453203793122    H570
    0.2483417881976546    0.7599818665412285    0.5614786537126456    H571
    0.2483417881976546    0.7599818665412285    0.8948119870459790    H572
    0.2483417881976546    0.7599818665412285    0.2281453203793122    H573
    0.2483417881976546    0.0933151998745618    0.5614786537126456    H574
    0.2483417881976546    0.0933151998745618    0.8948119870459790    H575
    0.2483417881976546    0.0933151998745618    0.2281453203793122    H576
    0.5816751215309879    0.4266485332078951    0.5614786537126456    H577
    0.5816751215309879    0.4266485332078951    0.8948119870459790    H578
    0.5816751215309879    0.4266485332078951    0.2281453203793122    H579
    0.5816751215309879    0.7599818665412285    0.5614786537126456    H580
    0.5816751215309879    0.7599818665412285    0.8948119870459790    H581
    0.5816751215309879    0.7599818665412285    0.2281453203793122    H582
    0.5816751215309879    0.0933151998745618    0.5614786537126456    H583
    0.5816751215309879    0.0933151998745618    0.8948119870459790    H584
    0.5816751215309879    0.0933151998745618    0.2281453203793122    H585
    0.9150084548643213    0.4266485332078951    0.5614786537126456    H586
    0.9150084548643213    0.4266485332078951    0.8948119870459790    H587
    0.9150084548643213    0.4266485332078951    0.2281453203793122    H588
    0.9150084548643213    0.7599818665412285    0.5614786537126456    H589
    0.9150084548643213    0.7599818665412285    0.8948119870459790    H590
    0.9150084548643213    0.7599818665412285    0.2281453203793122    H591
    0.9150084548643213    0.0933151998745618    0.5614786537126456    H592
    0.9150084548643213    0.0933151998745618    0.8948119870459790    H593
    0.9150084548643213    0.0933151998745618    0.2281453203793122    H594
    0.0491837005092943    0.0727970985009341    0.1258434102808978    H595
    0.0491837005092943    0.0727970985009341    0.4591767436142312    H596
    0.0491837005092943    0.0727970985009341    0.7925100769475645    H597
    0.0491837005092943    0.4061304318342674    0.1258434102808978    H598
    0.0491837005092943    0.4061304318342674    0.4591767436142312    H599
    0.0491837005092943    0.4061304318342674    0.7925100769475645    H600
    0.0491837005092943    0.7394637651676007    0.1258434102808978    H601
    0.0491837005092943    0.7394637651676007    0.4591767436142312    H602
    0.0491837005092943    0.7394637651676007    0.7925100769475645    H603
    0.3825170338426276    0.0727970985009341    0.1258434102808978    H604
    0.3825170338426276    0.0727970985009341    0.4591767436142312    H605
    0.3825170338426276    0.0727970985009341    0.7925100769475645    H606
    0.3825170338426276    0.4061304318342674    0.1258434102808978    H607
    0.3825170338426276    0.4061304318342674    0.4591767436142312    H608
    0.3825170338426276    0.4061304318342674    0.7925100769475645    H609
    0.3825170338426276    0.7394637651676007    0.1258434102808978    H610
    0.3825170338426276    0.7394637651676007    0.4591767436142312    H611
    0.3825170338426276    0.7394637651676007    0.7925100769475645    H612
    0.7158503671759610    0.0727970985009341    0.1258434102808978    H613
    0.7158503671759610    0.0727970985009341    0.4591767436142312    H614
    0.7158503671759610    0.0727970985009341    0.7925100769475645    H615
    0.7158503671759610    0.4061304318342674    0.1258434102808978    H616
    0.7158503671759610    0.4061304318342674    0.4591767436142312    H617
    0.7158503671759610    0.4061304318342674    0.7925100769475645    H618
    0.7158503671759610    0.7394637651676007    0.1258434102808978    H619
    0.7158503671759610    0.7394637651676007    0.4591767436142312    H620
    0.7158503671759610    0.7394637651676007    0.7925100769475645    H621
    0.1794566569431422    0.4054750811645903    0.4853489078342434    H622
    0.1794566569431422    0.4054750811645903    0.8186822411675767    H623
    0.1794566569431422    0.4054750811645903    0.1520155745009100    H624
    0.1794566569431422    0.7388084144979237    0.4853489078342434    H625
    0.1794566569431422    0.7388084144979237    0.8186822411675767    H626
    0.1794566569431422    0.7388084144979237    0.1520155745009100    H627
    0.1794566569431422    0.0721417478312569    0.4853489078342434    H628
    0.1794566569431422    0.0721417478312569    0.8186822411675767    H629
    0.1794566569431422    0.0721417478312569    0.1520155745009100    H630
    0.5127899902764754    0.4054750811645903    0.4853489078342434    H631
    0.5127899902764754    0.4054750811645903    0.8186822411675767    H632
    0.5127899902764754    0.4054750811645903    0.1520155745009100    H633
    0.5127899902764754    0.7388084144979237    0.4853489078342434    H634
    0.5127899902764754    0.7388084144979237    0.8186822411675767    H635
    0.5127899902764754    0.7388084144979237    0.1520155745009100    H636
    0.5127899902764754    0.0721417478312569    0.4853489078342434    H637
    0.5127899902764754    0.0721417478312569    0.8186822411675767    H638
    0.5127899902764754    0.0721417478312569    0.1520155745009100    H639
    0.8461233236098088    0.4054750811645903    0.4853489078342434    H640
    0.8461233236098088    0.4054750811645903    0.8186822411675767    H641
    0.8461233236098088    0.4054750811645903    0.1520155745009100    H642
    0.8461233236098088    0.7388084144979237    0.4853489078342434    H643
    0.8461233236098088    0.7388084144979237    0.8186822411675767    H644
    0.8461233236098088    0.7388084144979237    0.1520155745009100    H645
    0.8461233236098088    0.0721417478312569    0.4853489078342434    H646
    0.8461233236098088    0.0721417478312569    0.8186822411675767    H647
    0.8461233236098088    0.0721417478312569    0.1520155745009100    H648
    0.2569578639926645    0.0842223188699976    0.4337012059667441    H649
    0.2569578639926645    0.0842223188699976    0.7670345393000774    H650
    0.2569578639926645    0.0842223188699976    0.1003678726334107    H651
    0.2569578639926645    0.4175556522033309    0.4337012059667441    H652
    0.2569578639926645    0.4175556522033309    0.7670345393000774    H653
    0.2569578639926645    0.4175556522033309    0.1003678726334107    H654
    0.2569578639926645    0.7508889855366642    0.4337012059667441    H655
    0.2569578639926645    0.7508889855366642    0.7670345393000774    H656
    0.2569578639926645    0.7508889855366642    0.1003678726334107    H657
    0.5902911973259979    0.0842223188699976    0.4337012059667441    H658
    0.5902911973259979    0.0842223188699976    0.7670345393000774    H659
    0.5902911973259979    0.0842223188699976    0.1003678726334107    H660
    0.5902911973259979    0.4175556522033309    0.4337012059667441    H661
    0.5902911973259979    0.4175556522033309    0.7670345393000774    H662
    0.5902911973259979    0.4175556522033309    0.1003678726334107    H663
    0.5902911973259979    0.7508889855366642    0.4337012059667441    H664
    0.5902911973259979    0.7508889855366642    0.7670345393000774    H665
    0.5902911973259979    0.7508889855366642    0.1003678726334107    H666
    0.9236245306593311    0.0842223188699976    0.4337012059667441    H667
    0.9236245306593311    0.0842223188699976    0.7670345393000774    H668
    0.9236245306593311    0.0842223188699976    0.1003678726334107    H669
    0.9236245306593311    0.4175556522033309    0.4337012059667441    H670
    0.9236245306593311    0.4175556522033309    0.7670345393000774    H671
    0.9236245306593311    0.4175556522033309    0.1003678726334107    H672
    0.9236245306593311    0.7508889855366642    0.4337012059667441    H673
    0.9236245306593311    0.7508889855366642    0.7670345393000774    H674
    0.9236245306593311    0.7508889855366642    0.1003678726334107    H675
    0.2272151483636000    0.4691740895277056    0.3870790411601377    H676
    0.2272151483636000    0.4691740895277056    0.7204123744934711    H677
    0.2272151483636000    0.4691740895277056    0.0537457078268044    H678
    0.2272151483636000    0.8025074228610389    0.3870790411601377    H679
    0.2272151483636000    0.8025074228610389    0.7204123744934711    H680
    0.2272151483636000    0.8025074228610389    0.0537457078268044    H681
    0.2272151483636000    0.1358407561943722    0.3870790411601377    H682
    0.2272151483636000    0.1358407561943722    0.7204123744934711    H683
    0.2272151483636000    0.1358407561943722    0.0537457078268044    H684
    0.5605484816969333    0.4691740895277056    0.3870790411601377    H685
    0.5605484816969333    0.4691740895277056    0.7204123744934711    H686
    0.5605484816969333    0.4691740895277056    0.0537457078268044    H687
    0.5605484816969333    0.8025074228610389    0.3870790411601377    H688
    0.5605484816969333    0.8025074228610389    0.7204123744934711    H689
    0.5605484816969333    0.8025074228610389    0.0537457078268044    H690
    0.5605484816969333    0.1358407561943722    0.3870790411601377    H691
    0.5605484816969333    0.1358407561943722    0.7204123744934711    H692
    0.5605484816969333    0.1358407561943722    0.0537457078268044    H693
    0.8938818150302665    0.4691740895277056    0.3870790411601377    H694
    0.8938818150302665    0.4691740895277056    0.7204123744934711    H695
    0.8938818150302665    0.4691740895277056    0.0537457078268044    H696
    0.8938818150302665    0.8025074228610389    0.3870790411601377    H697
    0.8938818150302665    0.8025074228610389    0.7204123744934711    H698
    0.8938818150302665    0.8025074228610389    0.0537457078268044    H699
    0.8938818150302665    0.1358407561943722    0.3870790411601377    H700
    0.8938818150302665    0.1358407561943722    0.7204123744934711    H701
    0.8938818150302665    0.1358407561943722    0.0537457078268044    H702
    0.1002965514865225    0.1960238400186824    0.4251018775504675    H703
    0.1002965514865225    0.1960238400186824    0.7584352108838008    H704
    0.1002965514865225    0.1960238400186824    0.0917685442171341    H705
    0.1002965514865225    0.5293571733520157    0.4251018775504675    H706
    0.1002965514865225    0.5293571733520157    0.7584352108838008    H707
    0.1002965514865225    0.5293571733520157    0.0917685442171341    H708
    0.1002965514865225    0.8626905066853491    0.4251018775504675    H709
    0.1002965514865225    0.8626905066853491    0.7584352108838008    H710
    0.1002965514865225    0.8626905066853491    0.0917685442171341    H711
    0.4336298848198559    0.1960238400186824    0.4251018775504675    H712
    0.4336298848198559    0.1960238400186824    0.7584352108838008    H713
    0.4336298848198559    0.1960238400186824    0.0917685442171341    H714
    0.4336298848198559    0.5293571733520157    0.4251018775504675    H715
    0.4336298848198559    0.5293571733520157    0.7584352108838008    H716
    0.4336298848198559    0.5293571733520157    0.0917685442171341    H717
    0.4336298848198559    0.8626905066853491    0.4251018775504675    H718
    0.4336298848198559    0.8626905066853491    0.7584352108838008    H719
    0.4336298848198559    0.8626905066853491    0.0917685442171341    H720
    0.7669632181531891    0.1960238400186824    0.4251018775504675    H721
    0.7669632181531891    0.1960238400186824    0.7584352108838008    H722
    0.7669632181531891    0.1960238400186824    0.0917685442171341    H723
    0.7669632181531891    0.5293571733520157    0.4251018775504675    H724
    0.7669632181531891    0.5293571733520157    0.7584352108838008    H725
    0.7669632181531891    0.5293571733520157    0.0917685442171341    H726
    0.7669632181531891    0.8626905066853491    0.4251018775504675    H727
    0.7669632181531891    0.8626905066853491    0.7584352108838008    H728
    0.7669632181531891    0.8626905066853491    0.0917685442171341    H729
    0.2935998097133878    0.2566742515158594    0.1418146070060301    H730
    0.2935998097133878    0.2566742515158594    0.4751479403393635    H731
    0.2935998097133878    0.2566742515158594    0.8084812736726967    H732
    0.2935998097133878    0.5900075848491927    0.1418146070060301    H733
    0.2935998097133878    0.5900075848491927    0.4751479403393635    H734
    0.2935998097133878    0.5900075848491927    0.8084812736726967    H735
    0.2935998097133878    0.9233409181825261    0.1418146070060301    H736
    0.2935998097133878    0.9233409181825261    0.4751479403393635    H737
    0.2935998097133878    0.9233409181825261    0.8084812736726967    H738
    0.6269331430467211    0.2566742515158594    0.1418146070060301    H739
    0.6269331430467211    0.2566742515158594    0.4751479403393635    H740
    0.6269331430467211    0.2566742515158594    0.8084812736726967    H741
    0.6269331430467211    0.5900075848491927    0.1418146070060301    H742
    0.6269331430467211    0.5900075848491927    0.4751479403393635    H743
    0.6269331430467211    0.5900075848491927    0.8084812736726967    H744
    0.6269331430467211    0.9233409181825261    0.1418146070060301    H745
    0.6269331430467211    0.9233409181825261    0.4751479403393635    H746
    0.6269331430467211    0.9233409181825261    0.8084812736726967    H747
    0.9602664763800545    0.2566742515158594    0.1418146070060301    H748
    0.9602664763800545    0.2566742515158594    0.4751479403393635    H749
    0.9602664763800545    0.2566742515158594    0.8084812736726967    H750
    0.9602664763800545    0.5900075848491927    0.1418146070060301    H751
    0.9602664763800545    0.5900075848491927    0.4751479403393635    H752
    0.9602664763800545    0.5900075848491927    0.8084812736726967    H753
    0.9602664763800545    0.9233409181825261    0.1418146070060301    H754
    0.9602664763800545    0.9233409181825261    0.4751479403393635    H755
    0.9602664763800545    0.9233409181825261    0.8084812736726967    H756
    0.3416621816953433    0.4407911767644249    0.2060450499841800    H757
    0.3416621816953433    0.4407911767644249    0.5393783833175133    H758
    0.3416621816953433    0.4407911767644249    0.8727117166508466    H759
    0.3416621816953433    0.7741245100977583    0.2060450499841800    H760
    0.3416621816953433    0.7741245100977583    0.5393783833175133    H761
    0.3416621816953433    0.7741245100977583    0.8727117166508466    H762
    0.3416621816953433    0.1074578434310915    0.2060450499841800    H763
    0.3416621816953433    0.1074578434310915    0.5393783833175133    H764
    0.3416621816953433    0.1074578434310915    0.8727117166508466    H765
    0.6749955150286766    0.4407911767644249    0.2060450499841800    H766
    0.6749955150286766    0.4407911767644249    0.5393783833175133    H767
    0.6749955150286766    0.4407911767644249    0.8727117166508466    H768
    0.6749955150286766    0.7741245100977583    0.2060450499841800    H769
    0.6749955150286766    0.7741245100977583    0.5393783833175133    H770
    0.6749955150286766    0.7741245100977583    0.8727117166508466    H771
    0.6749955150286766    0.1074578434310915    0.2060450499841800    H772
    0.6749955150286766    0.1074578434310915    0.5393783833175133    H773
    0.6749955150286766    0.1074578434310915    0.8727117166508466    H774
    0.0083288483620099    0.4407911767644249    0.2060450499841800    H775
    0.0083288483620099    0.4407911767644249    0.5393783833175133    H776
    0.0083288483620099    0.4407911767644249    0.8727117166508466    H777
    0.0083288483620099    0.7741245100977583    0.2060450499841800    H778
    0.0083288483620099    0.7741245100977583    0.5393783833175133    H779
    0.0083288483620099    0.7741245100977583    0.8727117166508466    H780
    0.0083288483620099    0.1074578434310915    0.2060450499841800    H781
    0.0083288483620099    0.1074578434310915    0.5393783833175133    H782
    0.0083288483620099    0.1074578434310915    0.8727117166508466    H783
    0.2290087000465917    0.4981146226560370    0.4494734941722041    H784
    0.2290087000465917    0.4981146226560370    0.7828068275055374    H785
    0.2290087000465917    0.4981146226560370    0.1161401608388708    H786
    0.2290087000465917    0.8314479559893703    0.4494734941722041    H787
    0.2290087000465917    0.8314479559893703    0.7828068275055374    H788
    0.2290087000465917    0.8314479559893703    0.1161401608388708    H789
    0.2290087000465917    0.1647812893227036    0.4494734941722041    H790
    0.2290087000465917    0.1647812893227036    0.7828068275055374    H791
    0.2290087000465917    0.1647812893227036    0.1161401608388708    H792
    0.5623420333799249    0.4981146226560370    0.4494734941722041    H793
    0.5623420333799249    0.4981146226560370    0.7828068275055374    H794
    0.5623420333799249    0.4981146226560370    0.1161401608388708    H795
    0.5623420333799249    0.8314479559893703    0.4494734941722041    H796
    0.5623420333799249    0.8314479559893703    0.7828068275055374    H797
    0.5623420333799249    0.8314479559893703    0.1161401608388708    H798
    0.5623420333799249    0.1647812893227036    0.4494734941722041    H799
    0.5623420333799249    0.1647812893227036    0.7828068275055374    H800
    0.5623420333799249    0.1647812893227036    0.1161401608388708    H801
    0.8956753667132583    0.4981146226560370    0.4494734941722041    H802
    0.8956753667132583    0.4981146226560370    0.7828068275055374    H803
    0.8956753667132583    0.4981146226560370    0.1161401608388708    H804
    0.8956753667132583    0.8314479559893703    0.4494734941722041    H805
    0.8956753667132583    0.8314479559893703    0.7828068275055374    H806
    0.8956753667132583    0.8314479559893703    0.1161401608388708    H807
    0.8956753667132583    0.1647812893227036    0.4494734941722041    H808
    0.8956753667132583    0.1647812893227036    0.7828068275055374    H809
    0.8956753667132583    0.1647812893227036    0.1161401608388708    H810
    0.1986348710653498    0.3203778909986766    0.2273072123687752    H811
    0.1986348710653498    0.3203778909986766    0.5606405457021084    H812
    0.1986348710653498    0.3203778909986766    0.8939738790354418    H813
    0.1986348710653498    0.6537112243320099    0.2273072123687752    H814
    0.1986348710653498    0.6537112243320099    0.5606405457021084    H815
    0.1986348710653498    0.6537112243320099    0.8939738790354418    H816
    0.1986348710653498    0.9870445576653433    0.2273072123687752    H817
    0.1986348710653498    0.9870445576653433    0.5606405457021084    H818
    0.1986348710653498    0.9870445576653433    0.8939738790354418    H819
    0.5319682043986831    0.3203778909986766    0.2273072123687752    H820
    0.5319682043986831    0.3203778909986766    0.5606405457021084    H821
    0.5319682043986831    0.3203778909986766    0.8939738790354418    H822
    0.5319682043986831    0.6537112243320099    0.2273072123687752    H823
    0.5319682043986831    0.6537112243320099    0.5606405457021084    H824
    0.5319682043986831    0.6537112243320099    0.8939738790354418    H825
    0.5319682043986831    0.9870445576653433    0.2273072123687752    H826
    0.5319682043986831    0.9870445576653433    0.5606405457021084    H827
    0.5319682043986831    0.9870445576653433    0.8939738790354418    H828
    0.8653015377320165    0.3203778909986766    0.2273072123687752    H829
    0.8653015377320165    0.3203778909986766    0.5606405457021084    H830
    0.8653015377320165    0.3203778909986766    0.8939738790354418    H831
    0.8653015377320165    0.6537112243320099    0.2273072123687752    H832
    0.8653015377320165    0.6537112243320099    0.5606405457021084    H833
    0.8653015377320165    0.6537112243320099    0.8939738790354418    H834
    0.8653015377320165    0.9870445576653433    0.2273072123687752    H835
    0.8653015377320165    0.9870445576653433    0.5606405457021084    H836
    0.8653015377320165    0.9870445576653433    0.8939738790354418    H837
    0.0270790685578205    0.3718337566730072    0.0878535616349693    H838
    0.0270790685578205    0.3718337566730072    0.4211868949683026    H839
    0.0270790685578205    0.3718337566730072    0.7545202283016359    H840
    0.0270790685578205    0.7051670900063405    0.0878535616349693    H841
    0.0270790685578205    0.7051670900063405    0.4211868949683026    H842
    0.0270790685578205    0.7051670900063405    0.7545202283016359    H843
    0.0270790685578205    0.0385004233396737    0.0878535616349693    H844
    0.0270790685578205    0.0385004233396737    0.4211868949683026    H845
    0.0270790685578205    0.0385004233396737    0.7545202283016359    H846
    0.3604124018911538    0.3718337566730072    0.0878535616349693    H847
    0.3604124018911538    0.3718337566730072    0.4211868949683026    H848
    0.3604124018911538    0.3718337566730072    0.7545202283016359    H849
    0.3604124018911538    0.7051670900063405    0.0878535616349693    H850
    0.3604124018911538    0.7051670900063405    0.4211868949683026    H851
    0.3604124018911538    0.7051670900063405    0.7545202283016359    H852
    0.3604124018911538    0.0385004233396737    0.0878535616349693    H853
    0.3604124018911538    0.0385004233396737    0.4211868949683026    H854
    0.3604124018911538    0.0385004233396737    0.7545202283016359    H855
    0.6937457352244871    0.3718337566730072    0.0878535616349693    H856
    0.6937457352244871    0.3718337566730072    0.4211868949683026    H857
    0.6937457352244871    0.3718337566730072    0.7545202283016359    H858
    0.6937457352244871    0.7051670900063405    0.0878535616349693    H859
    0.6937457352244871    0.7051670900063405    0.4211868949683026    H860
    0.6937457352244871    0.7051670900063405    0.7545202283016359    H861
    0.6937457352244871    0.0385004233396737    0.0878535616349693    H862
    0.6937457352244871    0.0385004233396737    0.4211868949683026    H863
    0.6937457352244871    0.0385004233396737    0.7545202283016359    H864
    0.2396408263946678    0.3336171059530872    0.2281670250172025    H865
    0.2396408263946678    0.3336171059530872    0.5615003583505358    H866
    0.2396408263946678    0.3336171059530872    0.8948336916838692    H867
    0.2396408263946678    0.6669504392864205    0.2281670250172025    H868
    0.2396408263946678    0.6669504392864205    0.5615003583505358    H869
    0.2396408263946678    0.6669504392864205    0.8948336916838692    H870
    0.2396408263946678    0.0002837726197538    0.2281670250172025    H871
    0.2396408263946678    0.0002837726197538    0.5615003583505358    H872
    0.2396408263946678    0.0002837726197538    0.8948336916838692    H873
    0.5729741597280011    0.3336171059530872    0.2281670250172025    H874
    0.5729741597280011    0.3336171059530872    0.5615003583505358    H875
    0.5729741597280011    0.3336171059530872    0.8948336916838692    H876
    0.5729741597280011    0.6669504392864205    0.2281670250172025    H877
    0.5729741597280011    0.6669504392864205    0.5615003583505358    H878
    0.5729741597280011    0.6669504392864205    0.8948336916838692    H879
    0.5729741597280011    0.0002837726197538    0.2281670250172025    H880
    0.5729741597280011    0.0002837726197538    0.5615003583505358    H881
    0.5729741597280011    0.0002837726197538    0.8948336916838692    H882
    0.9063074930613345    0.3336171059530872    0.2281670250172025    H883
    0.9063074930613345    0.3336171059530872    0.5615003583505358    H884
    0.9063074930613345    0.3336171059530872    0.8948336916838692    H885
    0.9063074930613345    0.6669504392864205    0.2281670250172025    H886
    0.9063074930613345    0.6669504392864205    0.5615003583505358    H887
    0.9063074930613345    0.6669504392864205    0.8948336916838692    H888
    0.9063074930613345    0.0002837726197538    0.2281670250172025    H889
    0.9063074930613345    0.0002837726197538    0.5615003583505358    H890
    0.9063074930613345    0.0002837726197538    0.8948336916838692    H891
    0.3498814421366557    0.4309076559962475    0.1440680417002274    H892
    0.3498814421366557    0.4309076559962475    0.4774013750335607    H893
    0.3498814421366557    0.4309076559962475    0.8107347083668941    H894
    0.3498814421366557    0.7642409893295810    0.1440680417002274    H895
    0.3498814421366557    0.7642409893295810    0.4774013750335607    H896
    0.3498814421366557    0.7642409893295810    0.8107347083668941    H897
    0.3498814421366557    0.0975743226629142    0.1440680417002274    H898
    0.3498814421366557    0.0975743226629142    0.4774013750335607    H899
    0.3498814421366557    0.0975743226629142    0.8107347083668941    H900
    0.6832147754699891    0.4309076559962475    0.1440680417002274    H901
    0.6832147754699891    0.4309076559962475    0.4774013750335607    H902
    0.6832147754699891    0.4309076559962475    0.8107347083668941    H903
    0.6832147754699891    0.7642409893295810    0.1440680417002274    H904
    0.6832147754699891    0.7642409893295810    0.4774013750335607    H905
    0.6832147754699891    0.7642409893295810    0.8107347083668941    H906
    0.6832147754699891    0.0975743226629142    0.1440680417002274    H907
    0.6832147754699891    0.0975743226629142    0.4774013750335607    H908
    0.6832147754699891    0.0975743226629142    0.8107347083668941    H909
    0.0165481088033224    0.4309076559962475    0.1440680417002274    H910
    0.0165481088033224    0.4309076559962475    0.4774013750335607    H911
    0.0165481088033224    0.4309076559962475    0.8107347083668941    H912
    0.0165481088033224    0.7642409893295810    0.1440680417002274    H913
    0.0165481088033224    0.7642409893295810    0.4774013750335607    H914
    0.0165481088033224    0.7642409893295810    0.8107347083668941    H915
    0.0165481088033224    0.0975743226629142    0.1440680417002274    H916
    0.0165481088033224    0.0975743226629142    0.4774013750335607    H917
    0.0165481088033224    0.0975743226629142    0.8107347083668941    H918
    0.2933849851416372    0.3672504100676913    0.1505708190107852    H919
    0.2933849851416372    0.3672504100676913    0.4839041523441185    H920
    0.2933849851416372    0.3672504100676913    0.8172374856774518    H921
    0.2933849851416372    0.7005837434010245    0.1505708190107852    H922
    0.2933849851416372    0.7005837434010245    0.4839041523441185    H923
    0.2933849851416372    0.7005837434010245    0.8172374856774518    H924
    0.2933849851416372    0.0339170767343577    0.1505708190107852    H925
    0.2933849851416372    0.0339170767343577    0.4839041523441185    H926
    0.2933849851416372    0.0339170767343577    0.8172374856774518    H927
    0.6267183184749705    0.3672504100676913    0.1505708190107852    H928
    0.6267183184749705    0.3672504100676913    0.4839041523441185    H929
    0.6267183184749705    0.3672504100676913    0.8172374856774518    H930
    0.6267183184749705    0.7005837434010245    0.1505708190107852    H931
    0.6267183184749705    0.7005837434010245    0.4839041523441185    H932
    0.6267183184749705    0.7005837434010245    0.8172374856774518    H933
    0.6267183184749705    0.0339170767343577    0.1505708190107852    H934
    0.6267183184749705    0.0339170767343577    0.4839041523441185    H935
    0.6267183184749705    0.0339170767343577    0.8172374856774518    H936
    0.9600516518083039    0.3672504100676913    0.1505708190107852    H937
    0.9600516518083039    0.3672504100676913    0.4839041523441185    H938
    0.9600516518083039    0.3672504100676913    0.8172374856774518    H939
    0.9600516518083039    0.7005837434010245    0.1505708190107852    H940
    0.9600516518083039    0.7005837434010245    0.4839041523441185    H941
    0.9600516518083039    0.7005837434010245    0.8172374856774518    H942
    0.9600516518083039    0.0339170767343577    0.1505708190107852    H943
    0.9600516518083039    0.0339170767343577    0.4839041523441185    H944
    0.9600516518083039    0.0339170767343577    0.8172374856774518    H945
    0.2933382835003108    0.3896279021457740    0.1011567752150460    H946
    0.2933382835003108    0.3896279021457740    0.4344901085483793    H947
    0.2933382835003108    0.3896279021457740    0.7678234418817126    H948
    0.2933382835003108    0.7229612354791073    0.1011567752150460    H949
    0.2933382835003108    0.7229612354791073    0.4344901085483793    H950
    0.2933382835003108    0.7229612354791073    0.7678234418817126    H951
    0.2933382835003108    0.0562945688124405    0.1011567752150460    H952
    0.2933382835003108    0.0562945688124405    0.4344901085483793    H953
    0.2933382835003108    0.0562945688124405    0.7678234418817126    H954
    0.6266716168336441    0.3896279021457740    0.1011567752150460    H955
    0.6266716168336441    0.3896279021457740    0.4344901085483793    H956
    0.6266716168336441    0.3896279021457740    0.7678234418817126    H957
    0.6266716168336441    0.7229612354791073    0.1011567752150460    H958
    0.6266716168336441    0.7229612354791073    0.4344901085483793    H959
    0.6266716168336441    0.7229612354791073    0.7678234418817126    H960
    0.6266716168336441    0.0562945688124405    0.1011567752150460    H961
    0.6266716168336441    0.0562945688124405    0.4344901085483793    H962
    0.6266716168336441    0.0562945688124405    0.7678234418817126    H963
    0.9600049501669774    0.3896279021457740    0.1011567752150460    H964
    0.9600049501669774    0.3896279021457740    0.4344901085483793    H965
    0.9600049501669774    0.3896279021457740    0.7678234418817126    H966
    0.9600049501669774    0.7229612354791073    0.1011567752150460    H967
    0.9600049501669774    0.7229612354791073    0.4344901085483793    H968
    0.9600049501669774    0.7229612354791073    0.7678234418817126    H969
    0.9600049501669774    0.0562945688124405    0.1011567752150460    H970
    0.9600049501669774    0.0562945688124405    0.4344901085483793    H971
    0.9600049501669774    0.0562945688124405    0.7678234418817126    H972
    0.0490272704065346    0.3468511915428899    0.1110152544265251    H973
    0.0490272704065346    0.3468511915428899    0.4443485877598584    H974
    0.0490272704065346    0.3468511915428899    0.7776819210931918    H975
    0.0490272704065346    0.6801845248762233    0.1110152544265251    H976
    0.0490272704065346    0.6801845248762233    0.4443485877598584    H977
    0.0490272704065346    0.6801845248762233    0.7776819210931918    H978
    0.0490272704065346    0.0135178582095565    0.1110152544265251    H979
    0.0490272704065346    0.0135178582095565    0.4443485877598584    H980
    0.0490272704065346    0.0135178582095565    0.7776819210931918    H981
    0.3823606037398679    0.3468511915428899    0.1110152544265251    H982
    0.3823606037398679    0.3468511915428899    0.4443485877598584    H983
    0.3823606037398679    0.3468511915428899    0.7776819210931918    H984
    0.3823606037398679    0.6801845248762233    0.1110152544265251    H985
    0.3823606037398679    0.6801845248762233    0.4443485877598584    H986
    0.3823606037398679    0.6801845248762233    0.7776819210931918    H987
    0.3823606037398679    0.0135178582095565    0.1110152544265251    H988
    0.3823606037398679    0.0135178582095565    0.4443485877598584    H989
    0.3823606037398679    0.0135178582095565    0.7776819210931918    H990
    0.7156939370732013    0.3468511915428899    0.1110152544265251    H991
    0.7156939370732013    0.3468511915428899    0.4443485877598584    H992
    0.7156939370732013    0.3468511915428899    0.7776819210931918    H993
    0.7156939370732013    0.6801845248762233    0.1110152544265251    H994
    0.7156939370732013    0.6801845248762233    0.4443485877598584    H995
    0.7156939370732013    0.6801845248762233    0.7776819210931918    H996
    0.7156939370732013    0.0135178582095565    0.1110152544265251    H997
    0.7156939370732013    0.0135178582095565    0.4443485877598584    H998
    0.7156939370732013    0.0135178582095565    0.7776819210931918    H999
    0.3743306431311818    0.4425752323398642    0.1952898382736103   H1000
    0.3743306431311818    0.4425752323398642    0.5286231716069436   H1001
    0.3743306431311818    0.4425752323398642    0.8619565049402770   H1002
    0.3743306431311818    0.7759085656731974    0.1952898382736103   H1003
    0.3743306431311818    0.7759085656731974    0.5286231716069436   H1004
    0.3743306431311818    0.7759085656731974    0.8619565049402770   H1005
    0.3743306431311818    0.1092418990065307    0.1952898382736103   H1006
    0.3743306431311818    0.1092418990065307    0.5286231716069436   H1007
    0.3743306431311818    0.1092418990065307    0.8619565049402770   H1008
    0.7076639764645150    0.4425752323398642    0.1952898382736103   H1009
    0.7076639764645150    0.4425752323398642    0.5286231716069436   H1010
    0.7076639764645150    0.4425752323398642    0.8619565049402770   H1011
    0.7076639764645150    0.7759085656731974    0.1952898382736103   H1012
    0.7076639764645150    0.7759085656731974    0.5286231716069436   H1013
    0.7076639764645150    0.7759085656731974    0.8619565049402770   H1014
    0.7076639764645150    0.1092418990065307    0.1952898382736103   H1015
    0.7076639764645150    0.1092418990065307    0.5286231716069436   H1016
    0.7076639764645150    0.1092418990065307    0.8619565049402770   H1017
    0.0409973097978482    0.4425752323398642    0.1952898382736103   H1018
    0.0409973097978482    0.4425752323398642    0.5286231716069436   H1019
    0.0409973097978482    0.4425752323398642    0.8619565049402770   H1020
    0.0409973097978482    0.7759085656731974    0.1952898382736103   H1021
    0.0409973097978482    0.7759085656731974    0.5286231716069436   H1022
    0.0409973097978482    0.7759085656731974    0.8619565049402770   H1023
    0.0409973097978482    0.1092418990065307    0.1952898382736103   H1024
    0.0409973097978482    0.1092418990065307    0.5286231716069436   H1025
    0.0409973097978482    0.1092418990065307    0.8619565049402770   H1026
    0.3206560805866266    0.3538364550784113    0.0972260729219046   H1027
    0.3206560805866266    0.3538364550784113    0.4305594062552379   H1028
    0.3206560805866266    0.3538364550784113    0.7638927395885713   H1029
    0.3206560805866266    0.6871697884117447    0.0972260729219046   H1030
    0.3206560805866266    0.6871697884117447    0.4305594062552379   H1031
    0.3206560805866266    0.6871697884117447    0.7638927395885713   H1032
    0.3206560805866266    0.0205031217450780    0.0972260729219046   H1033
    0.3206560805866266    0.0205031217450780    0.4305594062552379   H1034
    0.3206560805866266    0.0205031217450780    0.7638927395885713   H1035
    0.6539894139199599    0.3538364550784113    0.0972260729219046   H1036
    0.6539894139199599    0.3538364550784113    0.4305594062552379   H1037
    0.6539894139199599    0.3538364550784113    0.7638927395885713   H1038
    0.6539894139199599    0.6871697884117447    0.0972260729219046   H1039
    0.6539894139199599    0.6871697884117447    0.4305594062552379   H1040
    0.6539894139199599    0.6871697884117447    0.7638927395885713   H1041
    0.6539894139199599    0.0205031217450780    0.0972260729219046   H1042
    0.6539894139199599    0.0205031217450780    0.4305594062552379   H1043
    0.6539894139199599    0.0205031217450780    0.7638927395885713   H1044
    0.9873227472532933    0.3538364550784113    0.0972260729219046   H1045
    0.9873227472532933    0.3538364550784113    0.4305594062552379   H1046
    0.9873227472532933    0.3538364550784113    0.7638927395885713   H1047
    0.9873227472532933    0.6871697884117447    0.0972260729219046   H1048
    0.9873227472532933    0.6871697884117447    0.4305594062552379   H1049
    0.9873227472532933    0.6871697884117447    0.7638927395885713   H1050
    0.9873227472532933    0.0205031217450780    0.0972260729219046   H1051
    0.9873227472532933    0.0205031217450780    0.4305594062552379   H1052
    0.9873227472532933    0.0205031217450780    0.7638927395885713   H1053
    0.9807125607117023    0.1648755406474898    0.9656382309981419   H1054
    0.9807125607117023    0.1648755406474898    0.2989715643314753   H1055
    0.9807125607117023    0.1648755406474898    0.6323048976648086   H1056
    0.9807125607117023    0.4982088739808231    0.9656382309981419   H1057
    0.9807125607117023    0.4982088739808231    0.2989715643314753   H1058
    0.9807125607117023    0.4982088739808231    0.6323048976648086   H1059
    0.9807125607117023    0.8315422073141564    0.9656382309981419   H1060
    0.9807125607117023    0.8315422073141564    0.2989715643314753   H1061
    0.9807125607117023    0.8315422073141564    0.6323048976648086   H1062
    0.3140458940450357    0.1648755406474898    0.9656382309981419   H1063
    0.3140458940450357    0.1648755406474898    0.2989715643314753   H1064
    0.3140458940450357    0.1648755406474898    0.6323048976648086   H1065
    0.3140458940450357    0.4982088739808231    0.9656382309981419   H1066
    0.3140458940450357    0.4982088739808231    0.2989715643314753   H1067
    0.3140458940450357    0.4982088739808231    0.6323048976648086   H1068
    0.3140458940450357    0.8315422073141564    0.9656382309981419   H1069
    0.3140458940450357    0.8315422073141564    0.2989715643314753   H1070
    0.3140458940450357    0.8315422073141564    0.6323048976648086   H1071
    0.6473792273783689    0.1648755406474898    0.9656382309981419   H1072
    0.6473792273783689    0.1648755406474898    0.2989715643314753   H1073
    0.6473792273783689    0.1648755406474898    0.6323048976648086   H1074
    0.6473792273783689    0.4982088739808231    0.9656382309981419   H1075
    0.6473792273783689    0.4982088739808231    0.2989715643314753   H1076
    0.6473792273783689    0.4982088739808231    0.6323048976648086   H1077
    0.6473792273783689    0.8315422073141564    0.9656382309981419   H1078
    0.6473792273783689    0.8315422073141564    0.2989715643314753   H1079
    0.6473792273783689    0.8315422073141564    0.6323048976648086   H1080
    0.3773382735266916    0.5123896885702517    0.2161956312154265   H1081
    0.3773382735266916    0.5123896885702517    0.5495289645487598   H1082
    0.3773382735266916    0.5123896885702517    0.8828622978820931   H1083
    0.3773382735266916    0.8457230219035849    0.2161956312154265   H1084
    0.3773382735266916    0.8457230219035849    0.5495289645487598   H1085
    0.3773382735266916    0.8457230219035849    0.8828622978820931   H1086
    0.3773382735266916    0.1790563552369182    0.2161956312154265   H1087
    0.3773382735266916    0.1790563552369182    0.5495289645487598   H1088
    0.3773382735266916    0.1790563552369182    0.8828622978820931   H1089
    0.7106716068600250    0.5123896885702517    0.2161956312154265   H1090
    0.7106716068600250    0.5123896885702517    0.5495289645487598   H1091
    0.7106716068600250    0.5123896885702517    0.8828622978820931   H1092
    0.7106716068600250    0.8457230219035849    0.2161956312154265   H1093
    0.7106716068600250    0.8457230219035849    0.5495289645487598   H1094
    0.7106716068600250    0.8457230219035849    0.8828622978820931   H1095
    0.7106716068600250    0.1790563552369182    0.2161956312154265   H1096
    0.7106716068600250    0.1790563552369182    0.5495289645487598   H1097
    0.7106716068600250    0.1790563552369182    0.8828622978820931   H1098
    0.0440049401933582    0.5123896885702517    0.2161956312154265   H1099
    0.0440049401933582    0.5123896885702517    0.5495289645487598   H1100
    0.0440049401933582    0.5123896885702517    0.8828622978820931   H1101
    0.0440049401933582    0.8457230219035849    0.2161956312154265   H1102
    0.0440049401933582    0.8457230219035849    0.5495289645487598   H1103
    0.0440049401933582    0.8457230219035849    0.8828622978820931   H1104
    0.0440049401933582    0.1790563552369182    0.2161956312154265   H1105
    0.0440049401933582    0.1790563552369182    0.5495289645487598   H1106
    0.0440049401933582    0.1790563552369182    0.8828622978820931   H1107
    0.2497511532927014    0.4294039954201879    0.3823663439705878   H1108
    0.2497511532927014    0.4294039954201879    0.7156996773039213   H1109
    0.2497511532927014    0.4294039954201879    0.0490330106372545   H1110
    0.2497511532927014    0.7627373287535213    0.3823663439705878   H1111
    0.2497511532927014    0.7627373287535213    0.7156996773039213   H1112
    0.2497511532927014    0.7627373287535213    0.0490330106372545   H1113
    0.2497511532927014    0.0960706620868546    0.3823663439705878   H1114
    0.2497511532927014    0.0960706620868546    0.7156996773039213   H1115
    0.2497511532927014    0.0960706620868546    0.0490330106372545   H1116
    0.5830844866260347    0.4294039954201879    0.3823663439705878   H1117
    0.5830844866260347    0.4294039954201879    0.7156996773039213   H1118
    0.5830844866260347    0.4294039954201879    0.0490330106372545   H1119
    0.5830844866260347    0.7627373287535213    0.3823663439705878   H1120
    0.5830844866260347    0.7627373287535213    0.7156996773039213   H1121
    0.5830844866260347    0.7627373287535213    0.0490330106372545   H1122
    0.5830844866260347    0.0960706620868546    0.3823663439705878   H1123
    0.5830844866260347    0.0960706620868546    0.7156996773039213   H1124
    0.5830844866260347    0.0960706620868546    0.0490330106372545   H1125
    0.9164178199593681    0.4294039954201879    0.3823663439705878   H1126
    0.9164178199593681    0.4294039954201879    0.7156996773039213   H1127
    0.9164178199593681    0.4294039954201879    0.0490330106372545   H1128
    0.9164178199593681    0.7627373287535213    0.3823663439705878   H1129
    0.9164178199593681    0.7627373287535213    0.7156996773039213   H1130
    0.9164178199593681    0.7627373287535213    0.0490330106372545   H1131
    0.9164178199593681    0.0960706620868546    0.3823663439705878   H1132
    0.9164178199593681    0.0960706620868546    0.7156996773039213   H1133
    0.9164178199593681    0.0960706620868546    0.0490330106372545   H1134
    0.3149307328272873    0.4444423806537914    0.1421062035595689   H1135
    0.3149307328272873    0.4444423806537914    0.4754395368929022   H1136
    0.3149307328272873    0.4444423806537914    0.8087728702262356   H1137
    0.3149307328272873    0.7777757139871248    0.1421062035595689   H1138
    0.3149307328272873    0.7777757139871248    0.4754395368929022   H1139
    0.3149307328272873    0.7777757139871248    0.8087728702262356   H1140
    0.3149307328272873    0.1111090473204581    0.1421062035595689   H1141
    0.3149307328272873    0.1111090473204581    0.4754395368929022   H1142
    0.3149307328272873    0.1111090473204581    0.8087728702262356   H1143
    0.6482640661606207    0.4444423806537914    0.1421062035595689   H1144
    0.6482640661606207    0.4444423806537914    0.4754395368929022   H1145
    0.6482640661606207    0.4444423806537914    0.8087728702262356   H1146
    0.6482640661606207    0.7777757139871248    0.1421062035595689   H1147
    0.6482640661606207    0.7777757139871248    0.4754395368929022   H1148
    0.6482640661606207    0.7777757139871248    0.8087728702262356   H1149
    0.6482640661606207    0.1111090473204581    0.1421062035595689   H1150
    0.6482640661606207    0.1111090473204581    0.4754395368929022   H1151
    0.6482640661606207    0.1111090473204581    0.8087728702262356   H1152
    0.9815973994939540    0.4444423806537914    0.1421062035595689   H1153
    0.9815973994939540    0.4444423806537914    0.4754395368929022   H1154
    0.9815973994939540    0.4444423806537914    0.8087728702262356   H1155
    0.9815973994939540    0.7777757139871248    0.1421062035595689   H1156
    0.9815973994939540    0.7777757139871248    0.4754395368929022   H1157
    0.9815973994939540    0.7777757139871248    0.8087728702262356   H1158
    0.9815973994939540    0.1111090473204581    0.1421062035595689   H1159
    0.9815973994939540    0.1111090473204581    0.4754395368929022   H1160
    0.9815973994939540    0.1111090473204581    0.8087728702262356   H1161
    0.2609386370249280    0.3469158355966314    0.0479651613959522   H1162
    0.2609386370249280    0.3469158355966314    0.3812984947292855   H1163
    0.2609386370249280    0.3469158355966314    0.7146318280626188   H1164
    0.2609386370249280    0.6802491689299647    0.0479651613959522   H1165
    0.2609386370249280    0.6802491689299647    0.3812984947292855   H1166
    0.2609386370249280    0.6802491689299647    0.7146318280626188   H1167
    0.2609386370249280    0.0135825022632980    0.0479651613959522   H1168
    0.2609386370249280    0.0135825022632980    0.3812984947292855   H1169
    0.2609386370249280    0.0135825022632980    0.7146318280626188   H1170
    0.5942719703582613    0.3469158355966314    0.0479651613959522   H1171
    0.5942719703582613    0.3469158355966314    0.3812984947292855   H1172
    0.5942719703582613    0.3469158355966314    0.7146318280626188   H1173
    0.5942719703582613    0.6802491689299647    0.0479651613959522   H1174
    0.5942719703582613    0.6802491689299647    0.3812984947292855   H1175
    0.5942719703582613    0.6802491689299647    0.7146318280626188   H1176
    0.5942719703582613    0.0135825022632980    0.0479651613959522   H1177
    0.5942719703582613    0.0135825022632980    0.3812984947292855   H1178
    0.5942719703582613    0.0135825022632980    0.7146318280626188   H1179
    0.9276053036915946    0.3469158355966314    0.0479651613959522   H1180
    0.9276053036915946    0.3469158355966314    0.3812984947292855   H1181
    0.9276053036915946    0.3469158355966314    0.7146318280626188   H1182
    0.9276053036915946    0.6802491689299647    0.0479651613959522   H1183
    0.9276053036915946    0.6802491689299647    0.3812984947292855   H1184
    0.9276053036915946    0.6802491689299647    0.7146318280626188   H1185
    0.9276053036915946    0.0135825022632980    0.0479651613959522   H1186
    0.9276053036915946    0.0135825022632980    0.3812984947292855   H1187
    0.9276053036915946    0.0135825022632980    0.7146318280626188   H1188
    0.2472449617205098    0.4706014858573951    0.4736930548902382   H1189
    0.2472449617205098    0.4706014858573951    0.8070263882235715   H1190
    0.2472449617205098    0.4706014858573951    0.1403597215569048   H1191
    0.2472449617205098    0.8039348191907285    0.4736930548902382   H1192
    0.2472449617205098    0.8039348191907285    0.8070263882235715   H1193
    0.2472449617205098    0.8039348191907285    0.1403597215569048   H1194
    0.2472449617205098    0.1372681525240618    0.4736930548902382   H1195
    0.2472449617205098    0.1372681525240618    0.8070263882235715   H1196
    0.2472449617205098    0.1372681525240618    0.1403597215569048   H1197
    0.5805782950538432    0.4706014858573951    0.4736930548902382   H1198
    0.5805782950538432    0.4706014858573951    0.8070263882235715   H1199
    0.5805782950538432    0.4706014858573951    0.1403597215569048   H1200
    0.5805782950538432    0.8039348191907285    0.4736930548902382   H1201
    0.5805782950538432    0.8039348191907285    0.8070263882235715   H1202
    0.5805782950538432    0.8039348191907285    0.1403597215569048   H1203
    0.5805782950538432    0.1372681525240618    0.4736930548902382   H1204
    0.5805782950538432    0.1372681525240618    0.8070263882235715   H1205
    0.5805782950538432    0.1372681525240618    0.1403597215569048   H1206
    0.9139116283871764    0.4706014858573951    0.4736930548902382   H1207
    0.9139116283871764    0.4706014858573951    0.8070263882235715   H1208
    0.9139116283871764    0.4706014858573951    0.1403597215569048   H1209
    0.9139116283871764    0.8039348191907285    0.4736930548902382   H1210
    0.9139116283871764    0.8039348191907285    0.8070263882235715   H1211
    0.9139116283871764    0.8039348191907285    0.1403597215569048   H1212
    0.9139116283871764    0.1372681525240618    0.4736930548902382   H1213
    0.9139116283871764    0.1372681525240618    0.8070263882235715   H1214
    0.9139116283871764    0.1372681525240618    0.1403597215569048   H1215
    0.1846202058575511    0.1450284472564217    0.5171896551296591   H1216
    0.1846202058575511    0.1450284472564217    0.8505229884629923   H1217
    0.1846202058575511    0.1450284472564217    0.1838563217963256   H1218
    0.1846202058575511    0.4783617805897551    0.5171896551296591   H1219
    0.1846202058575511    0.4783617805897551    0.8505229884629923   H1220
    0.1846202058575511    0.4783617805897551    0.1838563217963256   H1221
    0.1846202058575511    0.8116951139230884    0.5171896551296591   H1222
    0.1846202058575511    0.8116951139230884    0.8505229884629923   H1223
    0.1846202058575511    0.8116951139230884    0.1838563217963256   H1224
    0.5179535391908844    0.1450284472564217    0.5171896551296591   H1225
    0.5179535391908844    0.1450284472564217    0.8505229884629923   H1226
    0.5179535391908844    0.1450284472564217    0.1838563217963256   H1227
    0.5179535391908844    0.4783617805897551    0.5171896551296591   H1228
    0.5179535391908844    0.4783617805897551    0.8505229884629923   H1229
    0.5179535391908844    0.4783617805897551    0.1838563217963256   H1230
    0.5179535391908844    0.8116951139230884    0.5171896551296591   H1231
    0.5179535391908844    0.8116951139230884    0.8505229884629923   H1232
    0.5179535391908844    0.8116951139230884    0.1838563217963256   H1233
    0.8512868725242178    0.1450284472564217    0.5171896551296591   H1234
    0.8512868725242178    0.1450284472564217    0.8505229884629923   H1235
    0.8512868725242178    0.1450284472564217    0.1838563217963256   H1236
    0.8512868725242178    0.4783617805897551    0.5171896551296591   H1237
    0.8512868725242178    0.4783617805897551    0.8505229884629923   H1238
    0.8512868725242178    0.4783617805897551    0.1838563217963256   H1239
    0.8512868725242178    0.8116951139230884    0.5171896551296591   H1240
    0.8512868725242178    0.8116951139230884    0.8505229884629923   H1241
    0.8512868725242178    0.8116951139230884    0.1838563217963256   H1242
    0.2432927642059626    0.2637919559328587    0.1822957900803908   H1243
    0.2432927642059626    0.2637919559328587    0.5156291234137241   H1244
    0.2432927642059626    0.2637919559328587    0.8489624567470575   H1245
    0.2432927642059626    0.5971252892661920    0.1822957900803908   H1246
    0.2432927642059626    0.5971252892661920    0.5156291234137241   H1247
    0.2432927642059626    0.5971252892661920    0.8489624567470575   H1248
    0.2432927642059626    0.9304586225995253    0.1822957900803908   H1249
    0.2432927642059626    0.9304586225995253    0.5156291234137241   H1250
    0.2432927642059626    0.9304586225995253    0.8489624567470575   H1251
    0.5766260975392959    0.2637919559328587    0.1822957900803908   H1252
    0.5766260975392959    0.2637919559328587    0.5156291234137241   H1253
    0.5766260975392959    0.2637919559328587    0.8489624567470575   H1254
    0.5766260975392959    0.5971252892661920    0.1822957900803908   H1255
    0.5766260975392959    0.5971252892661920    0.5156291234137241   H1256
    0.5766260975392959    0.5971252892661920    0.8489624567470575   H1257
    0.5766260975392959    0.9304586225995253    0.1822957900803908   H1258
    0.5766260975392959    0.9304586225995253    0.5156291234137241   H1259
    0.5766260975392959    0.9304586225995253    0.8489624567470575   H1260
    0.9099594308726293    0.2637919559328587    0.1822957900803908   H1261
    0.9099594308726293    0.2637919559328587    0.5156291234137241   H1262
    0.9099594308726293    0.2637919559328587    0.8489624567470575   H1263
    0.9099594308726293    0.5971252892661920    0.1822957900803908   H1264
    0.9099594308726293    0.5971252892661920    0.5156291234137241   H1265
    0.9099594308726293    0.5971252892661920    0.8489624567470575   H1266
    0.9099594308726293    0.9304586225995253    0.1822957900803908   H1267
    0.9099594308726293    0.9304586225995253    0.5156291234137241   H1268
    0.9099594308726293    0.9304586225995253    0.8489624567470575   H1269
    0.1409960522601910    0.1665788061164735    0.4595775721172153   H1270
    0.1409960522601910    0.1665788061164735    0.7929109054505485   H1271
    0.1409960522601910    0.1665788061164735    0.1262442387838818   H1272
    0.1409960522601910    0.4999121394498068    0.4595775721172153   H1273
    0.1409960522601910    0.4999121394498068    0.7929109054505485   H1274
    0.1409960522601910    0.4999121394498068    0.1262442387838818   H1275
    0.1409960522601910    0.8332454727831402    0.4595775721172153   H1276
    0.1409960522601910    0.8332454727831402    0.7929109054505485   H1277
    0.1409960522601910    0.8332454727831402    0.1262442387838818   H1278
    0.4743293855935243    0.1665788061164735    0.4595775721172153   H1279
    0.4743293855935243    0.1665788061164735    0.7929109054505485   H1280
    0.4743293855935243    0.1665788061164735    0.1262442387838818   H1281
    0.4743293855935243    0.4999121394498068    0.4595775721172153   H1282
    0.4743293855935243    0.4999121394498068    0.7929109054505485   H1283
    0.4743293855935243    0.4999121394498068    0.1262442387838818   H1284
    0.4743293855935243    0.8332454727831402    0.4595775721172153   H1285
    0.4743293855935243    0.8332454727831402    0.7929109054505485   H1286
    0.4743293855935243    0.8332454727831402    0.1262442387838818   H1287
    0.8076627189268577    0.1665788061164735    0.4595775721172153   H1288
    0.8076627189268577    0.1665788061164735    0.7929109054505485   H1289
    0.8076627189268577    0.1665788061164735    0.1262442387838818   H1290
    0.8076627189268577    0.4999121394498068    0.4595775721172153   H1291
    0.8076627189268577    0.4999121394498068    0.7929109054505485   H1292
    0.8076627189268577    0.4999121394498068    0.1262442387838818   H1293
    0.8076627189268577    0.8332454727831402    0.4595775721172153   H1294
    0.8076627189268577    0.8332454727831402    0.7929109054505485   H1295
    0.8076627189268577    0.8332454727831402    0.1262442387838818   H1296
    0.2360715238065541    0.1387445001566018    0.5283133439136499   H1297
    0.2360715238065541    0.1387445001566018    0.8616466772469833   H1298
    0.2360715238065541    0.1387445001566018    0.1949800105803166   H1299
    0.2360715238065541    0.4720778334899352    0.5283133439136499   H1300
    0.2360715238065541    0.4720778334899352    0.8616466772469833   H1301
    0.2360715238065541    0.4720778334899352    0.1949800105803166   H1302
    0.2360715238065541    0.8054111668232685    0.5283133439136499   H1303
    0.2360715238065541    0.8054111668232685    0.8616466772469833   H1304
    0.2360715238065541    0.8054111668232685    0.1949800105803166   H1305
    0.5694048571398874    0.1387445001566018    0.5283133439136499   H1306
    0.5694048571398874    0.1387445001566018    0.8616466772469833   H1307
    0.5694048571398874    0.1387445001566018    0.1949800105803166   H1308
    0.5694048571398874    0.4720778334899352    0.5283133439136499   H1309
    0.5694048571398874    0.4720778334899352    0.8616466772469833   H1310
    0.5694048571398874    0.4720778334899352    0.1949800105803166   H1311
    0.5694048571398874    0.8054111668232685    0.5283133439136499   H1312
    0.5694048571398874    0.8054111668232685    0.8616466772469833   H1313
    0.5694048571398874    0.8054111668232685    0.1949800105803166   H1314
    0.9027381904732208    0.1387445001566018    0.5283133439136499   H1315
    0.9027381904732208    0.1387445001566018    0.8616466772469833   H1316
    0.9027381904732208    0.1387445001566018    0.1949800105803166   H1317
    0.9027381904732208    0.4720778334899352    0.5283133439136499   H1318
    0.9027381904732208    0.4720778334899352    0.8616466772469833   H1319
    0.9027381904732208    0.4720778334899352    0.1949800105803166   H1320
    0.9027381904732208    0.8054111668232685    0.5283133439136499   H1321
    0.9027381904732208    0.8054111668232685    0.8616466772469833   H1322
    0.9027381904732208    0.8054111668232685    0.1949800105803166   H1323
    0.2152952543764204    0.0685222680497060    0.4107032169102123   H1324
    0.2152952543764204    0.0685222680497060    0.7440365502435455   H1325
    0.2152952543764204    0.0685222680497060    0.0773698835768788   H1326
    0.2152952543764204    0.4018556013830393    0.4107032169102123   H1327
    0.2152952543764204    0.4018556013830393    0.7440365502435455   H1328
    0.2152952543764204    0.4018556013830393    0.0773698835768788   H1329
    0.2152952543764204    0.7351889347163727    0.4107032169102123   H1330
    0.2152952543764204    0.7351889347163727    0.7440365502435455   H1331
    0.2152952543764204    0.7351889347163727    0.0773698835768788   H1332
    0.5486285877097538    0.0685222680497060    0.4107032169102123   H1333
    0.5486285877097538    0.0685222680497060    0.7440365502435455   H1334
    0.5486285877097538    0.0685222680497060    0.0773698835768788   H1335
    0.5486285877097538    0.4018556013830393    0.4107032169102123   H1336
    0.5486285877097538    0.4018556013830393    0.7440365502435455   H1337
    0.5486285877097538    0.4018556013830393    0.0773698835768788   H1338
    0.5486285877097538    0.7351889347163727    0.4107032169102123   H1339
    0.5486285877097538    0.7351889347163727    0.7440365502435455   H1340
    0.5486285877097538    0.7351889347163727    0.0773698835768788   H1341
    0.8819619210430871    0.0685222680497060    0.4107032169102123   H1342
    0.8819619210430871    0.0685222680497060    0.7440365502435455   H1343
    0.8819619210430871    0.0685222680497060    0.0773698835768788   H1344
    0.8819619210430871    0.4018556013830393    0.4107032169102123   H1345
    0.8819619210430871    0.4018556013830393    0.7440365502435455   H1346
    0.8819619210430871    0.4018556013830393    0.0773698835768788   H1347
    0.8819619210430871    0.7351889347163727    0.4107032169102123   H1348
    0.8819619210430871    0.7351889347163727    0.7440365502435455   H1349
    0.8819619210430871    0.7351889347163727    0.0773698835768788   H1350
    0.3625580098567845    0.5198785197858312    0.1802254795232477   H1351
    0.3625580098567845    0.5198785197858312    0.5135588128565810   H1352
    0.3625580098567845    0.5198785197858312    0.8468921461899144   H1353
    0.3625580098567845    0.8532118531191646    0.1802254795232477   H1354
    0.3625580098567845    0.8532118531191646    0.5135588128565810   H1355
    0.3625580098567845    0.8532118531191646    0.8468921461899144   H1356
    0.3625580098567845    0.1865451864524978    0.1802254795232477   H1357
    0.3625580098567845    0.1865451864524978    0.5135588128565810   H1358
    0.3625580098567845    0.1865451864524978    0.8468921461899144   H1359
    0.6958913431901179    0.5198785197858312    0.1802254795232477   H1360
    0.6958913431901179    0.5198785197858312    0.5135588128565810   H1361
    0.6958913431901179    0.5198785197858312    0.8468921461899144   H1362
    0.6958913431901179    0.8532118531191646    0.1802254795232477   H1363
    0.6958913431901179    0.8532118531191646    0.5135588128565810   H1364
    0.6958913431901179    0.8532118531191646    0.8468921461899144   H1365
    0.6958913431901179    0.1865451864524978    0.1802254795232477   H1366
    0.6958913431901179    0.1865451864524978    0.5135588128565810   H1367
    0.6958913431901179    0.1865451864524978    0.8468921461899144   H1368
    0.0292246765234512    0.5198785197858312    0.1802254795232477   H1369
    0.0292246765234512    0.5198785197858312    0.5135588128565810   H1370
    0.0292246765234512    0.5198785197858312    0.8468921461899144   H1371
    0.0292246765234512    0.8532118531191646    0.1802254795232477   H1372
    0.0292246765234512    0.8532118531191646    0.5135588128565810   H1373
    0.0292246765234512    0.8532118531191646    0.8468921461899144   H1374
    0.0292246765234512    0.1865451864524978    0.1802254795232477   H1375
    0.0292246765234512    0.1865451864524978    0.5135588128565810   H1376
    0.0292246765234512    0.1865451864524978    0.8468921461899144   H1377
    0.1524594841789292    0.4072517263050209    0.4416093858395891   H1378
    0.1524594841789292    0.4072517263050209    0.7749427191729223   H1379
    0.1524594841789292    0.4072517263050209    0.1082760525062556   H1380
    0.1524594841789292    0.7405850596383542    0.4416093858395891   H1381
    0.1524594841789292    0.7405850596383542    0.7749427191729223   H1382
    0.1524594841789292    0.7405850596383542    0.1082760525062556   H1383
    0.1524594841789292    0.0739183929716876    0.4416093858395891   H1384
    0.1524594841789292    0.0739183929716876    0.7749427191729223   H1385
    0.1524594841789292    0.0739183929716876    0.1082760525062556   H1386
    0.4857928175122626    0.4072517263050209    0.4416093858395891   H1387
    0.4857928175122626    0.4072517263050209    0.7749427191729223   H1388
    0.4857928175122626    0.4072517263050209    0.1082760525062556   H1389
    0.4857928175122626    0.7405850596383542    0.4416093858395891   H1390
    0.4857928175122626    0.7405850596383542    0.7749427191729223   H1391
    0.4857928175122626    0.7405850596383542    0.1082760525062556   H1392
    0.4857928175122626    0.0739183929716876    0.4416093858395891   H1393
    0.4857928175122626    0.0739183929716876    0.7749427191729223   H1394
    0.4857928175122626    0.0739183929716876    0.1082760525062556   H1395
    0.8191261508455959    0.4072517263050209    0.4416093858395891   H1396
    0.8191261508455959    0.4072517263050209    0.7749427191729223   H1397
    0.8191261508455959    0.4072517263050209    0.1082760525062556   H1398
    0.8191261508455959    0.7405850596383542    0.4416093858395891   H1399
    0.8191261508455959    0.7405850596383542    0.7749427191729223   H1400
    0.8191261508455959    0.7405850596383542    0.1082760525062556   H1401
    0.8191261508455959    0.0739183929716876    0.4416093858395891   H1402
    0.8191261508455959    0.0739183929716876    0.7749427191729223   H1403
    0.8191261508455959    0.0739183929716876    0.1082760525062556   H1404
    0.2812082063841809    0.2995115902945706    0.1597587606400687   H1405
    0.2812082063841809    0.2995115902945706    0.4930920939734020   H1406
    0.2812082063841809    0.2995115902945706    0.8264254273067353   H1407
    0.2812082063841809    0.6328449236279040    0.1597587606400687   H1408
    0.2812082063841809    0.6328449236279040    0.4930920939734020   H1409
    0.2812082063841809    0.6328449236279040    0.8264254273067353   H1410
    0.2812082063841809    0.9661782569612374    0.1597587606400687   H1411
    0.2812082063841809    0.9661782569612374    0.4930920939734020   H1412
    0.2812082063841809    0.9661782569612374    0.8264254273067353   H1413
    0.6145415397175142    0.2995115902945706    0.1597587606400687   H1414
    0.6145415397175142    0.2995115902945706    0.4930920939734020   H1415
    0.6145415397175142    0.2995115902945706    0.8264254273067353   H1416
    0.6145415397175142    0.6328449236279040    0.1597587606400687   H1417
    0.6145415397175142    0.6328449236279040    0.4930920939734020   H1418
    0.6145415397175142    0.6328449236279040    0.8264254273067353   H1419
    0.6145415397175142    0.9661782569612374    0.1597587606400687   H1420
    0.6145415397175142    0.9661782569612374    0.4930920939734020   H1421
    0.6145415397175142    0.9661782569612374    0.8264254273067353   H1422
    0.9478748730508475    0.2995115902945706    0.1597587606400687   H1423
    0.9478748730508475    0.2995115902945706    0.4930920939734020   H1424
    0.9478748730508475    0.2995115902945706    0.8264254273067353   H1425
    0.9478748730508475    0.6328449236279040    0.1597587606400687   H1426
    0.9478748730508475    0.6328449236279040    0.4930920939734020   H1427
    0.9478748730508475    0.6328449236279040    0.8264254273067353   H1428
    0.9478748730508475    0.9661782569612374    0.1597587606400687   H1429
    0.9478748730508475    0.9661782569612374    0.4930920939734020   H1430
    0.9478748730508475    0.9661782569612374    0.8264254273067353   H1431
    0.1719265669559250    0.1043397544195253    0.5252575453513508   H1432
    0.1719265669559250    0.1043397544195253    0.8585908786846842   H1433
    0.1719265669559250    0.1043397544195253    0.1919242120180176   H1434
    0.1719265669559250    0.4376730877528586    0.5252575453513508   H1435
    0.1719265669559250    0.4376730877528586    0.8585908786846842   H1436
    0.1719265669559250    0.4376730877528586    0.1919242120180176   H1437
    0.1719265669559250    0.7710064210861920    0.5252575453513508   H1438
    0.1719265669559250    0.7710064210861920    0.8585908786846842   H1439
    0.1719265669559250    0.7710064210861920    0.1919242120180176   H1440
    0.5052599002892583    0.1043397544195253    0.5252575453513508   H1441
    0.5052599002892583    0.1043397544195253    0.8585908786846842   H1442
    0.5052599002892583    0.1043397544195253    0.1919242120180176   H1443
    0.5052599002892583    0.4376730877528586    0.5252575453513508   H1444
    0.5052599002892583    0.4376730877528586    0.8585908786846842   H1445
    0.5052599002892583    0.4376730877528586    0.1919242120180176   H1446
    0.5052599002892583    0.7710064210861920    0.5252575453513508   H1447
    0.5052599002892583    0.7710064210861920    0.8585908786846842   H1448
    0.5052599002892583    0.7710064210861920    0.1919242120180176   H1449
    0.8385932336225915    0.1043397544195253    0.5252575453513508   H1450
    0.8385932336225915    0.1043397544195253    0.8585908786846842   H1451
    0.8385932336225915    0.1043397544195253    0.1919242120180176   H1452
    0.8385932336225915    0.4376730877528586    0.5252575453513508   H1453
    0.8385932336225915    0.4376730877528586    0.8585908786846842   H1454
    0.8385932336225915    0.4376730877528586    0.1919242120180176   H1455
    0.8385932336225915    0.7710064210861920    0.5252575453513508   H1456
    0.8385932336225915    0.7710064210861920    0.8585908786846842   H1457
    0.8385932336225915    0.7710064210861920    0.1919242120180176   H1458
    0.1826961324353562    0.5780793807599693    0.3066405247484870   H1459
    0.1826961324353562    0.5780793807599693    0.6399738580818203   H1460
    0.1826961324353562    0.5780793807599693    0.9733071914151536   H1461
    0.1826961324353562    0.9114127140933027    0.3066405247484870   H1462
    0.1826961324353562    0.9114127140933027    0.6399738580818203   H1463
    0.1826961324353562    0.9114127140933027    0.9733071914151536   H1464
    0.1826961324353562    0.2447460474266361    0.3066405247484870   H1465
    0.1826961324353562    0.2447460474266361    0.6399738580818203   H1466
    0.1826961324353562    0.2447460474266361    0.9733071914151536   H1467
    0.5160294657686895    0.5780793807599693    0.3066405247484870   H1468
    0.5160294657686895    0.5780793807599693    0.6399738580818203   H1469
    0.5160294657686895    0.5780793807599693    0.9733071914151536   H1470
    0.5160294657686895    0.9114127140933027    0.3066405247484870   H1471
    0.5160294657686895    0.9114127140933027    0.6399738580818203   H1472
    0.5160294657686895    0.9114127140933027    0.9733071914151536   H1473
    0.5160294657686895    0.2447460474266361    0.3066405247484870   H1474
    0.5160294657686895    0.2447460474266361    0.6399738580818203   H1475
    0.5160294657686895    0.2447460474266361    0.9733071914151536   H1476
    0.8493627991020229    0.5780793807599693    0.3066405247484870   H1477
    0.8493627991020229    0.5780793807599693    0.6399738580818203   H1478
    0.8493627991020229    0.5780793807599693    0.9733071914151536   H1479
    0.8493627991020229    0.9114127140933027    0.3066405247484870   H1480
    0.8493627991020229    0.9114127140933027    0.6399738580818203   H1481
    0.8493627991020229    0.9114127140933027    0.9733071914151536   H1482
    0.8493627991020229    0.2447460474266361    0.3066405247484870   H1483
    0.8493627991020229    0.2447460474266361    0.6399738580818203   H1484
    0.8493627991020229    0.2447460474266361    0.9733071914151536   H1485
    0.2960274863091883    0.2758536920455824    0.2167390987703967   H1486
    0.2960274863091883    0.2758536920455824    0.5500724321037300   H1487
    0.2960274863091883    0.2758536920455824    0.8834057654370634   H1488
    0.2960274863091883    0.6091870253789158    0.2167390987703967   H1489
    0.2960274863091883    0.6091870253789158    0.5500724321037300   H1490
    0.2960274863091883    0.6091870253789158    0.8834057654370634   H1491
    0.2960274863091883    0.9425203587122490    0.2167390987703967   H1492
    0.2960274863091883    0.9425203587122490    0.5500724321037300   H1493
    0.2960274863091883    0.9425203587122490    0.8834057654370634   H1494
    0.6293608196425217    0.2758536920455824    0.2167390987703967   H1495
    0.6293608196425217    0.2758536920455824    0.5500724321037300   H1496
    0.6293608196425217    0.2758536920455824    0.8834057654370634   H1497
    0.6293608196425217    0.6091870253789158    0.2167390987703967   H1498
    0.6293608196425217    0.6091870253789158    0.5500724321037300   H1499
    0.6293608196425217    0.6091870253789158    0.8834057654370634   H1500
    0.6293608196425217    0.9425203587122490    0.2167390987703967   H1501
    0.6293608196425217    0.9425203587122490    0.5500724321037300   H1502
    0.6293608196425217    0.9425203587122490    0.8834057654370634   H1503
    0.9626941529758550    0.2758536920455824    0.2167390987703967   H1504
    0.9626941529758550    0.2758536920455824    0.5500724321037300   H1505
    0.9626941529758550    0.2758536920455824    0.8834057654370634   H1506
    0.9626941529758550    0.6091870253789158    0.2167390987703967   H1507
    0.9626941529758550    0.6091870253789158    0.5500724321037300   H1508
    0.9626941529758550    0.6091870253789158    0.8834057654370634   H1509
    0.9626941529758550    0.9425203587122490    0.2167390987703967   H1510
    0.9626941529758550    0.9425203587122490    0.5500724321037300   H1511
    0.9626941529758550    0.9425203587122490    0.8834057654370634   H1512
    0.2013809403594343    0.3879624629541825    0.2245358861076221   H1513
    0.2013809403594343    0.3879624629541825    0.5578692194409554   H1514
    0.2013809403594343    0.3879624629541825    0.8912025527742886   H1515
    0.2013809403594343    0.7212957962875157    0.2245358861076221   H1516
    0.2013809403594343    0.7212957962875157    0.5578692194409554   H1517
    0.2013809403594343    0.7212957962875157    0.8912025527742886   H1518
    0.2013809403594343    0.0546291296208490    0.2245358861076221   H1519
    0.2013809403594343    0.0546291296208490    0.5578692194409554   H1520
    0.2013809403594343    0.0546291296208490    0.8912025527742886   H1521
    0.5347142736927677    0.3879624629541825    0.2245358861076221   H1522
    0.5347142736927677    0.3879624629541825    0.5578692194409554   H1523
    0.5347142736927677    0.3879624629541825    0.8912025527742886   H1524
    0.5347142736927677    0.7212957962875157    0.2245358861076221   H1525
    0.5347142736927677    0.7212957962875157    0.5578692194409554   H1526
    0.5347142736927677    0.7212957962875157    0.8912025527742886   H1527
    0.5347142736927677    0.0546291296208490    0.2245358861076221   H1528
    0.5347142736927677    0.0546291296208490    0.5578692194409554   H1529
    0.5347142736927677    0.0546291296208490    0.8912025527742886   H1530
    0.8680476070261010    0.3879624629541825    0.2245358861076221   H1531
    0.8680476070261010    0.3879624629541825    0.5578692194409554   H1532
    0.8680476070261010    0.3879624629541825    0.8912025527742886   H1533
    0.8680476070261010    0.7212957962875157    0.2245358861076221   H1534
    0.8680476070261010    0.7212957962875157    0.5578692194409554   H1535
    0.8680476070261010    0.7212957962875157    0.8912025527742886   H1536
    0.8680476070261010    0.0546291296208490    0.2245358861076221   H1537
    0.8680476070261010    0.0546291296208490    0.5578692194409554   H1538
    0.8680476070261010    0.0546291296208490    0.8912025527742886   H1539
    0.0283762095290492    0.1519733145637649    0.2986279813193454   H1540
    0.0283762095290492    0.1519733145637649    0.6319613146526787   H1541
    0.0283762095290492    0.1519733145637649    0.9652946479860121   H1542
    0.0283762095290492    0.4853066478970983    0.2986279813193454   H1543
    0.0283762095290492    0.4853066478970983    0.6319613146526787   H1544
    0.0283762095290492    0.4853066478970983    0.9652946479860121   H1545
    0.0283762095290492    0.8186399812304317    0.2986279813193454   H1546
    0.0283762095290492    0.8186399812304317    0.6319613146526787   H1547
    0.0283762095290492    0.8186399812304317    0.9652946479860121   H1548
    0.3617095428623825    0.1519733145637649    0.2986279813193454   H1549
    0.3617095428623825    0.1519733145637649    0.6319613146526787   H1550
    0.3617095428623825    0.1519733145637649    0.9652946479860121   H1551
    0.3617095428623825    0.4853066478970983    0.2986279813193454   H1552
    0.3617095428623825    0.4853066478970983    0.6319613146526787   H1553
    0.3617095428623825    0.4853066478970983    0.9652946479860121   H1554
    0.3617095428623825    0.8186399812304317    0.2986279813193454   H1555
    0.3617095428623825    0.8186399812304317    0.6319613146526787   H1556
    0.3617095428623825    0.8186399812304317    0.9652946479860121   H1557
    0.6950428761957157    0.1519733145637649    0.2986279813193454   H1558
    0.6950428761957157    0.1519733145637649    0.6319613146526787   H1559
    0.6950428761957157    0.1519733145637649    0.9652946479860121   H1560
    0.6950428761957157    0.4853066478970983    0.2986279813193454   H1561
    0.6950428761957157    0.4853066478970983    0.6319613146526787   H1562
    0.6950428761957157    0.4853066478970983    0.9652946479860121   H1563
    0.6950428761957157    0.8186399812304317    0.2986279813193454   H1564
    0.6950428761957157    0.8186399812304317    0.6319613146526787   H1565
    0.6950428761957157    0.8186399812304317    0.9652946479860121   H1566
    0.3445041599650507    0.5206398211444416    0.2083692491362981   H1567
    0.3445041599650507    0.5206398211444416    0.5417025824696314   H1568
    0.3445041599650507    0.5206398211444416    0.8750359158029648   H1569
    0.3445041599650507    0.8539731544777750    0.2083692491362981   H1570
    0.3445041599650507    0.8539731544777750    0.5417025824696314   H1571
    0.3445041599650507    0.8539731544777750    0.8750359158029648   H1572
    0.3445041599650507    0.1873064878111084    0.2083692491362981   H1573
    0.3445041599650507    0.1873064878111084    0.5417025824696314   H1574
    0.3445041599650507    0.1873064878111084    0.8750359158029648   H1575
    0.6778374932983839    0.5206398211444416    0.2083692491362981   H1576
    0.6778374932983839    0.5206398211444416    0.5417025824696314   H1577
    0.6778374932983839    0.5206398211444416    0.8750359158029648   H1578
    0.6778374932983839    0.8539731544777750    0.2083692491362981   H1579
    0.6778374932983839    0.8539731544777750    0.5417025824696314   H1580
    0.6778374932983839    0.8539731544777750    0.8750359158029648   H1581
    0.6778374932983839    0.1873064878111084    0.2083692491362981   H1582
    0.6778374932983839    0.1873064878111084    0.5417025824696314   H1583
    0.6778374932983839    0.1873064878111084    0.8750359158029648   H1584
    0.0111708266317172    0.5206398211444416    0.2083692491362981   H1585
    0.0111708266317172    0.5206398211444416    0.5417025824696314   H1586
    0.0111708266317172    0.5206398211444416    0.8750359158029648   H1587
    0.0111708266317172    0.8539731544777750    0.2083692491362981   H1588
    0.0111708266317172    0.8539731544777750    0.5417025824696314   H1589
    0.0111708266317172    0.8539731544777750    0.8750359158029648   H1590
    0.0111708266317172    0.1873064878111084    0.2083692491362981   H1591
    0.0111708266317172    0.1873064878111084    0.5417025824696314   H1592
    0.0111708266317172    0.1873064878111084    0.8750359158029648   H1593
    0.2114574535767009    0.2933069583267326    0.1946376932420107   H1594
    0.2114574535767009    0.2933069583267326    0.5279710265753439   H1595
    0.2114574535767009    0.2933069583267326    0.8613043599086773   H1596
    0.2114574535767009    0.6266402916600660    0.1946376932420107   H1597
    0.2114574535767009    0.6266402916600660    0.5279710265753439   H1598
    0.2114574535767009    0.6266402916600660    0.8613043599086773   H1599
    0.2114574535767009    0.9599736249933992    0.1946376932420107   H1600
    0.2114574535767009    0.9599736249933992    0.5279710265753439   H1601
    0.2114574535767009    0.9599736249933992    0.8613043599086773   H1602
    0.5447907869100341    0.2933069583267326    0.1946376932420107   H1603
    0.5447907869100341    0.2933069583267326    0.5279710265753439   H1604
    0.5447907869100341    0.2933069583267326    0.8613043599086773   H1605
    0.5447907869100341    0.6266402916600660    0.1946376932420107   H1606
    0.5447907869100341    0.6266402916600660    0.5279710265753439   H1607
    0.5447907869100341    0.6266402916600660    0.8613043599086773   H1608
    0.5447907869100341    0.9599736249933992    0.1946376932420107   H1609
    0.5447907869100341    0.9599736249933992    0.5279710265753439   H1610
    0.5447907869100341    0.9599736249933992    0.8613043599086773   H1611
    0.8781241202433675    0.2933069583267326    0.1946376932420107   H1612
    0.8781241202433675    0.2933069583267326    0.5279710265753439   H1613
    0.8781241202433675    0.2933069583267326    0.8613043599086773   H1614
    0.8781241202433675    0.6266402916600660    0.1946376932420107   H1615
    0.8781241202433675    0.6266402916600660    0.5279710265753439   H1616
    0.8781241202433675    0.6266402916600660    0.8613043599086773   H1617
    0.8781241202433675    0.9599736249933992    0.1946376932420107   H1618
    0.8781241202433675    0.9599736249933992    0.5279710265753439   H1619
    0.8781241202433675    0.9599736249933992    0.8613043599086773   H1620
    0.9991381394983361    0.0917605217260269    0.3343944808145271   H1621
    0.9991381394983361    0.0917605217260269    0.6677278141478604   H1622
    0.9991381394983361    0.0917605217260269    0.0010611474811937   H1623
    0.9991381394983361    0.4250938550593602    0.3343944808145271   H1624
    0.9991381394983361    0.4250938550593602    0.6677278141478604   H1625
    0.9991381394983361    0.4250938550593602    0.0010611474811937   H1626
    0.9991381394983361    0.7584271883926934    0.3343944808145271   H1627
    0.9991381394983361    0.7584271883926934    0.6677278141478604   H1628
    0.9991381394983361    0.7584271883926934    0.0010611474811937   H1629
    0.3324714728316694    0.0917605217260269    0.3343944808145271   H1630
    0.3324714728316694    0.0917605217260269    0.6677278141478604   H1631
    0.3324714728316694    0.0917605217260269    0.0010611474811937   H1632
    0.3324714728316694    0.4250938550593602    0.3343944808145271   H1633
    0.3324714728316694    0.4250938550593602    0.6677278141478604   H1634
    0.3324714728316694    0.4250938550593602    0.0010611474811937   H1635
    0.3324714728316694    0.7584271883926934    0.3343944808145271   H1636
    0.3324714728316694    0.7584271883926934    0.6677278141478604   H1637
    0.3324714728316694    0.7584271883926934    0.0010611474811937   H1638
    0.6658048061650027    0.0917605217260269    0.3343944808145271   H1639
    0.6658048061650027    0.0917605217260269    0.6677278141478604   H1640
    0.6658048061650027    0.0917605217260269    0.0010611474811937   H1641
    0.6658048061650027    0.4250938550593602    0.3343944808145271   H1642
    0.6658048061650027    0.4250938550593602    0.6677278141478604   H1643
    0.6658048061650027    0.4250938550593602    0.0010611474811937   H1644
    0.6658048061650027    0.7584271883926934    0.3343944808145271   H1645
    0.6658048061650027    0.7584271883926934    0.6677278141478604   H1646
    0.6658048061650027    0.7584271883926934    0.0010611474811937   H1647
    0.2607484414562249    0.1604185283473507    0.5884996695945519   H1648
    0.2607484414562249    0.1604185283473507    0.9218330029278852   H1649
    0.2607484414562249    0.1604185283473507    0.2551663362612184   H1650
    0.2607484414562249    0.4937518616806840    0.5884996695945519   H1651
    0.2607484414562249    0.4937518616806840    0.9218330029278852   H1652
    0.2607484414562249    0.4937518616806840    0.2551663362612184   H1653
    0.2607484414562249    0.8270851950140173    0.5884996695945519   H1654
    0.2607484414562249    0.8270851950140173    0.9218330029278852   H1655
    0.2607484414562249    0.8270851950140173    0.2551663362612184   H1656
    0.5940817747895583    0.1604185283473507    0.5884996695945519   H1657
    0.5940817747895583    0.1604185283473507    0.9218330029278852   H1658
    0.5940817747895583    0.1604185283473507    0.2551663362612184   H1659
    0.5940817747895583    0.4937518616806840    0.5884996695945519   H1660
    0.5940817747895583    0.4937518616806840    0.9218330029278852   H1661
    0.5940817747895583    0.4937518616806840    0.2551663362612184   H1662
    0.5940817747895583    0.8270851950140173    0.5884996695945519   H1663
    0.5940817747895583    0.8270851950140173    0.9218330029278852   H1664
    0.5940817747895583    0.8270851950140173    0.2551663362612184   H1665
    0.9274151081228915    0.1604185283473507    0.5884996695945519   H1666
    0.9274151081228915    0.1604185283473507    0.9218330029278852   H1667
    0.9274151081228915    0.1604185283473507    0.2551663362612184   H1668
    0.9274151081228915    0.4937518616806840    0.5884996695945519   H1669
    0.9274151081228915    0.4937518616806840    0.9218330029278852   H1670
    0.9274151081228915    0.4937518616806840    0.2551663362612184   H1671
    0.9274151081228915    0.8270851950140173    0.5884996695945519   H1672
    0.9274151081228915    0.8270851950140173    0.9218330029278852   H1673
    0.9274151081228915    0.8270851950140173    0.2551663362612184   H1674
    0.9492376398508009    0.2410368771435112    0.0457155993399136   H1675
    0.9492376398508009    0.2410368771435112    0.3790489326732470   H1676
    0.9492376398508009    0.2410368771435112    0.7123822660065803   H1677
    0.9492376398508009    0.5743702104768444    0.0457155993399136   H1678
    0.9492376398508009    0.5743702104768444    0.3790489326732470   H1679
    0.9492376398508009    0.5743702104768444    0.7123822660065803   H1680
    0.9492376398508009    0.9077035438101779    0.0457155993399136   H1681
    0.9492376398508009    0.9077035438101779    0.3790489326732470   H1682
    0.9492376398508009    0.9077035438101779    0.7123822660065803   H1683
    0.2825709731841342    0.2410368771435112    0.0457155993399136   H1684
    0.2825709731841342    0.2410368771435112    0.3790489326732470   H1685
    0.2825709731841342    0.2410368771435112    0.7123822660065803   H1686
    0.2825709731841342    0.5743702104768444    0.0457155993399136   H1687
    0.2825709731841342    0.5743702104768444    0.3790489326732470   H1688
    0.2825709731841342    0.5743702104768444    0.7123822660065803   H1689
    0.2825709731841342    0.9077035438101779    0.0457155993399136   H1690
    0.2825709731841342    0.9077035438101779    0.3790489326732470   H1691
    0.2825709731841342    0.9077035438101779    0.7123822660065803   H1692
    0.6159043065174675    0.2410368771435112    0.0457155993399136   H1693
    0.6159043065174675    0.2410368771435112    0.3790489326732470   H1694
    0.6159043065174675    0.2410368771435112    0.7123822660065803   H1695
    0.6159043065174675    0.5743702104768444    0.0457155993399136   H1696
    0.6159043065174675    0.5743702104768444    0.3790489326732470   H1697
    0.6159043065174675    0.5743702104768444    0.7123822660065803   H1698
    0.6159043065174675    0.9077035438101779    0.0457155993399136   H1699
    0.6159043065174675    0.9077035438101779    0.3790489326732470   H1700
    0.6159043065174675    0.9077035438101779    0.7123822660065803   H1701
    0.1488513103269535    0.2294352818497328    0.2498039105820911   H1702
    0.1488513103269535    0.2294352818497328    0.5831372439154243   H1703
    0.1488513103269535    0.2294352818497328    0.9164705772487577   H1704
    0.1488513103269535    0.5627686151830661    0.2498039105820911   H1705
    0.1488513103269535    0.5627686151830661    0.5831372439154243   H1706
    0.1488513103269535    0.5627686151830661    0.9164705772487577   H1707
    0.1488513103269535    0.8961019485163995    0.2498039105820911   H1708
    0.1488513103269535    0.8961019485163995    0.5831372439154243   H1709
    0.1488513103269535    0.8961019485163995    0.9164705772487577   H1710
    0.4821846436602868    0.2294352818497328    0.2498039105820911   H1711
    0.4821846436602868    0.2294352818497328    0.5831372439154243   H1712
    0.4821846436602868    0.2294352818497328    0.9164705772487577   H1713
    0.4821846436602868    0.5627686151830661    0.2498039105820911   H1714
    0.4821846436602868    0.5627686151830661    0.5831372439154243   H1715
    0.4821846436602868    0.5627686151830661    0.9164705772487577   H1716
    0.4821846436602868    0.8961019485163995    0.2498039105820911   H1717
    0.4821846436602868    0.8961019485163995    0.5831372439154243   H1718
    0.4821846436602868    0.8961019485163995    0.9164705772487577   H1719
    0.8155179769936201    0.2294352818497328    0.2498039105820911   H1720
    0.8155179769936201    0.2294352818497328    0.5831372439154243   H1721
    0.8155179769936201    0.2294352818497328    0.9164705772487577   H1722
    0.8155179769936201    0.5627686151830661    0.2498039105820911   H1723
    0.8155179769936201    0.5627686151830661    0.5831372439154243   H1724
    0.8155179769936201    0.5627686151830661    0.9164705772487577   H1725
    0.8155179769936201    0.8961019485163995    0.2498039105820911   H1726
    0.8155179769936201    0.8961019485163995    0.5831372439154243   H1727
    0.8155179769936201    0.8961019485163995    0.9164705772487577   H1728
    0.1261521200507430    0.1137762702918990    0.4059491858071517   H1729
    0.1261521200507430    0.1137762702918990    0.7392825191404850   H1730
    0.1261521200507430    0.1137762702918990    0.0726158524738183   H1731
    0.1261521200507430    0.4471096036252323    0.4059491858071517   H1732
    0.1261521200507430    0.4471096036252323    0.7392825191404850   H1733
    0.1261521200507430    0.4471096036252323    0.0726158524738183   H1734
    0.1261521200507430    0.7804429369585657    0.4059491858071517   H1735
    0.1261521200507430    0.7804429369585657    0.7392825191404850   H1736
    0.1261521200507430    0.7804429369585657    0.0726158524738183   H1737
    0.4594854533840763    0.1137762702918990    0.4059491858071517   H1738
    0.4594854533840763    0.1137762702918990    0.7392825191404850   H1739
    0.4594854533840763    0.1137762702918990    0.0726158524738183   H1740
    0.4594854533840763    0.4471096036252323    0.4059491858071517   H1741
    0.4594854533840763    0.4471096036252323    0.7392825191404850   H1742
    0.4594854533840763    0.4471096036252323    0.0726158524738183   H1743
    0.4594854533840763    0.7804429369585657    0.4059491858071517   H1744
    0.4594854533840763    0.7804429369585657    0.7392825191404850   H1745
    0.4594854533840763    0.7804429369585657    0.0726158524738183   H1746
    0.7928187867174097    0.1137762702918990    0.4059491858071517   H1747
    0.7928187867174097    0.1137762702918990    0.7392825191404850   H1748
    0.7928187867174097    0.1137762702918990    0.0726158524738183   H1749
    0.7928187867174097    0.4471096036252323    0.4059491858071517   H1750
    0.7928187867174097    0.4471096036252323    0.7392825191404850   H1751
    0.7928187867174097    0.4471096036252323    0.0726158524738183   H1752
    0.7928187867174097    0.7804429369585657    0.4059491858071517   H1753
    0.7928187867174097    0.7804429369585657    0.7392825191404850   H1754
    0.7928187867174097    0.7804429369585657    0.0726158524738183   H1755
    0.0872447792868566    0.0780133414435630    0.3496360346682176   H1756
    0.0872447792868566    0.0780133414435630    0.6829693680015509   H1757
    0.0872447792868566    0.0780133414435630    0.0163027013348842   H1758
    0.0872447792868566    0.4113466747768963    0.3496360346682176   H1759
    0.0872447792868566    0.4113466747768963    0.6829693680015509   H1760
    0.0872447792868566    0.4113466747768963    0.0163027013348842   H1761
    0.0872447792868566    0.7446800081102296    0.3496360346682176   H1762
    0.0872447792868566    0.7446800081102296    0.6829693680015509   H1763
    0.0872447792868566    0.7446800081102296    0.0163027013348842   H1764
    0.4205781126201898    0.0780133414435630    0.3496360346682176   H1765
    0.4205781126201898    0.0780133414435630    0.6829693680015509   H1766
    0.4205781126201898    0.0780133414435630    0.0163027013348842   H1767
    0.4205781126201898    0.4113466747768963    0.3496360346682176   H1768
    0.4205781126201898    0.4113466747768963    0.6829693680015509   H1769
    0.4205781126201898    0.4113466747768963    0.0163027013348842   H1770
    0.4205781126201898    0.7446800081102296    0.3496360346682176   H1771
    0.4205781126201898    0.7446800081102296    0.6829693680015509   H1772
    0.4205781126201898    0.7446800081102296    0.0163027013348842   H1773
    0.7539114459535232    0.0780133414435630    0.3496360346682176   H1774
    0.7539114459535232    0.0780133414435630    0.6829693680015509   H1775
    0.7539114459535232    0.0780133414435630    0.0163027013348842   H1776
    0.7539114459535232    0.4113466747768963    0.3496360346682176   H1777
    0.7539114459535232    0.4113466747768963    0.6829693680015509   H1778
    0.7539114459535232    0.4113466747768963    0.0163027013348842   H1779
    0.7539114459535232    0.7446800081102296    0.3496360346682176   H1780
    0.7539114459535232    0.7446800081102296    0.6829693680015509   H1781
    0.7539114459535232    0.7446800081102296    0.0163027013348842   H1782
    0.1862640851759751    0.1840799743141994    0.4271652420208082   H1783
    0.1862640851759751    0.1840799743141994    0.7604985753541416   H1784
    0.1862640851759751    0.1840799743141994    0.0938319086874748   H1785
    0.1862640851759751    0.5174133076475327    0.4271652420208082   H1786
    0.1862640851759751    0.5174133076475327    0.7604985753541416   H1787
    0.1862640851759751    0.5174133076475327    0.0938319086874748   H1788
    0.1862640851759751    0.8507466409808659    0.4271652420208082   H1789
    0.1862640851759751    0.8507466409808659    0.7604985753541416   H1790
    0.1862640851759751    0.8507466409808659    0.0938319086874748   H1791
    0.5195974185093084    0.1840799743141994    0.4271652420208082   H1792
    0.5195974185093084    0.1840799743141994    0.7604985753541416   H1793
    0.5195974185093084    0.1840799743141994    0.0938319086874748   H1794
    0.5195974185093084    0.5174133076475327    0.4271652420208082   H1795
    0.5195974185093084    0.5174133076475327    0.7604985753541416   H1796
    0.5195974185093084    0.5174133076475327    0.0938319086874748   H1797
    0.5195974185093084    0.8507466409808659    0.4271652420208082   H1798
    0.5195974185093084    0.8507466409808659    0.7604985753541416   H1799
    0.5195974185093084    0.8507466409808659    0.0938319086874748   H1800
    0.8529307518426418    0.1840799743141994    0.4271652420208082   H1801
    0.8529307518426418    0.1840799743141994    0.7604985753541416   H1802
    0.8529307518426418    0.1840799743141994    0.0938319086874748   H1803
    0.8529307518426418    0.5174133076475327    0.4271652420208082   H1804
    0.8529307518426418    0.5174133076475327    0.7604985753541416   H1805
    0.8529307518426418    0.5174133076475327    0.0938319086874748   H1806
    0.8529307518426418    0.8507466409808659    0.4271652420208082   H1807
    0.8529307518426418    0.8507466409808659    0.7604985753541416   H1808
    0.8529307518426418    0.8507466409808659    0.0938319086874748   H1809
    0.8795760652882483    0.3084005921688969    0.2956994519233241   H1810
    0.8795760652882483    0.3084005921688969    0.6290327852566575   H1811
    0.8795760652882483    0.3084005921688969    0.9623661185899908   H1812
    0.8795760652882483    0.6417339255022302    0.2956994519233241   H1813
    0.8795760652882483    0.6417339255022302    0.6290327852566575   H1814
    0.8795760652882483    0.6417339255022302    0.9623661185899908   H1815
    0.8795760652882483    0.9750672588355634    0.2956994519233241   H1816
    0.8795760652882483    0.9750672588355634    0.6290327852566575   H1817
    0.8795760652882483    0.9750672588355634    0.9623661185899908   H1818
    0.2129093986215816    0.3084005921688969    0.2956994519233241   H1819
    0.2129093986215816    0.3084005921688969    0.6290327852566575   H1820
    0.2129093986215816    0.3084005921688969    0.9623661185899908   H1821
    0.2129093986215816    0.6417339255022302    0.2956994519233241   H1822
    0.2129093986215816    0.6417339255022302    0.6290327852566575   H1823
    0.2129093986215816    0.6417339255022302    0.9623661185899908   H1824
    0.2129093986215816    0.9750672588355634    0.2956994519233241   H1825
    0.2129093986215816    0.9750672588355634    0.6290327852566575   H1826
    0.2129093986215816    0.9750672588355634    0.9623661185899908   H1827
    0.5462427319549149    0.3084005921688969    0.2956994519233241   H1828
    0.5462427319549149    0.3084005921688969    0.6290327852566575   H1829
    0.5462427319549149    0.3084005921688969    0.9623661185899908   H1830
    0.5462427319549149    0.6417339255022302    0.2956994519233241   H1831
    0.5462427319549149    0.6417339255022302    0.6290327852566575   H1832
    0.5462427319549149    0.6417339255022302    0.9623661185899908   H1833
    0.5462427319549149    0.9750672588355634    0.2956994519233241   H1834
    0.5462427319549149    0.9750672588355634    0.6290327852566575   H1835
    0.5462427319549149    0.9750672588355634    0.9623661185899908   H1836
    0.0886018636072578    0.9644523977059837    0.2999288934039797   H1837
    0.0886018636072578    0.9644523977059837    0.6332622267373129   H1838
    0.0886018636072578    0.9644523977059837    0.9665955600706463   H1839
    0.0886018636072578    0.2977857310393169    0.2999288934039797   H1840
    0.0886018636072578    0.2977857310393169    0.6332622267373129   H1841
    0.0886018636072578    0.2977857310393169    0.9665955600706463   H1842
    0.0886018636072578    0.6311190643726503    0.2999288934039797   H1843
    0.0886018636072578    0.6311190643726503    0.6332622267373129   H1844
    0.0886018636072578    0.6311190643726503    0.9665955600706463   H1845
    0.4219351969405911    0.9644523977059837    0.2999288934039797   H1846
    0.4219351969405911    0.9644523977059837    0.6332622267373129   H1847
    0.4219351969405911    0.9644523977059837    0.9665955600706463   H1848
    0.4219351969405911    0.2977857310393169    0.2999288934039797   H1849
    0.4219351969405911    0.2977857310393169    0.6332622267373129   H1850
    0.4219351969405911    0.2977857310393169    0.9665955600706463   H1851
    0.4219351969405911    0.6311190643726503    0.2999288934039797   H1852
    0.4219351969405911    0.6311190643726503    0.6332622267373129   H1853
    0.4219351969405911    0.6311190643726503    0.9665955600706463   H1854
    0.7552685302739244    0.9644523977059837    0.2999288934039797   H1855
    0.7552685302739244    0.9644523977059837    0.6332622267373129   H1856
    0.7552685302739244    0.9644523977059837    0.9665955600706463   H1857
    0.7552685302739244    0.2977857310393169    0.2999288934039797   H1858
    0.7552685302739244    0.2977857310393169    0.6332622267373129   H1859
    0.7552685302739244    0.2977857310393169    0.9665955600706463   H1860
    0.7552685302739244    0.6311190643726503    0.2999288934039797   H1861
    0.7552685302739244    0.6311190643726503    0.6332622267373129   H1862
    0.7552685302739244    0.6311190643726503    0.9665955600706463   H1863
    0.0816885659817540    0.0315626620053232    0.3162846276223047   H1864
    0.0816885659817540    0.0315626620053232    0.6496179609556381   H1865
    0.0816885659817540    0.0315626620053232    0.9829512942889714   H1866
    0.0816885659817540    0.3648959953386565    0.3162846276223047   H1867
    0.0816885659817540    0.3648959953386565    0.6496179609556381   H1868
    0.0816885659817540    0.3648959953386565    0.9829512942889714   H1869
    0.0816885659817540    0.6982293286719898    0.3162846276223047   H1870
    0.0816885659817540    0.6982293286719898    0.6496179609556381   H1871
    0.0816885659817540    0.6982293286719898    0.9829512942889714   H1872
    0.4150218993150873    0.0315626620053232    0.3162846276223047   H1873
    0.4150218993150873    0.0315626620053232    0.6496179609556381   H1874
    0.4150218993150873    0.0315626620053232    0.9829512942889714   H1875
    0.4150218993150873    0.3648959953386565    0.3162846276223047   H1876
    0.4150218993150873    0.3648959953386565    0.6496179609556381   H1877
    0.4150218993150873    0.3648959953386565    0.9829512942889714   H1878
    0.4150218993150873    0.6982293286719898    0.3162846276223047   H1879
    0.4150218993150873    0.6982293286719898    0.6496179609556381   H1880
    0.4150218993150873    0.6982293286719898    0.9829512942889714   H1881
    0.7483552326484206    0.0315626620053232    0.3162846276223047   H1882
    0.7483552326484206    0.0315626620053232    0.6496179609556381   H1883
    0.7483552326484206    0.0315626620053232    0.9829512942889714   H1884
    0.7483552326484206    0.3648959953386565    0.3162846276223047   H1885
    0.7483552326484206    0.3648959953386565    0.6496179609556381   H1886
    0.7483552326484206    0.3648959953386565    0.9829512942889714   H1887
    0.7483552326484206    0.6982293286719898    0.3162846276223047   H1888
    0.7483552326484206    0.6982293286719898    0.6496179609556381   H1889
    0.7483552326484206    0.6982293286719898    0.9829512942889714   H1890
    0.1107217549584807    0.9463315644852581    0.3345494101558533   H1891
    0.1107217549584807    0.9463315644852581    0.6678827434891865   H1892
    0.1107217549584807    0.9463315644852581    0.0012160768225198   H1893
    0.1107217549584807    0.2796648978185914    0.3345494101558533   H1894
    0.1107217549584807    0.2796648978185914    0.6678827434891865   H1895
    0.1107217549584807    0.2796648978185914    0.0012160768225198   H1896
    0.1107217549584807    0.6129982311519248    0.3345494101558533   H1897
    0.1107217549584807    0.6129982311519248    0.6678827434891865   H1898
    0.1107217549584807    0.6129982311519248    0.0012160768225198   H1899
    0.4440550882918140    0.9463315644852581    0.3345494101558533   H1900
    0.4440550882918140    0.9463315644852581    0.6678827434891865   H1901
    0.4440550882918140    0.9463315644852581    0.0012160768225198   H1902
    0.4440550882918140    0.2796648978185914    0.3345494101558533   H1903
    0.4440550882918140    0.2796648978185914    0.6678827434891865   H1904
    0.4440550882918140    0.2796648978185914    0.0012160768225198   H1905
    0.4440550882918140    0.6129982311519248    0.3345494101558533   H1906
    0.4440550882918140    0.6129982311519248    0.6678827434891865   H1907
    0.4440550882918140    0.6129982311519248    0.0012160768225198   H1908
    0.7773884216251474    0.9463315644852581    0.3345494101558533   H1909
    0.7773884216251474    0.9463315644852581    0.6678827434891865   H1910
    0.7773884216251474    0.9463315644852581    0.0012160768225198   H1911
    0.7773884216251474    0.2796648978185914    0.3345494101558533   H1912
    0.7773884216251474    0.2796648978185914    0.6678827434891865   H1913
    0.7773884216251474    0.2796648978185914    0.0012160768225198   H1914
    0.7773884216251474    0.6129982311519248    0.3345494101558533   H1915
    0.7773884216251474    0.6129982311519248    0.6678827434891865   H1916
    0.7773884216251474    0.6129982311519248    0.0012160768225198   H1917
    0.1496485124364035    0.1199909804647513    0.3611461887688055   H1918
    0.1496485124364035    0.1199909804647513    0.6944795221021388   H1919
    0.1496485124364035    0.1199909804647513    0.0278128554354722   H1920
    0.1496485124364035    0.4533243137980846    0.3611461887688055   H1921
    0.1496485124364035    0.4533243137980846    0.6944795221021388   H1922
    0.1496485124364035    0.4533243137980846    0.0278128554354722   H1923
    0.1496485124364035    0.7866576471314179    0.3611461887688055   H1924
    0.1496485124364035    0.7866576471314179    0.6944795221021388   H1925
    0.1496485124364035    0.7866576471314179    0.0278128554354722   H1926
    0.4829818457697369    0.1199909804647513    0.3611461887688055   H1927
    0.4829818457697369    0.1199909804647513    0.6944795221021388   H1928
    0.4829818457697369    0.1199909804647513    0.0278128554354722   H1929
    0.4829818457697369    0.4533243137980846    0.3611461887688055   H1930
    0.4829818457697369    0.4533243137980846    0.6944795221021388   H1931
    0.4829818457697369    0.4533243137980846    0.0278128554354722   H1932
    0.4829818457697369    0.7866576471314179    0.3611461887688055   H1933
    0.4829818457697369    0.7866576471314179    0.6944795221021388   H1934
    0.4829818457697369    0.7866576471314179    0.0278128554354722   H1935
    0.8163151791030702    0.1199909804647513    0.3611461887688055   H1936
    0.8163151791030702    0.1199909804647513    0.6944795221021388   H1937
    0.8163151791030702    0.1199909804647513    0.0278128554354722   H1938
    0.8163151791030702    0.4533243137980846    0.3611461887688055   H1939
    0.8163151791030702    0.4533243137980846    0.6944795221021388   H1940
    0.8163151791030702    0.4533243137980846    0.0278128554354722   H1941
    0.8163151791030702    0.7866576471314179    0.3611461887688055   H1942
    0.8163151791030702    0.7866576471314179    0.6944795221021388   H1943
    0.8163151791030702    0.7866576471314179    0.0278128554354722   H1944
    0.1601584259685759    0.0028596038644132    0.3479881460675776   H1945
    0.1601584259685759    0.0028596038644132    0.6813214794009108   H1946
    0.1601584259685759    0.0028596038644132    0.0146548127342441   H1947
    0.1601584259685759    0.3361929371977466    0.3479881460675776   H1948
    0.1601584259685759    0.3361929371977466    0.6813214794009108   H1949
    0.1601584259685759    0.3361929371977466    0.0146548127342441   H1950
    0.1601584259685759    0.6695262705310798    0.3479881460675776   H1951
    0.1601584259685759    0.6695262705310798    0.6813214794009108   H1952
    0.1601584259685759    0.6695262705310798    0.0146548127342441   H1953
    0.4934917593019092    0.0028596038644132    0.3479881460675776   H1954
    0.4934917593019092    0.0028596038644132    0.6813214794009108   H1955
    0.4934917593019092    0.0028596038644132    0.0146548127342441   H1956
    0.4934917593019092    0.3361929371977466    0.3479881460675776   H1957
    0.4934917593019092    0.3361929371977466    0.6813214794009108   H1958
    0.4934917593019092    0.3361929371977466    0.0146548127342441   H1959
    0.4934917593019092    0.6695262705310798    0.3479881460675776   H1960
    0.4934917593019092    0.6695262705310798    0.6813214794009108   H1961
    0.4934917593019092    0.6695262705310798    0.0146548127342441   H1962
    0.8268250926352425    0.0028596038644132    0.3479881460675776   H1963
    0.8268250926352425    0.0028596038644132    0.6813214794009108   H1964
    0.8268250926352425    0.0028596038644132    0.0146548127342441   H1965
    0.8268250926352425    0.3361929371977466    0.3479881460675776   H1966
    0.8268250926352425    0.3361929371977466    0.6813214794009108   H1967
    0.8268250926352425    0.3361929371977466    0.0146548127342441   H1968
    0.8268250926352425    0.6695262705310798    0.3479881460675776   H1969
    0.8268250926352425    0.6695262705310798    0.6813214794009108   H1970
    0.8268250926352425    0.6695262705310798    0.0146548127342441   H1971
    0.1187881116318663    0.9066562952362226    0.2767615509543070   H1972
    0.1187881116318663    0.9066562952362226    0.6100948842876404   H1973
    0.1187881116318663    0.9066562952362226    0.9434282176209736   H1974
    0.1187881116318663    0.2399896285695559    0.2767615509543070   H1975
    0.1187881116318663    0.2399896285695559    0.6100948842876404   H1976
    0.1187881116318663    0.2399896285695559    0.9434282176209736   H1977
    0.1187881116318663    0.5733229619028892    0.2767615509543070   H1978
    0.1187881116318663    0.5733229619028892    0.6100948842876404   H1979
    0.1187881116318663    0.5733229619028892    0.9434282176209736   H1980
    0.4521214449651996    0.9066562952362226    0.2767615509543070   H1981
    0.4521214449651996    0.9066562952362226    0.6100948842876404   H1982
    0.4521214449651996    0.9066562952362226    0.9434282176209736   H1983
    0.4521214449651996    0.2399896285695559    0.2767615509543070   H1984
    0.4521214449651996    0.2399896285695559    0.6100948842876404   H1985
    0.4521214449651996    0.2399896285695559    0.9434282176209736   H1986
    0.4521214449651996    0.5733229619028892    0.2767615509543070   H1987
    0.4521214449651996    0.5733229619028892    0.6100948842876404   H1988
    0.4521214449651996    0.5733229619028892    0.9434282176209736   H1989
    0.7854547782985329    0.9066562952362226    0.2767615509543070   H1990
    0.7854547782985329    0.9066562952362226    0.6100948842876404   H1991
    0.7854547782985329    0.9066562952362226    0.9434282176209736   H1992
    0.7854547782985329    0.2399896285695559    0.2767615509543070   H1993
    0.7854547782985329    0.2399896285695559    0.6100948842876404   H1994
    0.7854547782985329    0.2399896285695559    0.9434282176209736   H1995
    0.7854547782985329    0.5733229619028892    0.2767615509543070   H1996
    0.7854547782985329    0.5733229619028892    0.6100948842876404   H1997
    0.7854547782985329    0.5733229619028892    0.9434282176209736   H1998
    0.1530991397883033    0.9444113944402207    0.2963711166745363   H1999
    0.1530991397883033    0.9444113944402207    0.6297044500078696   H2000
    0.1530991397883033    0.9444113944402207    0.9630377833412029   H2001
    0.1530991397883033    0.2777447277735540    0.2963711166745363   H2002
    0.1530991397883033    0.2777447277735540    0.6297044500078696   H2003
    0.1530991397883033    0.2777447277735540    0.9630377833412029   H2004
    0.1530991397883033    0.6110780611068873    0.2963711166745363   H2005
    0.1530991397883033    0.6110780611068873    0.6297044500078696   H2006
    0.1530991397883033    0.6110780611068873    0.9630377833412029   H2007
    0.4864324731216366    0.9444113944402207    0.2963711166745363   H2008
    0.4864324731216366    0.9444113944402207    0.6297044500078696   H2009
    0.4864324731216366    0.9444113944402207    0.9630377833412029   H2010
    0.4864324731216366    0.2777447277735540    0.2963711166745363   H2011
    0.4864324731216366    0.2777447277735540    0.6297044500078696   H2012
    0.4864324731216366    0.2777447277735540    0.9630377833412029   H2013
    0.4864324731216366    0.6110780611068873    0.2963711166745363   H2014
    0.4864324731216366    0.6110780611068873    0.6297044500078696   H2015
    0.4864324731216366    0.6110780611068873    0.9630377833412029   H2016
    0.8197658064549700    0.9444113944402207    0.2963711166745363   H2017
    0.8197658064549700    0.9444113944402207    0.6297044500078696   H2018
    0.8197658064549700    0.9444113944402207    0.9630377833412029   H2019
    0.8197658064549700    0.2777447277735540    0.2963711166745363   H2020
    0.8197658064549700    0.2777447277735540    0.6297044500078696   H2021
    0.8197658064549700    0.2777447277735540    0.9630377833412029   H2022
    0.8197658064549700    0.6110780611068873    0.2963711166745363   H2023
    0.8197658064549700    0.6110780611068873    0.6297044500078696   H2024
    0.8197658064549700    0.6110780611068873    0.9630377833412029   H2025
    0.9328487202901368    0.3160589604501971    0.2975530157618978   H2026
    0.9328487202901368    0.3160589604501971    0.6308863490952311   H2027
    0.9328487202901368    0.3160589604501971    0.9642196824285645   H2028
    0.9328487202901368    0.6493922937835304    0.2975530157618978   H2029
    0.9328487202901368    0.6493922937835304    0.6308863490952311   H2030
    0.9328487202901368    0.6493922937835304    0.9642196824285645   H2031
    0.9328487202901368    0.9827256271168637    0.2975530157618978   H2032
    0.9328487202901368    0.9827256271168637    0.6308863490952311   H2033
    0.9328487202901368    0.9827256271168637    0.9642196824285645   H2034
    0.2661820536234700    0.3160589604501971    0.2975530157618978   H2035
    0.2661820536234700    0.3160589604501971    0.6308863490952311   H2036
    0.2661820536234700    0.3160589604501971    0.9642196824285645   H2037
    0.2661820536234700    0.6493922937835304    0.2975530157618978   H2038
    0.2661820536234700    0.6493922937835304    0.6308863490952311   H2039
    0.2661820536234700    0.6493922937835304    0.9642196824285645   H2040
    0.2661820536234700    0.9827256271168637    0.2975530157618978   H2041
    0.2661820536234700    0.9827256271168637    0.6308863490952311   H2042
    0.2661820536234700    0.9827256271168637    0.9642196824285645   H2043
    0.5995153869568034    0.3160589604501971    0.2975530157618978   H2044
    0.5995153869568034    0.3160589604501971    0.6308863490952311   H2045
    0.5995153869568034    0.3160589604501971    0.9642196824285645   H2046
    0.5995153869568034    0.6493922937835304    0.2975530157618978   H2047
    0.5995153869568034    0.6493922937835304    0.6308863490952311   H2048
    0.5995153869568034    0.6493922937835304    0.9642196824285645   H2049
    0.5995153869568034    0.9827256271168637    0.2975530157618978   H2050
    0.5995153869568034    0.9827256271168637    0.6308863490952311   H2051
    0.5995153869568034    0.9827256271168637    0.9642196824285645   H2052
    0.9691631932403467    0.1139038220641312    0.3394611713013934   H2053
    0.9691631932403467    0.1139038220641312    0.6727945046347268   H2054
    0.9691631932403467    0.1139038220641312    0.0061278379680600   H2055
    0.9691631932403467    0.4472371553974644    0.3394611713013934   H2056
    0.9691631932403467    0.4472371553974644    0.6727945046347268   H2057
    0.9691631932403467    0.4472371553974644    0.0061278379680600   H2058
    0.9691631932403467    0.7805704887307978    0.3394611713013934   H2059
    0.9691631932403467    0.7805704887307978    0.6727945046347268   H2060
    0.9691631932403467    0.7805704887307978    0.0061278379680600   H2061
    0.3024965265736801    0.1139038220641312    0.3394611713013934   H2062
    0.3024965265736801    0.1139038220641312    0.6727945046347268   H2063
    0.3024965265736801    0.1139038220641312    0.0061278379680600   H2064
    0.3024965265736801    0.4472371553974644    0.3394611713013934   H2065
    0.3024965265736801    0.4472371553974644    0.6727945046347268   H2066
    0.3024965265736801    0.4472371553974644    0.0061278379680600   H2067
    0.3024965265736801    0.7805704887307978    0.3394611713013934   H2068
    0.3024965265736801    0.7805704887307978    0.6727945046347268   H2069
    0.3024965265736801    0.7805704887307978    0.0061278379680600   H2070
    0.6358298599070134    0.1139038220641312    0.3394611713013934   H2071
    0.6358298599070134    0.1139038220641312    0.6727945046347268   H2072
    0.6358298599070134    0.1139038220641312    0.0061278379680600   H2073
    0.6358298599070134    0.4472371553974644    0.3394611713013934   H2074
    0.6358298599070134    0.4472371553974644    0.6727945046347268   H2075
    0.6358298599070134    0.4472371553974644    0.0061278379680600   H2076
    0.6358298599070134    0.7805704887307978    0.3394611713013934   H2077
    0.6358298599070134    0.7805704887307978    0.6727945046347268   H2078
    0.6358298599070134    0.7805704887307978    0.0061278379680600   H2079
    0.1256685638092579    0.9622612495411395    0.2746209706848958   H2080
    0.1256685638092579    0.9622612495411395    0.6079543040182291   H2081
    0.1256685638092579    0.9622612495411395    0.9412876373515624   H2082
    0.1256685638092579    0.2955945828744727    0.2746209706848958   H2083
    0.1256685638092579    0.2955945828744727    0.6079543040182291   H2084
    0.1256685638092579    0.2955945828744727    0.9412876373515624   H2085
    0.1256685638092579    0.6289279162078061    0.2746209706848958   H2086
    0.1256685638092579    0.6289279162078061    0.6079543040182291   H2087
    0.1256685638092579    0.6289279162078061    0.9412876373515624   H2088
    0.4590018971425912    0.9622612495411395    0.2746209706848958   H2089
    0.4590018971425912    0.9622612495411395    0.6079543040182291   H2090
    0.4590018971425912    0.9622612495411395    0.9412876373515624   H2091
    0.4590018971425912    0.2955945828744727    0.2746209706848958   H2092
    0.4590018971425912    0.2955945828744727    0.6079543040182291   H2093
    0.4590018971425912    0.2955945828744727    0.9412876373515624   H2094
    0.4590018971425912    0.6289279162078061    0.2746209706848958   H2095
    0.4590018971425912    0.6289279162078061    0.6079543040182291   H2096
    0.4590018971425912    0.6289279162078061    0.9412876373515624   H2097
    0.7923352304759246    0.9622612495411395    0.2746209706848958   H2098
    0.7923352304759246    0.9622612495411395    0.6079543040182291   H2099
    0.7923352304759246    0.9622612495411395    0.9412876373515624   H2100
    0.7923352304759246    0.2955945828744727    0.2746209706848958   H2101
    0.7923352304759246    0.2955945828744727    0.6079543040182291   H2102
    0.7923352304759246    0.2955945828744727    0.9412876373515624   H2103
    0.7923352304759246    0.6289279162078061    0.2746209706848958   H2104
    0.7923352304759246    0.6289279162078061    0.6079543040182291   H2105
    0.7923352304759246    0.6289279162078061    0.9412876373515624   H2106
    0.1762746281201340    0.0871326685171835    0.3800461715302144   H2107
    0.1762746281201340    0.0871326685171835    0.7133795048635477   H2108
    0.1762746281201340    0.0871326685171835    0.0467128381968811   H2109
    0.1762746281201340    0.4204660018505169    0.3800461715302144   H2110
    0.1762746281201340    0.4204660018505169    0.7133795048635477   H2111
    0.1762746281201340    0.4204660018505169    0.0467128381968811   H2112
    0.1762746281201340    0.7537993351838501    0.3800461715302144   H2113
    0.1762746281201340    0.7537993351838501    0.7133795048635477   H2114
    0.1762746281201340    0.7537993351838501    0.0467128381968811   H2115
    0.5096079614534673    0.0871326685171835    0.3800461715302144   H2116
    0.5096079614534673    0.0871326685171835    0.7133795048635477   H2117
    0.5096079614534673    0.0871326685171835    0.0467128381968811   H2118
    0.5096079614534673    0.4204660018505169    0.3800461715302144   H2119
    0.5096079614534673    0.4204660018505169    0.7133795048635477   H2120
    0.5096079614534673    0.4204660018505169    0.0467128381968811   H2121
    0.5096079614534673    0.7537993351838501    0.3800461715302144   H2122
    0.5096079614534673    0.7537993351838501    0.7133795048635477   H2123
    0.5096079614534673    0.7537993351838501    0.0467128381968811   H2124
    0.8429412947868006    0.0871326685171835    0.3800461715302144   H2125
    0.8429412947868006    0.0871326685171835    0.7133795048635477   H2126
    0.8429412947868006    0.0871326685171835    0.0467128381968811   H2127
    0.8429412947868006    0.4204660018505169    0.3800461715302144   H2128
    0.8429412947868006    0.4204660018505169    0.7133795048635477   H2129
    0.8429412947868006    0.4204660018505169    0.0467128381968811   H2130
    0.8429412947868006    0.7537993351838501    0.3800461715302144   H2131
    0.8429412947868006    0.7537993351838501    0.7133795048635477   H2132
    0.8429412947868006    0.7537993351838501    0.0467128381968811   H2133
    0.1213558329953087    0.2483700006669745    0.4550411036696871   H2134
    0.1213558329953087    0.2483700006669745    0.7883744370030206   H2135
    0.1213558329953087    0.2483700006669745    0.1217077703363538   H2136
    0.1213558329953087    0.5817033340003077    0.4550411036696871   H2137
    0.1213558329953087    0.5817033340003077    0.7883744370030206   H2138
    0.1213558329953087    0.5817033340003077    0.1217077703363538   H2139
    0.1213558329953087    0.9150366673336411    0.4550411036696871   H2140
    0.1213558329953087    0.9150366673336411    0.7883744370030206   H2141
    0.1213558329953087    0.9150366673336411    0.1217077703363538   H2142
    0.4546891663286421    0.2483700006669745    0.4550411036696871   H2143
    0.4546891663286421    0.2483700006669745    0.7883744370030206   H2144
    0.4546891663286421    0.2483700006669745    0.1217077703363538   H2145
    0.4546891663286421    0.5817033340003077    0.4550411036696871   H2146
    0.4546891663286421    0.5817033340003077    0.7883744370030206   H2147
    0.4546891663286421    0.5817033340003077    0.1217077703363538   H2148
    0.4546891663286421    0.9150366673336411    0.4550411036696871   H2149
    0.4546891663286421    0.9150366673336411    0.7883744370030206   H2150
    0.4546891663286421    0.9150366673336411    0.1217077703363538   H2151
    0.7880224996619754    0.2483700006669745    0.4550411036696871   H2152
    0.7880224996619754    0.2483700006669745    0.7883744370030206   H2153
    0.7880224996619754    0.2483700006669745    0.1217077703363538   H2154
    0.7880224996619754    0.5817033340003077    0.4550411036696871   H2155
    0.7880224996619754    0.5817033340003077    0.7883744370030206   H2156
    0.7880224996619754    0.5817033340003077    0.1217077703363538   H2157
    0.7880224996619754    0.9150366673336411    0.4550411036696871   H2158
    0.7880224996619754    0.9150366673336411    0.7883744370030206   H2159
    0.7880224996619754    0.9150366673336411    0.1217077703363538   H2160
    0.0129165789495787    0.2326328413321719    0.9964398038195758   H2161
    0.0129165789495787    0.2326328413321719    0.3297731371529091   H2162
    0.0129165789495787    0.2326328413321719    0.6631064704862424   H2163
    0.0129165789495787    0.5659661746655053    0.9964398038195758   H2164
    0.0129165789495787    0.5659661746655053    0.3297731371529091   H2165
    0.0129165789495787    0.5659661746655053    0.6631064704862424   H2166
    0.0129165789495787    0.8992995079988386    0.9964398038195758   H2167
    0.0129165789495787    0.8992995079988386    0.3297731371529091   H2168
    0.0129165789495787    0.8992995079988386    0.6631064704862424   H2169
    0.3462499122829120    0.2326328413321719    0.9964398038195758   H2170
    0.3462499122829120    0.2326328413321719    0.3297731371529091   H2171
    0.3462499122829120    0.2326328413321719    0.6631064704862424   H2172
    0.3462499122829120    0.5659661746655053    0.9964398038195758   H2173
    0.3462499122829120    0.5659661746655053    0.3297731371529091   H2174
    0.3462499122829120    0.5659661746655053    0.6631064704862424   H2175
    0.3462499122829120    0.8992995079988386    0.9964398038195758   H2176
    0.3462499122829120    0.8992995079988386    0.3297731371529091   H2177
    0.3462499122829120    0.8992995079988386    0.6631064704862424   H2178
    0.6795832456162453    0.2326328413321719    0.9964398038195758   H2179
    0.6795832456162453    0.2326328413321719    0.3297731371529091   H2180
    0.6795832456162453    0.2326328413321719    0.6631064704862424   H2181
    0.6795832456162453    0.5659661746655053    0.9964398038195758   H2182
    0.6795832456162453    0.5659661746655053    0.3297731371529091   H2183
    0.6795832456162453    0.5659661746655053    0.6631064704862424   H2184
    0.6795832456162453    0.8992995079988386    0.9964398038195758   H2185
    0.6795832456162453    0.8992995079988386    0.3297731371529091   H2186
    0.6795832456162453    0.8992995079988386    0.6631064704862424   H2187
    0.0879832485969141    0.2914585962984300    0.0444748675462735   H2188
    0.0879832485969141    0.2914585962984300    0.3778082008796069   H2189
    0.0879832485969141    0.2914585962984300    0.7111415342129401   H2190
    0.0879832485969141    0.6247919296317633    0.0444748675462735   H2191
    0.0879832485969141    0.6247919296317633    0.3778082008796069   H2192
    0.0879832485969141    0.6247919296317633    0.7111415342129401   H2193
    0.0879832485969141    0.9581252629650967    0.0444748675462735   H2194
    0.0879832485969141    0.9581252629650967    0.3778082008796069   H2195
    0.0879832485969141    0.9581252629650967    0.7111415342129401   H2196
    0.4213165819302474    0.2914585962984300    0.0444748675462735   H2197
    0.4213165819302474    0.2914585962984300    0.3778082008796069   H2198
    0.4213165819302474    0.2914585962984300    0.7111415342129401   H2199
    0.4213165819302474    0.6247919296317633    0.0444748675462735   H2200
    0.4213165819302474    0.6247919296317633    0.3778082008796069   H2201
    0.4213165819302474    0.6247919296317633    0.7111415342129401   H2202
    0.4213165819302474    0.9581252629650967    0.0444748675462735   H2203
    0.4213165819302474    0.9581252629650967    0.3778082008796069   H2204
    0.4213165819302474    0.9581252629650967    0.7111415342129401   H2205
    0.7546499152635807    0.2914585962984300    0.0444748675462735   H2206
    0.7546499152635807    0.2914585962984300    0.3778082008796069   H2207
    0.7546499152635807    0.2914585962984300    0.7111415342129401   H2208
    0.7546499152635807    0.6247919296317633    0.0444748675462735   H2209
    0.7546499152635807    0.6247919296317633    0.3778082008796069   H2210
    0.7546499152635807    0.6247919296317633    0.7111415342129401   H2211
    0.7546499152635807    0.9581252629650967    0.0444748675462735   H2212
    0.7546499152635807    0.9581252629650967    0.3778082008796069   H2213
    0.7546499152635807    0.9581252629650967    0.7111415342129401   H2214
    0.9603697114687384    0.1018293498156631    0.9545652496567016   H2215
    0.9603697114687384    0.1018293498156631    0.2878985829900349   H2216
    0.9603697114687384    0.1018293498156631    0.6212319163233682   H2217
    0.9603697114687384    0.4351626831489964    0.9545652496567016   H2218
    0.9603697114687384    0.4351626831489964    0.2878985829900349   H2219
    0.9603697114687384    0.4351626831489964    0.6212319163233682   H2220
    0.9603697114687384    0.7684960164823297    0.9545652496567016   H2221
    0.9603697114687384    0.7684960164823297    0.2878985829900349   H2222
    0.9603697114687384    0.7684960164823297    0.6212319163233682   H2223
    0.2937030448020718    0.1018293498156631    0.9545652496567016   H2224
    0.2937030448020718    0.1018293498156631    0.2878985829900349   H2225
    0.2937030448020718    0.1018293498156631    0.6212319163233682   H2226
    0.2937030448020718    0.4351626831489964    0.9545652496567016   H2227
    0.2937030448020718    0.4351626831489964    0.2878985829900349   H2228
    0.2937030448020718    0.4351626831489964    0.6212319163233682   H2229
    0.2937030448020718    0.7684960164823297    0.9545652496567016   H2230
    0.2937030448020718    0.7684960164823297    0.2878985829900349   H2231
    0.2937030448020718    0.7684960164823297    0.6212319163233682   H2232
    0.6270363781354051    0.1018293498156631    0.9545652496567016   H2233
    0.6270363781354051    0.1018293498156631    0.2878985829900349   H2234
    0.6270363781354051    0.1018293498156631    0.6212319163233682   H2235
    0.6270363781354051    0.4351626831489964    0.9545652496567016   H2236
    0.6270363781354051    0.4351626831489964    0.2878985829900349   H2237
    0.6270363781354051    0.4351626831489964    0.6212319163233682   H2238
    0.6270363781354051    0.7684960164823297    0.9545652496567016   H2239
    0.6270363781354051    0.7684960164823297    0.2878985829900349   H2240
    0.6270363781354051    0.7684960164823297    0.6212319163233682   H2241
    0.1455772573760593    0.1745601829058578    0.3368134278310828   H2242
    0.1455772573760593    0.1745601829058578    0.6701467611644161   H2243
    0.1455772573760593    0.1745601829058578    0.0034800944977493   H2244
    0.1455772573760593    0.5078935162391911    0.3368134278310828   H2245
    0.1455772573760593    0.5078935162391911    0.6701467611644161   H2246
    0.1455772573760593    0.5078935162391911    0.0034800944977493   H2247
    0.1455772573760593    0.8412268495725244    0.3368134278310828   H2248
    0.1455772573760593    0.8412268495725244    0.6701467611644161   H2249
    0.1455772573760593    0.8412268495725244    0.0034800944977493   H2250
    0.4789105907093927    0.1745601829058578    0.3368134278310828   H2251
    0.4789105907093927    0.1745601829058578    0.6701467611644161   H2252
    0.4789105907093927    0.1745601829058578    0.0034800944977493   H2253
    0.4789105907093927    0.5078935162391911    0.3368134278310828   H2254
    0.4789105907093927    0.5078935162391911    0.6701467611644161   H2255
    0.4789105907093927    0.5078935162391911    0.0034800944977493   H2256
    0.4789105907093927    0.8412268495725244    0.3368134278310828   H2257
    0.4789105907093927    0.8412268495725244    0.6701467611644161   H2258
    0.4789105907093927    0.8412268495725244    0.0034800944977493   H2259
    0.8122439240427259    0.1745601829058578    0.3368134278310828   H2260
    0.8122439240427259    0.1745601829058578    0.6701467611644161   H2261
    0.8122439240427259    0.1745601829058578    0.0034800944977493   H2262
    0.8122439240427259    0.5078935162391911    0.3368134278310828   H2263
    0.8122439240427259    0.5078935162391911    0.6701467611644161   H2264
    0.8122439240427259    0.5078935162391911    0.0034800944977493   H2265
    0.8122439240427259    0.8412268495725244    0.3368134278310828   H2266
    0.8122439240427259    0.8412268495725244    0.6701467611644161   H2267
    0.8122439240427259    0.8412268495725244    0.0034800944977493   H2268
    0.1444030864400471    0.2226910821363229    0.3266410205155217   H2269
    0.1444030864400471    0.2226910821363229    0.6599743538488549   H2270
    0.1444030864400471    0.2226910821363229    0.9933076871821883   H2271
    0.1444030864400471    0.5560244154696561    0.3266410205155217   H2272
    0.1444030864400471    0.5560244154696561    0.6599743538488549   H2273
    0.1444030864400471    0.5560244154696561    0.9933076871821883   H2274
    0.1444030864400471    0.8893577488029895    0.3266410205155217   H2275
    0.1444030864400471    0.8893577488029895    0.6599743538488549   H2276
    0.1444030864400471    0.8893577488029895    0.9933076871821883   H2277
    0.4777364197733804    0.2226910821363229    0.3266410205155217   H2278
    0.4777364197733804    0.2226910821363229    0.6599743538488549   H2279
    0.4777364197733804    0.2226910821363229    0.9933076871821883   H2280
    0.4777364197733804    0.5560244154696561    0.3266410205155217   H2281
    0.4777364197733804    0.5560244154696561    0.6599743538488549   H2282
    0.4777364197733804    0.5560244154696561    0.9933076871821883   H2283
    0.4777364197733804    0.8893577488029895    0.3266410205155217   H2284
    0.4777364197733804    0.8893577488029895    0.6599743538488549   H2285
    0.4777364197733804    0.8893577488029895    0.9933076871821883   H2286
    0.8110697531067137    0.2226910821363229    0.3266410205155217   H2287
    0.8110697531067137    0.2226910821363229    0.6599743538488549   H2288
    0.8110697531067137    0.2226910821363229    0.9933076871821883   H2289
    0.8110697531067137    0.5560244154696561    0.3266410205155217   H2290
    0.8110697531067137    0.5560244154696561    0.6599743538488549   H2291
    0.8110697531067137    0.5560244154696561    0.9933076871821883   H2292
    0.8110697531067137    0.8893577488029895    0.3266410205155217   H2293
    0.8110697531067137    0.8893577488029895    0.6599743538488549   H2294
    0.8110697531067137    0.8893577488029895    0.9933076871821883   H2295
    0.1262194327837520    0.0271016134600518    0.3708476644122290   H2296
    0.1262194327837520    0.0271016134600518    0.7041809977455623   H2297
    0.1262194327837520    0.0271016134600518    0.0375143310788957   H2298
    0.1262194327837520    0.3604349467933852    0.3708476644122290   H2299
    0.1262194327837520    0.3604349467933852    0.7041809977455623   H2300
    0.1262194327837520    0.3604349467933852    0.0375143310788957   H2301
    0.1262194327837520    0.6937682801267184    0.3708476644122290   H2302
    0.1262194327837520    0.6937682801267184    0.7041809977455623   H2303
    0.1262194327837520    0.6937682801267184    0.0375143310788957   H2304
    0.4595527661170853    0.0271016134600518    0.3708476644122290   H2305
    0.4595527661170853    0.0271016134600518    0.7041809977455623   H2306
    0.4595527661170853    0.0271016134600518    0.0375143310788957   H2307
    0.4595527661170853    0.3604349467933852    0.3708476644122290   H2308
    0.4595527661170853    0.3604349467933852    0.7041809977455623   H2309
    0.4595527661170853    0.3604349467933852    0.0375143310788957   H2310
    0.4595527661170853    0.6937682801267184    0.3708476644122290   H2311
    0.4595527661170853    0.6937682801267184    0.7041809977455623   H2312
    0.4595527661170853    0.6937682801267184    0.0375143310788957   H2313
    0.7928860994504185    0.0271016134600518    0.3708476644122290   H2314
    0.7928860994504185    0.0271016134600518    0.7041809977455623   H2315
    0.7928860994504185    0.0271016134600518    0.0375143310788957   H2316
    0.7928860994504185    0.3604349467933852    0.3708476644122290   H2317
    0.7928860994504185    0.3604349467933852    0.7041809977455623   H2318
    0.7928860994504185    0.3604349467933852    0.0375143310788957   H2319
    0.7928860994504185    0.6937682801267184    0.3708476644122290   H2320
    0.7928860994504185    0.6937682801267184    0.7041809977455623   H2321
    0.7928860994504185    0.6937682801267184    0.0375143310788957   H2322
    0.1459395647238549    0.0294612873105791    0.3176504415517884   H2323
    0.1459395647238549    0.0294612873105791    0.6509837748851217   H2324
    0.1459395647238549    0.0294612873105791    0.9843171082184551   H2325
    0.1459395647238549    0.3627946206439124    0.3176504415517884   H2326
    0.1459395647238549    0.3627946206439124    0.6509837748851217   H2327
    0.1459395647238549    0.3627946206439124    0.9843171082184551   H2328
    0.1459395647238549    0.6961279539772458    0.3176504415517884   H2329
    0.1459395647238549    0.6961279539772458    0.6509837748851217   H2330
    0.1459395647238549    0.6961279539772458    0.9843171082184551   H2331
    0.4792728980571882    0.0294612873105791    0.3176504415517884   H2332
    0.4792728980571882    0.0294612873105791    0.6509837748851217   H2333
    0.4792728980571882    0.0294612873105791    0.9843171082184551   H2334
    0.4792728980571882    0.3627946206439124    0.3176504415517884   H2335
    0.4792728980571882    0.3627946206439124    0.6509837748851217   H2336
    0.4792728980571882    0.3627946206439124    0.9843171082184551   H2337
    0.4792728980571882    0.6961279539772458    0.3176504415517884   H2338
    0.4792728980571882    0.6961279539772458    0.6509837748851217   H2339
    0.4792728980571882    0.6961279539772458    0.9843171082184551   H2340
    0.8126062313905216    0.0294612873105791    0.3176504415517884   H2341
    0.8126062313905216    0.0294612873105791    0.6509837748851217   H2342
    0.8126062313905216    0.0294612873105791    0.9843171082184551   H2343
    0.8126062313905216    0.3627946206439124    0.3176504415517884   H2344
    0.8126062313905216    0.3627946206439124    0.6509837748851217   H2345
    0.8126062313905216    0.3627946206439124    0.9843171082184551   H2346
    0.8126062313905216    0.6961279539772458    0.3176504415517884   H2347
    0.8126062313905216    0.6961279539772458    0.6509837748851217   H2348
    0.8126062313905216    0.6961279539772458    0.9843171082184551   H2349
    0.9668814306441378    0.1707465446362602    0.0418992755192536   H2350
    0.9668814306441378    0.1707465446362602    0.3752326088525869   H2351
    0.9668814306441378    0.1707465446362602    0.7085659421859203   H2352
    0.9668814306441378    0.5040798779695934    0.0418992755192536   H2353
    0.9668814306441378    0.5040798779695934    0.3752326088525869   H2354
    0.9668814306441378    0.5040798779695934    0.7085659421859203   H2355
    0.9668814306441378    0.8374132113029269    0.0418992755192536   H2356
    0.9668814306441378    0.8374132113029269    0.3752326088525869   H2357
    0.9668814306441378    0.8374132113029269    0.7085659421859203   H2358
    0.3002147639774712    0.1707465446362602    0.0418992755192536   H2359
    0.3002147639774712    0.1707465446362602    0.3752326088525869   H2360
    0.3002147639774712    0.1707465446362602    0.7085659421859203   H2361
    0.3002147639774712    0.5040798779695934    0.0418992755192536   H2362
    0.3002147639774712    0.5040798779695934    0.3752326088525869   H2363
    0.3002147639774712    0.5040798779695934    0.7085659421859203   H2364
    0.3002147639774712    0.8374132113029269    0.0418992755192536   H2365
    0.3002147639774712    0.8374132113029269    0.3752326088525869   H2366
    0.3002147639774712    0.8374132113029269    0.7085659421859203   H2367
    0.6335480973108045    0.1707465446362602    0.0418992755192536   H2368
    0.6335480973108045    0.1707465446362602    0.3752326088525869   H2369
    0.6335480973108045    0.1707465446362602    0.7085659421859203   H2370
    0.6335480973108045    0.5040798779695934    0.0418992755192536   H2371
    0.6335480973108045    0.5040798779695934    0.3752326088525869   H2372
    0.6335480973108045    0.5040798779695934    0.7085659421859203   H2373
    0.6335480973108045    0.8374132113029269    0.0418992755192536   H2374
    0.6335480973108045    0.8374132113029269    0.3752326088525869   H2375
    0.6335480973108045    0.8374132113029269    0.7085659421859203   H2376
    0.8688749669177704    0.2062699253590397    0.2992583057633930   H2377
    0.8688749669177704    0.2062699253590397    0.6325916390967263   H2378
    0.8688749669177704    0.2062699253590397    0.9659249724300596   H2379
    0.8688749669177704    0.5396032586923730    0.2992583057633930   H2380
    0.8688749669177704    0.5396032586923730    0.6325916390967263   H2381
    0.8688749669177704    0.5396032586923730    0.9659249724300596   H2382
    0.8688749669177704    0.8729365920257064    0.2992583057633930   H2383
    0.8688749669177704    0.8729365920257064    0.6325916390967263   H2384
    0.8688749669177704    0.8729365920257064    0.9659249724300596   H2385
    0.2022083002511037    0.2062699253590397    0.2992583057633930   H2386
    0.2022083002511037    0.2062699253590397    0.6325916390967263   H2387
    0.2022083002511037    0.2062699253590397    0.9659249724300596   H2388
    0.2022083002511037    0.5396032586923730    0.2992583057633930   H2389
    0.2022083002511037    0.5396032586923730    0.6325916390967263   H2390
    0.2022083002511037    0.5396032586923730    0.9659249724300596   H2391
    0.2022083002511037    0.8729365920257064    0.2992583057633930   H2392
    0.2022083002511037    0.8729365920257064    0.6325916390967263   H2393
    0.2022083002511037    0.8729365920257064    0.9659249724300596   H2394
    0.5355416335844370    0.2062699253590397    0.2992583057633930   H2395
    0.5355416335844370    0.2062699253590397    0.6325916390967263   H2396
    0.5355416335844370    0.2062699253590397    0.9659249724300596   H2397
    0.5355416335844370    0.5396032586923730    0.2992583057633930   H2398
    0.5355416335844370    0.5396032586923730    0.6325916390967263   H2399
    0.5355416335844370    0.5396032586923730    0.9659249724300596   H2400
    0.5355416335844370    0.8729365920257064    0.2992583057633930   H2401
    0.5355416335844370    0.8729365920257064    0.6325916390967263   H2402
    0.5355416335844370    0.8729365920257064    0.9659249724300596   H2403
    0.0027717332162177    0.2150858484135716    0.0642697225871949   H2404
    0.0027717332162177    0.2150858484135716    0.3976030559205282   H2405
    0.0027717332162177    0.2150858484135716    0.7309363892538615   H2406
    0.0027717332162177    0.5484191817469048    0.0642697225871949   H2407
    0.0027717332162177    0.5484191817469048    0.3976030559205282   H2408
    0.0027717332162177    0.5484191817469048    0.7309363892538615   H2409
    0.0027717332162177    0.8817525150802382    0.0642697225871949   H2410
    0.0027717332162177    0.8817525150802382    0.3976030559205282   H2411
    0.0027717332162177    0.8817525150802382    0.7309363892538615   H2412
    0.3361050665495510    0.2150858484135716    0.0642697225871949   H2413
    0.3361050665495510    0.2150858484135716    0.3976030559205282   H2414
    0.3361050665495510    0.2150858484135716    0.7309363892538615   H2415
    0.3361050665495510    0.5484191817469048    0.0642697225871949   H2416
    0.3361050665495510    0.5484191817469048    0.3976030559205282   H2417
    0.3361050665495510    0.5484191817469048    0.7309363892538615   H2418
    0.3361050665495510    0.8817525150802382    0.0642697225871949   H2419
    0.3361050665495510    0.8817525150802382    0.3976030559205282   H2420
    0.3361050665495510    0.8817525150802382    0.7309363892538615   H2421
    0.6694383998828843    0.2150858484135716    0.0642697225871949   H2422
    0.6694383998828843    0.2150858484135716    0.3976030559205282   H2423
    0.6694383998828843    0.2150858484135716    0.7309363892538615   H2424
    0.6694383998828843    0.5484191817469048    0.0642697225871949   H2425
    0.6694383998828843    0.5484191817469048    0.3976030559205282   H2426
    0.6694383998828843    0.5484191817469048    0.7309363892538615   H2427
    0.6694383998828843    0.8817525150802382    0.0642697225871949   H2428
    0.6694383998828843    0.8817525150802382    0.3976030559205282   H2429
    0.6694383998828843    0.8817525150802382    0.7309363892538615   H2430
    0.0628314523036390    0.1036961854498206    0.2749781673177732   H2431
    0.0628314523036390    0.1036961854498206    0.6083115006511065   H2432
    0.0628314523036390    0.1036961854498206    0.9416448339844399   H2433
    0.0628314523036390    0.4370295187831539    0.2749781673177732   H2434
    0.0628314523036390    0.4370295187831539    0.6083115006511065   H2435
    0.0628314523036390    0.4370295187831539    0.9416448339844399   H2436
    0.0628314523036390    0.7703628521164873    0.2749781673177732   H2437
    0.0628314523036390    0.7703628521164873    0.6083115006511065   H2438
    0.0628314523036390    0.7703628521164873    0.9416448339844399   H2439
    0.3961647856369723    0.1036961854498206    0.2749781673177732   H2440
    0.3961647856369723    0.1036961854498206    0.6083115006511065   H2441
    0.3961647856369723    0.1036961854498206    0.9416448339844399   H2442
    0.3961647856369723    0.4370295187831539    0.2749781673177732   H2443
    0.3961647856369723    0.4370295187831539    0.6083115006511065   H2444
    0.3961647856369723    0.4370295187831539    0.9416448339844399   H2445
    0.3961647856369723    0.7703628521164873    0.2749781673177732   H2446
    0.3961647856369723    0.7703628521164873    0.6083115006511065   H2447
    0.3961647856369723    0.7703628521164873    0.9416448339844399   H2448
    0.7294981189703057    0.1036961854498206    0.2749781673177732   H2449
    0.7294981189703057    0.1036961854498206    0.6083115006511065   H2450
    0.7294981189703057    0.1036961854498206    0.9416448339844399   H2451
    0.7294981189703057    0.4370295187831539    0.2749781673177732   H2452
    0.7294981189703057    0.4370295187831539    0.6083115006511065   H2453
    0.7294981189703057    0.4370295187831539    0.9416448339844399   H2454
    0.7294981189703057    0.7703628521164873    0.2749781673177732   H2455
    0.7294981189703057    0.7703628521164873    0.6083115006511065   H2456
    0.7294981189703057    0.7703628521164873    0.9416448339844399   H2457
    0.9856659314992436    0.2790287650783966    0.0714970842859742   H2458
    0.9856659314992436    0.2790287650783966    0.4048304176193076   H2459
    0.9856659314992436    0.2790287650783966    0.7381637509526409   H2460
    0.9856659314992436    0.6123620984117299    0.0714970842859742   H2461
    0.9856659314992436    0.6123620984117299    0.4048304176193076   H2462
    0.9856659314992436    0.6123620984117299    0.7381637509526409   H2463
    0.9856659314992436    0.9456954317450632    0.0714970842859742   H2464
    0.9856659314992436    0.9456954317450632    0.4048304176193076   H2465
    0.9856659314992436    0.9456954317450632    0.7381637509526409   H2466
    0.3189992648325769    0.2790287650783966    0.0714970842859742   H2467
    0.3189992648325769    0.2790287650783966    0.4048304176193076   H2468
    0.3189992648325769    0.2790287650783966    0.7381637509526409   H2469
    0.3189992648325769    0.6123620984117299    0.0714970842859742   H2470
    0.3189992648325769    0.6123620984117299    0.4048304176193076   H2471
    0.3189992648325769    0.6123620984117299    0.7381637509526409   H2472
    0.3189992648325769    0.9456954317450632    0.0714970842859742   H2473
    0.3189992648325769    0.9456954317450632    0.4048304176193076   H2474
    0.3189992648325769    0.9456954317450632    0.7381637509526409   H2475
    0.6523325981659103    0.2790287650783966    0.0714970842859742   H2476
    0.6523325981659103    0.2790287650783966    0.4048304176193076   H2477
    0.6523325981659103    0.2790287650783966    0.7381637509526409   H2478
    0.6523325981659103    0.6123620984117299    0.0714970842859742   H2479
    0.6523325981659103    0.6123620984117299    0.4048304176193076   H2480
    0.6523325981659103    0.6123620984117299    0.7381637509526409   H2481
    0.6523325981659103    0.9456954317450632    0.0714970842859742   H2482
    0.6523325981659103    0.9456954317450632    0.4048304176193076   H2483
    0.6523325981659103    0.9456954317450632    0.7381637509526409   H2484
    0.0622134755575483    0.1411898309671170    0.0457182369888826   H2485
    0.0622134755575483    0.1411898309671170    0.3790515703222160   H2486
    0.0622134755575483    0.1411898309671170    0.7123849036555493   H2487
    0.0622134755575483    0.4745231643004503    0.0457182369888826   H2488
    0.0622134755575483    0.4745231643004503    0.3790515703222160   H2489
    0.0622134755575483    0.4745231643004503    0.7123849036555493   H2490
    0.0622134755575483    0.8078564976337836    0.0457182369888826   H2491
    0.0622134755575483    0.8078564976337836    0.3790515703222160   H2492
    0.0622134755575483    0.8078564976337836    0.7123849036555493   H2493
    0.3955468088908816    0.1411898309671170    0.0457182369888826   H2494
    0.3955468088908816    0.1411898309671170    0.3790515703222160   H2495
    0.3955468088908816    0.1411898309671170    0.7123849036555493   H2496
    0.3955468088908816    0.4745231643004503    0.0457182369888826   H2497
    0.3955468088908816    0.4745231643004503    0.3790515703222160   H2498
    0.3955468088908816    0.4745231643004503    0.7123849036555493   H2499
    0.3955468088908816    0.8078564976337836    0.0457182369888826   H2500
    0.3955468088908816    0.8078564976337836    0.3790515703222160   H2501
    0.3955468088908816    0.8078564976337836    0.7123849036555493   H2502
    0.7288801422242149    0.1411898309671170    0.0457182369888826   H2503
    0.7288801422242149    0.1411898309671170    0.3790515703222160   H2504
    0.7288801422242149    0.1411898309671170    0.7123849036555493   H2505
    0.7288801422242149    0.4745231643004503    0.0457182369888826   H2506
    0.7288801422242149    0.4745231643004503    0.3790515703222160   H2507
    0.7288801422242149    0.4745231643004503    0.7123849036555493   H2508
    0.7288801422242149    0.8078564976337836    0.0457182369888826   H2509
    0.7288801422242149    0.8078564976337836    0.3790515703222160   H2510
    0.7288801422242149    0.8078564976337836    0.7123849036555493   H2511
    0.1567147540603068    0.0924299331218447    0.2453889994073917   H2512
    0.1567147540603068    0.0924299331218447    0.5787223327407249   H2513
    0.1567147540603068    0.0924299331218447    0.9120556660740583   H2514
    0.1567147540603068    0.4257632664551781    0.2453889994073917   H2515
    0.1567147540603068    0.4257632664551781    0.5787223327407249   H2516
    0.1567147540603068    0.4257632664551781    0.9120556660740583   H2517
    0.1567147540603068    0.7590965997885114    0.2453889994073917   H2518
    0.1567147540603068    0.7590965997885114    0.5787223327407249   H2519
    0.1567147540603068    0.7590965997885114    0.9120556660740583   H2520
    0.4900480873936401    0.0924299331218447    0.2453889994073917   H2521
    0.4900480873936401    0.0924299331218447    0.5787223327407249   H2522
    0.4900480873936401    0.0924299331218447    0.9120556660740583   H2523
    0.4900480873936401    0.4257632664551781    0.2453889994073917   H2524
    0.4900480873936401    0.4257632664551781    0.5787223327407249   H2525
    0.4900480873936401    0.4257632664551781    0.9120556660740583   H2526
    0.4900480873936401    0.7590965997885114    0.2453889994073917   H2527
    0.4900480873936401    0.7590965997885114    0.5787223327407249   H2528
    0.4900480873936401    0.7590965997885114    0.9120556660740583   H2529
    0.8233814207269734    0.0924299331218447    0.2453889994073917   H2530
    0.8233814207269734    0.0924299331218447    0.5787223327407249   H2531
    0.8233814207269734    0.0924299331218447    0.9120556660740583   H2532
    0.8233814207269734    0.4257632664551781    0.2453889994073917   H2533
    0.8233814207269734    0.4257632664551781    0.5787223327407249   H2534
    0.8233814207269734    0.4257632664551781    0.9120556660740583   H2535
    0.8233814207269734    0.7590965997885114    0.2453889994073917   H2536
    0.8233814207269734    0.7590965997885114    0.5787223327407249   H2537
    0.8233814207269734    0.7590965997885114    0.9120556660740583   H2538
    0.9171089225999326    0.3281266385285012    0.1214694487639181   H2539
    0.9171089225999326    0.3281266385285012    0.4548027820972514   H2540
    0.9171089225999326    0.3281266385285012    0.7881361154305848   H2541
    0.9171089225999326    0.6614599718618346    0.1214694487639181   H2542
    0.9171089225999326    0.6614599718618346    0.4548027820972514   H2543
    0.9171089225999326    0.6614599718618346    0.7881361154305848   H2544
    0.9171089225999326    0.9947933051951680    0.1214694487639181   H2545
    0.9171089225999326    0.9947933051951680    0.4548027820972514   H2546
    0.9171089225999326    0.9947933051951680    0.7881361154305848   H2547
    0.2504422559332659    0.3281266385285012    0.1214694487639181   H2548
    0.2504422559332659    0.3281266385285012    0.4548027820972514   H2549
    0.2504422559332659    0.3281266385285012    0.7881361154305848   H2550
    0.2504422559332659    0.6614599718618346    0.1214694487639181   H2551
    0.2504422559332659    0.6614599718618346    0.4548027820972514   H2552
    0.2504422559332659    0.6614599718618346    0.7881361154305848   H2553
    0.2504422559332659    0.9947933051951680    0.1214694487639181   H2554
    0.2504422559332659    0.9947933051951680    0.4548027820972514   H2555
    0.2504422559332659    0.9947933051951680    0.7881361154305848   H2556
    0.5837755892665992    0.3281266385285012    0.1214694487639181   H2557
    0.5837755892665992    0.3281266385285012    0.4548027820972514   H2558
    0.5837755892665992    0.3281266385285012    0.7881361154305848   H2559
    0.5837755892665992    0.6614599718618346    0.1214694487639181   H2560
    0.5837755892665992    0.6614599718618346    0.4548027820972514   H2561
    0.5837755892665992    0.6614599718618346    0.7881361154305848   H2562
    0.5837755892665992    0.9947933051951680    0.1214694487639181   H2563
    0.5837755892665992    0.9947933051951680    0.4548027820972514   H2564
    0.5837755892665992    0.9947933051951680    0.7881361154305848   H2565
    0.1818556817122896    0.0295240908022385    0.2581954671257863   H2566
    0.1818556817122896    0.0295240908022385    0.5915288004591197   H2567
    0.1818556817122896    0.0295240908022385    0.9248621337924530   H2568
    0.1818556817122896    0.3628574241355718    0.2581954671257863   H2569
    0.1818556817122896    0.3628574241355718    0.5915288004591197   H2570
    0.1818556817122896    0.3628574241355718    0.9248621337924530   H2571
    0.1818556817122896    0.6961907574689051    0.2581954671257863   H2572
    0.1818556817122896    0.6961907574689051    0.5915288004591197   H2573
    0.1818556817122896    0.6961907574689051    0.9248621337924530   H2574
    0.5151890150456229    0.0295240908022385    0.2581954671257863   H2575
    0.5151890150456229    0.0295240908022385    0.5915288004591197   H2576
    0.5151890150456229    0.0295240908022385    0.9248621337924530   H2577
    0.5151890150456229    0.3628574241355718    0.2581954671257863   H2578
    0.5151890150456229    0.3628574241355718    0.5915288004591197   H2579
    0.5151890150456229    0.3628574241355718    0.9248621337924530   H2580
    0.5151890150456229    0.6961907574689051    0.2581954671257863   H2581
    0.5151890150456229    0.6961907574689051    0.5915288004591197   H2582
    0.5151890150456229    0.6961907574689051    0.9248621337924530   H2583
    0.8485223483789561    0.0295240908022385    0.2581954671257863   H2584
    0.8485223483789561    0.0295240908022385    0.5915288004591197   H2585
    0.8485223483789561    0.0295240908022385    0.9248621337924530   H2586
    0.8485223483789561    0.3628574241355718    0.2581954671257863   H2587
    0.8485223483789561    0.3628574241355718    0.5915288004591197   H2588
    0.8485223483789561    0.3628574241355718    0.9248621337924530   H2589
    0.8485223483789561    0.6961907574689051    0.2581954671257863   H2590
    0.8485223483789561    0.6961907574689051    0.5915288004591197   H2591
    0.8485223483789561    0.6961907574689051    0.9248621337924530   H2592
    0.0454711666422882    0.2484613141566293    0.0544727034834977   H2593
    0.0454711666422882    0.2484613141566293    0.3878060368168310   H2594
    0.0454711666422882    0.2484613141566293    0.7211393701501644   H2595
    0.0454711666422882    0.5817946474899627    0.0544727034834977   H2596
    0.0454711666422882    0.5817946474899627    0.3878060368168310   H2597
    0.0454711666422882    0.5817946474899627    0.7211393701501644   H2598
    0.0454711666422882    0.9151279808232960    0.0544727034834977   H2599
    0.0454711666422882    0.9151279808232960    0.3878060368168310   H2600
    0.0454711666422882    0.9151279808232960    0.7211393701501644   H2601
    0.3788044999756215    0.2484613141566293    0.0544727034834977   H2602
    0.3788044999756215    0.2484613141566293    0.3878060368168310   H2603
    0.3788044999756215    0.2484613141566293    0.7211393701501644   H2604
    0.3788044999756215    0.5817946474899627    0.0544727034834977   H2605
    0.3788044999756215    0.5817946474899627    0.3878060368168310   H2606
    0.3788044999756215    0.5817946474899627    0.7211393701501644   H2607
    0.3788044999756215    0.9151279808232960    0.0544727034834977   H2608
    0.3788044999756215    0.9151279808232960    0.3878060368168310   H2609
    0.3788044999756215    0.9151279808232960    0.7211393701501644   H2610
    0.7121378333089547    0.2484613141566293    0.0544727034834977   H2611
    0.7121378333089547    0.2484613141566293    0.3878060368168310   H2612
    0.7121378333089547    0.2484613141566293    0.7211393701501644   H2613
    0.7121378333089547    0.5817946474899627    0.0544727034834977   H2614
    0.7121378333089547    0.5817946474899627    0.3878060368168310   H2615
    0.7121378333089547    0.5817946474899627    0.7211393701501644   H2616
    0.7121378333089547    0.9151279808232960    0.0544727034834977   H2617
    0.7121378333089547    0.9151279808232960    0.3878060368168310   H2618
    0.7121378333089547    0.9151279808232960    0.7211393701501644   H2619
    0.8313153726981943    0.1879346089849107    0.2953710853834004   H2620
    0.8313153726981943    0.1879346089849107    0.6287044187167337   H2621
    0.8313153726981943    0.1879346089849107    0.9620377520500671   H2622
    0.8313153726981943    0.5212679423182439    0.2953710853834004   H2623
    0.8313153726981943    0.5212679423182439    0.6287044187167337   H2624
    0.8313153726981943    0.5212679423182439    0.9620377520500671   H2625
    0.8313153726981943    0.8546012756515773    0.2953710853834004   H2626
    0.8313153726981943    0.8546012756515773    0.6287044187167337   H2627
    0.8313153726981943    0.8546012756515773    0.9620377520500671   H2628
    0.1646487060315276    0.1879346089849107    0.2953710853834004   H2629
    0.1646487060315276    0.1879346089849107    0.6287044187167337   H2630
    0.1646487060315276    0.1879346089849107    0.9620377520500671   H2631
    0.1646487060315276    0.5212679423182439    0.2953710853834004   H2632
    0.1646487060315276    0.5212679423182439    0.6287044187167337   H2633
    0.1646487060315276    0.5212679423182439    0.9620377520500671   H2634
    0.1646487060315276    0.8546012756515773    0.2953710853834004   H2635
    0.1646487060315276    0.8546012756515773    0.6287044187167337   H2636
    0.1646487060315276    0.8546012756515773    0.9620377520500671   H2637
    0.4979820393648609    0.1879346089849107    0.2953710853834004   H2638
    0.4979820393648609    0.1879346089849107    0.6287044187167337   H2639
    0.4979820393648609    0.1879346089849107    0.9620377520500671   H2640
    0.4979820393648609    0.5212679423182439    0.2953710853834004   H2641
    0.4979820393648609    0.5212679423182439    0.6287044187167337   H2642
    0.4979820393648609    0.5212679423182439    0.9620377520500671   H2643
    0.4979820393648609    0.8546012756515773    0.2953710853834004   H2644
    0.4979820393648609    0.8546012756515773    0.6287044187167337   H2645
    0.4979820393648609    0.8546012756515773    0.9620377520500671   H2646
    0.9421897240416193    0.3662357021385881    0.9943408797222402   H2647
    0.9421897240416193    0.3662357021385881    0.3276742130555735   H2648
    0.9421897240416193    0.3662357021385881    0.6610075463889068   H2649
    0.9421897240416193    0.6995690354719214    0.9943408797222402   H2650
    0.9421897240416193    0.6995690354719214    0.3276742130555735   H2651
    0.9421897240416193    0.6995690354719214    0.6610075463889068   H2652
    0.9421897240416193    0.0329023688052548    0.9943408797222402   H2653
    0.9421897240416193    0.0329023688052548    0.3276742130555735   H2654
    0.9421897240416193    0.0329023688052548    0.6610075463889068   H2655
    0.2755230573749526    0.3662357021385881    0.9943408797222402   H2656
    0.2755230573749526    0.3662357021385881    0.3276742130555735   H2657
    0.2755230573749526    0.3662357021385881    0.6610075463889068   H2658
    0.2755230573749526    0.6995690354719214    0.9943408797222402   H2659
    0.2755230573749526    0.6995690354719214    0.3276742130555735   H2660
    0.2755230573749526    0.6995690354719214    0.6610075463889068   H2661
    0.2755230573749526    0.0329023688052548    0.9943408797222402   H2662
    0.2755230573749526    0.0329023688052548    0.3276742130555735   H2663
    0.2755230573749526    0.0329023688052548    0.6610075463889068   H2664
    0.6088563907082859    0.3662357021385881    0.9943408797222402   H2665
    0.6088563907082859    0.3662357021385881    0.3276742130555735   H2666
    0.6088563907082859    0.3662357021385881    0.6610075463889068   H2667
    0.6088563907082859    0.6995690354719214    0.9943408797222402   H2668
    0.6088563907082859    0.6995690354719214    0.3276742130555735   H2669
    0.6088563907082859    0.6995690354719214    0.6610075463889068   H2670
    0.6088563907082859    0.0329023688052548    0.9943408797222402   H2671
    0.6088563907082859    0.0329023688052548    0.3276742130555735   H2672
    0.6088563907082859    0.0329023688052548    0.6610075463889068   H2673
    0.1065928895073618    0.1426852741795439    0.3570816195466343   H2674
    0.1065928895073618    0.1426852741795439    0.6904149528799676   H2675
    0.1065928895073618    0.1426852741795439    0.0237482862133009   H2676
    0.1065928895073618    0.4760186075128772    0.3570816195466343   H2677
    0.1065928895073618    0.4760186075128772    0.6904149528799676   H2678
    0.1065928895073618    0.4760186075128772    0.0237482862133009   H2679
    0.1065928895073618    0.8093519408462104    0.3570816195466343   H2680
    0.1065928895073618    0.8093519408462104    0.6904149528799676   H2681
    0.1065928895073618    0.8093519408462104    0.0237482862133009   H2682
    0.4399262228406952    0.1426852741795439    0.3570816195466343   H2683
    0.4399262228406952    0.1426852741795439    0.6904149528799676   H2684
    0.4399262228406952    0.1426852741795439    0.0237482862133009   H2685
    0.4399262228406952    0.4760186075128772    0.3570816195466343   H2686
    0.4399262228406952    0.4760186075128772    0.6904149528799676   H2687
    0.4399262228406952    0.4760186075128772    0.0237482862133009   H2688
    0.4399262228406952    0.8093519408462104    0.3570816195466343   H2689
    0.4399262228406952    0.8093519408462104    0.6904149528799676   H2690
    0.4399262228406952    0.8093519408462104    0.0237482862133009   H2691
    0.7732595561740285    0.1426852741795439    0.3570816195466343   H2692
    0.7732595561740285    0.1426852741795439    0.6904149528799676   H2693
    0.7732595561740285    0.1426852741795439    0.0237482862133009   H2694
    0.7732595561740285    0.4760186075128772    0.3570816195466343   H2695
    0.7732595561740285    0.4760186075128772    0.6904149528799676   H2696
    0.7732595561740285    0.4760186075128772    0.0237482862133009   H2697
    0.7732595561740285    0.8093519408462104    0.3570816195466343   H2698
    0.7732595561740285    0.8093519408462104    0.6904149528799676   H2699
    0.7732595561740285    0.8093519408462104    0.0237482862133009   H2700
    0.0779214168561242    0.2030880982191685    0.3180304182375235   H2701
    0.0779214168561242    0.2030880982191685    0.6513637515708568   H2702
    0.0779214168561242    0.2030880982191685    0.9846970849041902   H2703
    0.0779214168561242    0.5364214315525018    0.3180304182375235   H2704
    0.0779214168561242    0.5364214315525018    0.6513637515708568   H2705
    0.0779214168561242    0.5364214315525018    0.9846970849041902   H2706
    0.0779214168561242    0.8697547648858351    0.3180304182375235   H2707
    0.0779214168561242    0.8697547648858351    0.6513637515708568   H2708
    0.0779214168561242    0.8697547648858351    0.9846970849041902   H2709
    0.4112547501894575    0.2030880982191685    0.3180304182375235   H2710
    0.4112547501894575    0.2030880982191685    0.6513637515708568   H2711
    0.4112547501894575    0.2030880982191685    0.9846970849041902   H2712
    0.4112547501894575    0.5364214315525018    0.3180304182375235   H2713
    0.4112547501894575    0.5364214315525018    0.6513637515708568   H2714
    0.4112547501894575    0.5364214315525018    0.9846970849041902   H2715
    0.4112547501894575    0.8697547648858351    0.3180304182375235   H2716
    0.4112547501894575    0.8697547648858351    0.6513637515708568   H2717
    0.4112547501894575    0.8697547648858351    0.9846970849041902   H2718
    0.7445880835227908    0.2030880982191685    0.3180304182375235   H2719
    0.7445880835227908    0.2030880982191685    0.6513637515708568   H2720
    0.7445880835227908    0.2030880982191685    0.9846970849041902   H2721
    0.7445880835227908    0.5364214315525018    0.3180304182375235   H2722
    0.7445880835227908    0.5364214315525018    0.6513637515708568   H2723
    0.7445880835227908    0.5364214315525018    0.9846970849041902   H2724
    0.7445880835227908    0.8697547648858351    0.3180304182375235   H2725
    0.7445880835227908    0.8697547648858351    0.6513637515708568   H2726
    0.7445880835227908    0.8697547648858351    0.9846970849041902   H2727
    0.1241886440859176    0.1024647842185280    0.3190416898977882   H2728
    0.1241886440859176    0.1024647842185280    0.6523750232311216   H2729
    0.1241886440859176    0.1024647842185280    0.9857083565644549   H2730
    0.1241886440859176    0.4357981175518614    0.3190416898977882   H2731
    0.1241886440859176    0.4357981175518614    0.6523750232311216   H2732
    0.1241886440859176    0.4357981175518614    0.9857083565644549   H2733
    0.1241886440859176    0.7691314508851947    0.3190416898977882   H2734
    0.1241886440859176    0.7691314508851947    0.6523750232311216   H2735
    0.1241886440859176    0.7691314508851947    0.9857083565644549   H2736
    0.4575219774192510    0.1024647842185280    0.3190416898977882   H2737
    0.4575219774192510    0.1024647842185280    0.6523750232311216   H2738
    0.4575219774192510    0.1024647842185280    0.9857083565644549   H2739
    0.4575219774192510    0.4357981175518614    0.3190416898977882   H2740
    0.4575219774192510    0.4357981175518614    0.6523750232311216   H2741
    0.4575219774192510    0.4357981175518614    0.9857083565644549   H2742
    0.4575219774192510    0.7691314508851947    0.3190416898977882   H2743
    0.4575219774192510    0.7691314508851947    0.6523750232311216   H2744
    0.4575219774192510    0.7691314508851947    0.9857083565644549   H2745
    0.7908553107525843    0.1024647842185280    0.3190416898977882   H2746
    0.7908553107525843    0.1024647842185280    0.6523750232311216   H2747
    0.7908553107525843    0.1024647842185280    0.9857083565644549   H2748
    0.7908553107525843    0.4357981175518614    0.3190416898977882   H2749
    0.7908553107525843    0.4357981175518614    0.6523750232311216   H2750
    0.7908553107525843    0.4357981175518614    0.9857083565644549   H2751
    0.7908553107525843    0.7691314508851947    0.3190416898977882   H2752
    0.7908553107525843    0.7691314508851947    0.6523750232311216   H2753
    0.7908553107525843    0.7691314508851947    0.9857083565644549   H2754
    0.1689178856304289    0.2155154745570427    0.4689335150532535   H2755
    0.1689178856304289    0.2155154745570427    0.8022668483865868   H2756
    0.1689178856304289    0.2155154745570427    0.1356001817199202   H2757
    0.1689178856304289    0.5488488078903759    0.4689335150532535   H2758
    0.1689178856304289    0.5488488078903759    0.8022668483865868   H2759
    0.1689178856304289    0.5488488078903759    0.1356001817199202   H2760
    0.1689178856304289    0.8821821412237094    0.4689335150532535   H2761
    0.1689178856304289    0.8821821412237094    0.8022668483865868   H2762
    0.1689178856304289    0.8821821412237094    0.1356001817199202   H2763
    0.5022512189637622    0.2155154745570427    0.4689335150532535   H2764
    0.5022512189637622    0.2155154745570427    0.8022668483865868   H2765
    0.5022512189637622    0.2155154745570427    0.1356001817199202   H2766
    0.5022512189637622    0.5488488078903759    0.4689335150532535   H2767
    0.5022512189637622    0.5488488078903759    0.8022668483865868   H2768
    0.5022512189637622    0.5488488078903759    0.1356001817199202   H2769
    0.5022512189637622    0.8821821412237094    0.4689335150532535   H2770
    0.5022512189637622    0.8821821412237094    0.8022668483865868   H2771
    0.5022512189637622    0.8821821412237094    0.1356001817199202   H2772
    0.8355845522970956    0.2155154745570427    0.4689335150532535   H2773
    0.8355845522970956    0.2155154745570427    0.8022668483865868   H2774
    0.8355845522970956    0.2155154745570427    0.1356001817199202   H2775
    0.8355845522970956    0.5488488078903759    0.4689335150532535   H2776
    0.8355845522970956    0.5488488078903759    0.8022668483865868   H2777
    0.8355845522970956    0.5488488078903759    0.1356001817199202   H2778
    0.8355845522970956    0.8821821412237094    0.4689335150532535   H2779
    0.8355845522970956    0.8821821412237094    0.8022668483865868   H2780
    0.8355845522970956    0.8821821412237094    0.1356001817199202   H2781
    0.0667386216058913    0.1259428203346228    0.3351984661393769   H2782
    0.0667386216058913    0.1259428203346228    0.6685317994727102   H2783
    0.0667386216058913    0.1259428203346228    0.0018651328060435   H2784
    0.0667386216058913    0.4592761536679562    0.3351984661393769   H2785
    0.0667386216058913    0.4592761536679562    0.6685317994727102   H2786
    0.0667386216058913    0.4592761536679562    0.0018651328060435   H2787
    0.0667386216058913    0.7926094870012894    0.3351984661393769   H2788
    0.0667386216058913    0.7926094870012894    0.6685317994727102   H2789
    0.0667386216058913    0.7926094870012894    0.0018651328060435   H2790
    0.4000719549392245    0.1259428203346228    0.3351984661393769   H2791
    0.4000719549392245    0.1259428203346228    0.6685317994727102   H2792
    0.4000719549392245    0.1259428203346228    0.0018651328060435   H2793
    0.4000719549392245    0.4592761536679562    0.3351984661393769   H2794
    0.4000719549392245    0.4592761536679562    0.6685317994727102   H2795
    0.4000719549392245    0.4592761536679562    0.0018651328060435   H2796
    0.4000719549392245    0.7926094870012894    0.3351984661393769   H2797
    0.4000719549392245    0.7926094870012894    0.6685317994727102   H2798
    0.4000719549392245    0.7926094870012894    0.0018651328060435   H2799
    0.7334052882725579    0.1259428203346228    0.3351984661393769   H2800
    0.7334052882725579    0.1259428203346228    0.6685317994727102   H2801
    0.7334052882725579    0.1259428203346228    0.0018651328060435   H2802
    0.7334052882725579    0.4592761536679562    0.3351984661393769   H2803
    0.7334052882725579    0.4592761536679562    0.6685317994727102   H2804
    0.7334052882725579    0.4592761536679562    0.0018651328060435   H2805
    0.7334052882725579    0.7926094870012894    0.3351984661393769   H2806
    0.7334052882725579    0.7926094870012894    0.6685317994727102   H2807
    0.7334052882725579    0.7926094870012894    0.0018651328060435   H2808
    0.0956199281984699    0.1609402710650659    0.2958598781296137   H2809
    0.0956199281984699    0.1609402710650659    0.6291932114629470   H2810
    0.0956199281984699    0.1609402710650659    0.9625265447962803   H2811
    0.0956199281984699    0.4942736043983993    0.2958598781296137   H2812
    0.0956199281984699    0.4942736043983993    0.6291932114629470   H2813
    0.0956199281984699    0.4942736043983993    0.9625265447962803   H2814
    0.0956199281984699    0.8276069377317326    0.2958598781296137   H2815
    0.0956199281984699    0.8276069377317326    0.6291932114629470   H2816
    0.0956199281984699    0.8276069377317326    0.9625265447962803   H2817
    0.4289532615318032    0.1609402710650659    0.2958598781296137   H2818
    0.4289532615318032    0.1609402710650659    0.6291932114629470   H2819
    0.4289532615318032    0.1609402710650659    0.9625265447962803   H2820
    0.4289532615318032    0.4942736043983993    0.2958598781296137   H2821
    0.4289532615318032    0.4942736043983993    0.6291932114629470   H2822
    0.4289532615318032    0.4942736043983993    0.9625265447962803   H2823
    0.4289532615318032    0.8276069377317326    0.2958598781296137   H2824
    0.4289532615318032    0.8276069377317326    0.6291932114629470   H2825
    0.4289532615318032    0.8276069377317326    0.9625265447962803   H2826
    0.7622865948651365    0.1609402710650659    0.2958598781296137   H2827
    0.7622865948651365    0.1609402710650659    0.6291932114629470   H2828
    0.7622865948651365    0.1609402710650659    0.9625265447962803   H2829
    0.7622865948651365    0.4942736043983993    0.2958598781296137   H2830
    0.7622865948651365    0.4942736043983993    0.6291932114629470   H2831
    0.7622865948651365    0.4942736043983993    0.9625265447962803   H2832
    0.7622865948651365    0.8276069377317326    0.2958598781296137   H2833
    0.7622865948651365    0.8276069377317326    0.6291932114629470   H2834
    0.7622865948651365    0.8276069377317326    0.9625265447962803   H2835
    0.1336185765990923    0.2225638608671518    0.3593264772222656   H2836
    0.1336185765990923    0.2225638608671518    0.6926598105555988   H2837
    0.1336185765990923    0.2225638608671518    0.0259931438889320   H2838
    0.1336185765990923    0.5558971942004851    0.3593264772222656   H2839
    0.1336185765990923    0.5558971942004851    0.6926598105555988   H2840
    0.1336185765990923    0.5558971942004851    0.0259931438889320   H2841
    0.1336185765990923    0.8892305275338185    0.3593264772222656   H2842
    0.1336185765990923    0.8892305275338185    0.6926598105555988   H2843
    0.1336185765990923    0.8892305275338185    0.0259931438889320   H2844
    0.4669519099324256    0.2225638608671518    0.3593264772222656   H2845
    0.4669519099324256    0.2225638608671518    0.6926598105555988   H2846
    0.4669519099324256    0.2225638608671518    0.0259931438889320   H2847
    0.4669519099324256    0.5558971942004851    0.3593264772222656   H2848
    0.4669519099324256    0.5558971942004851    0.6926598105555988   H2849
    0.4669519099324256    0.5558971942004851    0.0259931438889320   H2850
    0.4669519099324256    0.8892305275338185    0.3593264772222656   H2851
    0.4669519099324256    0.8892305275338185    0.6926598105555988   H2852
    0.4669519099324256    0.8892305275338185    0.0259931438889320   H2853
    0.8002852432657589    0.2225638608671518    0.3593264772222656   H2854
    0.8002852432657589    0.2225638608671518    0.6926598105555988   H2855
    0.8002852432657589    0.2225638608671518    0.0259931438889320   H2856
    0.8002852432657589    0.5558971942004851    0.3593264772222656   H2857
    0.8002852432657589    0.5558971942004851    0.6926598105555988   H2858
    0.8002852432657589    0.5558971942004851    0.0259931438889320   H2859
    0.8002852432657589    0.8892305275338185    0.3593264772222656   H2860
    0.8002852432657589    0.8892305275338185    0.6926598105555988   H2861
    0.8002852432657589    0.8892305275338185    0.0259931438889320   H2862
    0.0530549864061385    0.0601657752049833    0.2853894034740038   H2863
    0.0530549864061385    0.0601657752049833    0.6187227368073370   H2864
    0.0530549864061385    0.0601657752049833    0.9520560701406704   H2865
    0.0530549864061385    0.3934991085383167    0.2853894034740038   H2866
    0.0530549864061385    0.3934991085383167    0.6187227368073370   H2867
    0.0530549864061385    0.3934991085383167    0.9520560701406704   H2868
    0.0530549864061385    0.7268324418716500    0.2853894034740038   H2869
    0.0530549864061385    0.7268324418716500    0.6187227368073370   H2870
    0.0530549864061385    0.7268324418716500    0.9520560701406704   H2871
    0.3863883197394718    0.0601657752049833    0.2853894034740038   H2872
    0.3863883197394718    0.0601657752049833    0.6187227368073370   H2873
    0.3863883197394718    0.0601657752049833    0.9520560701406704   H2874
    0.3863883197394718    0.3934991085383167    0.2853894034740038   H2875
    0.3863883197394718    0.3934991085383167    0.6187227368073370   H2876
    0.3863883197394718    0.3934991085383167    0.9520560701406704   H2877
    0.3863883197394718    0.7268324418716500    0.2853894034740038   H2878
    0.3863883197394718    0.7268324418716500    0.6187227368073370   H2879
    0.3863883197394718    0.7268324418716500    0.9520560701406704   H2880
    0.7197216530728051    0.0601657752049833    0.2853894034740038   H2881
    0.7197216530728051    0.0601657752049833    0.6187227368073370   H2882
    0.7197216530728051    0.0601657752049833    0.9520560701406704   H2883
    0.7197216530728051    0.3934991085383167    0.2853894034740038   H2884
    0.7197216530728051    0.3934991085383167    0.6187227368073370   H2885
    0.7197216530728051    0.3934991085383167    0.9520560701406704   H2886
    0.7197216530728051    0.7268324418716500    0.2853894034740038   H2887
    0.7197216530728051    0.7268324418716500    0.6187227368073370   H2888
    0.7197216530728051    0.7268324418716500    0.9520560701406704   H2889
    0.9111472894907975    0.2863866743829333    0.0405175735123935   H2890
    0.9111472894907975    0.2863866743829333    0.3738509068457268   H2891
    0.9111472894907975    0.2863866743829333    0.7071842401790601   H2892
    0.9111472894907975    0.6197200077162666    0.0405175735123935   H2893
    0.9111472894907975    0.6197200077162666    0.3738509068457268   H2894
    0.9111472894907975    0.6197200077162666    0.7071842401790601   H2895
    0.9111472894907975    0.9530533410495999    0.0405175735123935   H2896
    0.9111472894907975    0.9530533410495999    0.3738509068457268   H2897
    0.9111472894907975    0.9530533410495999    0.7071842401790601   H2898
    0.2444806228241308    0.2863866743829333    0.0405175735123935   H2899
    0.2444806228241308    0.2863866743829333    0.3738509068457268   H2900
    0.2444806228241308    0.2863866743829333    0.7071842401790601   H2901
    0.2444806228241308    0.6197200077162666    0.0405175735123935   H2902
    0.2444806228241308    0.6197200077162666    0.3738509068457268   H2903
    0.2444806228241308    0.6197200077162666    0.7071842401790601   H2904
    0.2444806228241308    0.9530533410495999    0.0405175735123935   H2905
    0.2444806228241308    0.9530533410495999    0.3738509068457268   H2906
    0.2444806228241308    0.9530533410495999    0.7071842401790601   H2907
    0.5778139561574641    0.2863866743829333    0.0405175735123935   H2908
    0.5778139561574641    0.2863866743829333    0.3738509068457268   H2909
    0.5778139561574641    0.2863866743829333    0.7071842401790601   H2910
    0.5778139561574641    0.6197200077162666    0.0405175735123935   H2911
    0.5778139561574641    0.6197200077162666    0.3738509068457268   H2912
    0.5778139561574641    0.6197200077162666    0.7071842401790601   H2913
    0.5778139561574641    0.9530533410495999    0.0405175735123935   H2914
    0.5778139561574641    0.9530533410495999    0.3738509068457268   H2915
    0.5778139561574641    0.9530533410495999    0.7071842401790601   H2916
    0.0284892907934630    0.0634972022553523    0.0082459743340420   H2917
    0.0284892907934630    0.0634972022553523    0.3415793076673753   H2918
    0.0284892907934630    0.0634972022553523    0.6749126410007086   H2919
    0.0284892907934630    0.3968305355886856    0.0082459743340420   H2920
    0.0284892907934630    0.3968305355886856    0.3415793076673753   H2921
    0.0284892907934630    0.3968305355886856    0.6749126410007086   H2922
    0.0284892907934630    0.7301638689220189    0.0082459743340420   H2923
    0.0284892907934630    0.7301638689220189    0.3415793076673753   H2924
    0.0284892907934630    0.7301638689220189    0.6749126410007086   H2925
    0.3618226241267963    0.0634972022553523    0.0082459743340420   H2926
    0.3618226241267963    0.0634972022553523    0.3415793076673753   H2927
    0.3618226241267963    0.0634972022553523    0.6749126410007086   H2928
    0.3618226241267963    0.3968305355886856    0.0082459743340420   H2929
    0.3618226241267963    0.3968305355886856    0.3415793076673753   H2930
    0.3618226241267963    0.3968305355886856    0.6749126410007086   H2931
    0.3618226241267963    0.7301638689220189    0.0082459743340420   H2932
    0.3618226241267963    0.7301638689220189    0.3415793076673753   H2933
    0.3618226241267963    0.7301638689220189    0.6749126410007086   H2934
    0.6951559574601297    0.0634972022553523    0.0082459743340420   H2935
    0.6951559574601297    0.0634972022553523    0.3415793076673753   H2936
    0.6951559574601297    0.0634972022553523    0.6749126410007086   H2937
    0.6951559574601297    0.3968305355886856    0.0082459743340420   H2938
    0.6951559574601297    0.3968305355886856    0.3415793076673753   H2939
    0.6951559574601297    0.3968305355886856    0.6749126410007086   H2940
    0.6951559574601297    0.7301638689220189    0.0082459743340420   H2941
    0.6951559574601297    0.7301638689220189    0.3415793076673753   H2942
    0.6951559574601297    0.7301638689220189    0.6749126410007086   H2943
    0.1052446619793181    0.4219146006940462    0.2323428340397650   H2944
    0.1052446619793181    0.4219146006940462    0.5656761673730983   H2945
    0.1052446619793181    0.4219146006940462    0.8990095007064316   H2946
    0.1052446619793181    0.7552479340273794    0.2323428340397650   H2947
    0.1052446619793181    0.7552479340273794    0.5656761673730983   H2948
    0.1052446619793181    0.7552479340273794    0.8990095007064316   H2949
    0.1052446619793181    0.0885812673607127    0.2323428340397650   H2950
    0.1052446619793181    0.0885812673607127    0.5656761673730983   H2951
    0.1052446619793181    0.0885812673607127    0.8990095007064316   H2952
    0.4385779953126514    0.4219146006940462    0.2323428340397650   H2953
    0.4385779953126514    0.4219146006940462    0.5656761673730983   H2954
    0.4385779953126514    0.4219146006940462    0.8990095007064316   H2955
    0.4385779953126514    0.7552479340273794    0.2323428340397650   H2956
    0.4385779953126514    0.7552479340273794    0.5656761673730983   H2957
    0.4385779953126514    0.7552479340273794    0.8990095007064316   H2958
    0.4385779953126514    0.0885812673607127    0.2323428340397650   H2959
    0.4385779953126514    0.0885812673607127    0.5656761673730983   H2960
    0.4385779953126514    0.0885812673607127    0.8990095007064316   H2961
    0.7719113286459847    0.4219146006940462    0.2323428340397650   H2962
    0.7719113286459847    0.4219146006940462    0.5656761673730983   H2963
    0.7719113286459847    0.4219146006940462    0.8990095007064316   H2964
    0.7719113286459847    0.7552479340273794    0.2323428340397650   H2965
    0.7719113286459847    0.7552479340273794    0.5656761673730983   H2966
    0.7719113286459847    0.7552479340273794    0.8990095007064316   H2967
    0.7719113286459847    0.0885812673607127    0.2323428340397650   H2968
    0.7719113286459847    0.0885812673607127    0.5656761673730983   H2969
    0.7719113286459847    0.0885812673607127    0.8990095007064316   H2970
    0.9536178393489576    0.2951997802018285    0.0943376577674559   H2971
    0.9536178393489576    0.2951997802018285    0.4276709911007892   H2972
    0.9536178393489576    0.2951997802018285    0.7610043244341226   H2973
    0.9536178393489576    0.6285331135351618    0.0943376577674559   H2974
    0.9536178393489576    0.6285331135351618    0.4276709911007892   H2975
    0.9536178393489576    0.6285331135351618    0.7610043244341226   H2976
    0.9536178393489576    0.9618664468684952    0.0943376577674559   H2977
    0.9536178393489576    0.9618664468684952    0.4276709911007892   H2978
    0.9536178393489576    0.9618664468684952    0.7610043244341226   H2979
    0.2869511726822909    0.2951997802018285    0.0943376577674559   H2980
    0.2869511726822909    0.2951997802018285    0.4276709911007892   H2981
    0.2869511726822909    0.2951997802018285    0.7610043244341226   H2982
    0.2869511726822909    0.6285331135351618    0.0943376577674559   H2983
    0.2869511726822909    0.6285331135351618    0.4276709911007892   H2984
    0.2869511726822909    0.6285331135351618    0.7610043244341226   H2985
    0.2869511726822909    0.9618664468684952    0.0943376577674559   H2986
    0.2869511726822909    0.9618664468684952    0.4276709911007892   H2987
    0.2869511726822909    0.9618664468684952    0.7610043244341226   H2988
    0.6202845060156241    0.2951997802018285    0.0943376577674559   H2989
    0.6202845060156241    0.2951997802018285    0.4276709911007892   H2990
    0.6202845060156241    0.2951997802018285    0.7610043244341226   H2991
    0.6202845060156241    0.6285331135351618    0.0943376577674559   H2992
    0.6202845060156241    0.6285331135351618    0.4276709911007892   H2993
    0.6202845060156241    0.6285331135351618    0.7610043244341226   H2994
    0.6202845060156241    0.9618664468684952    0.0943376577674559   H2995
    0.6202845060156241    0.9618664468684952    0.4276709911007892   H2996
    0.6202845060156241    0.9618664468684952    0.7610043244341226   H2997
    0.0166774636320624    0.0870274988713695    0.2891940788525000   H2998
    0.0166774636320624    0.0870274988713695    0.6225274121858333   H2999
    0.0166774636320624    0.0870274988713695    0.9558607455191666   H3000
    0.0166774636320624    0.4203608322047028    0.2891940788525000   H3001
    0.0166774636320624    0.4203608322047028    0.6225274121858333   H3002
    0.0166774636320624    0.4203608322047028    0.9558607455191666   H3003
    0.0166774636320624    0.7536941655380361    0.2891940788525000   H3004
    0.0166774636320624    0.7536941655380361    0.6225274121858333   H3005
    0.0166774636320624    0.7536941655380361    0.9558607455191666   H3006
    0.3500107969653957    0.0870274988713695    0.2891940788525000   H3007
    0.3500107969653957    0.0870274988713695    0.6225274121858333   H3008
    0.3500107969653957    0.0870274988713695    0.9558607455191666   H3009
    0.3500107969653957    0.4203608322047028    0.2891940788525000   H3010
    0.3500107969653957    0.4203608322047028    0.6225274121858333   H3011
    0.3500107969653957    0.4203608322047028    0.9558607455191666   H3012
    0.3500107969653957    0.7536941655380361    0.2891940788525000   H3013
    0.3500107969653957    0.7536941655380361    0.6225274121858333   H3014
    0.3500107969653957    0.7536941655380361    0.9558607455191666   H3015
    0.6833441302987291    0.0870274988713695    0.2891940788525000   H3016
    0.6833441302987291    0.0870274988713695    0.6225274121858333   H3017
    0.6833441302987291    0.0870274988713695    0.9558607455191666   H3018
    0.6833441302987291    0.4203608322047028    0.2891940788525000   H3019
    0.6833441302987291    0.4203608322047028    0.6225274121858333   H3020
    0.6833441302987291    0.4203608322047028    0.9558607455191666   H3021
    0.6833441302987291    0.7536941655380361    0.2891940788525000   H3022
    0.6833441302987291    0.7536941655380361    0.6225274121858333   H3023
    0.6833441302987291    0.7536941655380361    0.9558607455191666   H3024
    0.0262070929457614    0.2731757125468071    0.1598697231369194   H3025
    0.0262070929457614    0.2731757125468071    0.4932030564702528   H3026
    0.0262070929457614    0.2731757125468071    0.8265363898035860   H3027
    0.0262070929457614    0.6065090458801403    0.1598697231369194   H3028
    0.0262070929457614    0.6065090458801403    0.4932030564702528   H3029
    0.0262070929457614    0.6065090458801403    0.8265363898035860   H3030
    0.0262070929457614    0.9398423792134737    0.1598697231369194   H3031
    0.0262070929457614    0.9398423792134737    0.4932030564702528   H3032
    0.0262070929457614    0.9398423792134737    0.8265363898035860   H3033
    0.3595404262790947    0.2731757125468071    0.1598697231369194   H3034
    0.3595404262790947    0.2731757125468071    0.4932030564702528   H3035
    0.3595404262790947    0.2731757125468071    0.8265363898035860   H3036
    0.3595404262790947    0.6065090458801403    0.1598697231369194   H3037
    0.3595404262790947    0.6065090458801403    0.4932030564702528   H3038
    0.3595404262790947    0.6065090458801403    0.8265363898035860   H3039
    0.3595404262790947    0.9398423792134737    0.1598697231369194   H3040
    0.3595404262790947    0.9398423792134737    0.4932030564702528   H3041
    0.3595404262790947    0.9398423792134737    0.8265363898035860   H3042
    0.6928737596124279    0.2731757125468071    0.1598697231369194   H3043
    0.6928737596124279    0.2731757125468071    0.4932030564702528   H3044
    0.6928737596124279    0.2731757125468071    0.8265363898035860   H3045
    0.6928737596124279    0.6065090458801403    0.1598697231369194   H3046
    0.6928737596124279    0.6065090458801403    0.4932030564702528   H3047
    0.6928737596124279    0.6065090458801403    0.8265363898035860   H3048
    0.6928737596124279    0.9398423792134737    0.1598697231369194   H3049
    0.6928737596124279    0.9398423792134737    0.4932030564702528   H3050
    0.6928737596124279    0.9398423792134737    0.8265363898035860   H3051
    0.0768305523419184    0.2634848399697325    0.2217580203381187   H3052
    0.0768305523419184    0.2634848399697325    0.5550913536714520   H3053
    0.0768305523419184    0.2634848399697325    0.8884246870047854   H3054
    0.0768305523419184    0.5968181733030657    0.2217580203381187   H3055
    0.0768305523419184    0.5968181733030657    0.5550913536714520   H3056
    0.0768305523419184    0.5968181733030657    0.8884246870047854   H3057
    0.0768305523419184    0.9301515066363991    0.2217580203381187   H3058
    0.0768305523419184    0.9301515066363991    0.5550913536714520   H3059
    0.0768305523419184    0.9301515066363991    0.8884246870047854   H3060
    0.4101638856752517    0.2634848399697325    0.2217580203381187   H3061
    0.4101638856752517    0.2634848399697325    0.5550913536714520   H3062
    0.4101638856752517    0.2634848399697325    0.8884246870047854   H3063
    0.4101638856752517    0.5968181733030657    0.2217580203381187   H3064
    0.4101638856752517    0.5968181733030657    0.5550913536714520   H3065
    0.4101638856752517    0.5968181733030657    0.8884246870047854   H3066
    0.4101638856752517    0.9301515066363991    0.2217580203381187   H3067
    0.4101638856752517    0.9301515066363991    0.5550913536714520   H3068
    0.4101638856752517    0.9301515066363991    0.8884246870047854   H3069
    0.7434972190085851    0.2634848399697325    0.2217580203381187   H3070
    0.7434972190085851    0.2634848399697325    0.5550913536714520   H3071
    0.7434972190085851    0.2634848399697325    0.8884246870047854   H3072
    0.7434972190085851    0.5968181733030657    0.2217580203381187   H3073
    0.7434972190085851    0.5968181733030657    0.5550913536714520   H3074
    0.7434972190085851    0.5968181733030657    0.8884246870047854   H3075
    0.7434972190085851    0.9301515066363991    0.2217580203381187   H3076
    0.7434972190085851    0.9301515066363991    0.5550913536714520   H3077
    0.7434972190085851    0.9301515066363991    0.8884246870047854   H3078
    0.0609231903049317    0.3333465293552059    0.1820075660550085   H3079
    0.0609231903049317    0.3333465293552059    0.5153408993883417   H3080
    0.0609231903049317    0.3333465293552059    0.8486742327216750   H3081
    0.0609231903049317    0.6666798626885392    0.1820075660550085   H3082
    0.0609231903049317    0.6666798626885392    0.5153408993883417   H3083
    0.0609231903049317    0.6666798626885392    0.8486742327216750   H3084
    0.0609231903049317    0.0000131960218726    0.1820075660550085   H3085
    0.0609231903049317    0.0000131960218726    0.5153408993883417   H3086
    0.0609231903049317    0.0000131960218726    0.8486742327216750   H3087
    0.3942565236382650    0.3333465293552059    0.1820075660550085   H3088
    0.3942565236382650    0.3333465293552059    0.5153408993883417   H3089
    0.3942565236382650    0.3333465293552059    0.8486742327216750   H3090
    0.3942565236382650    0.6666798626885392    0.1820075660550085   H3091
    0.3942565236382650    0.6666798626885392    0.5153408993883417   H3092
    0.3942565236382650    0.6666798626885392    0.8486742327216750   H3093
    0.3942565236382650    0.0000131960218726    0.1820075660550085   H3094
    0.3942565236382650    0.0000131960218726    0.5153408993883417   H3095
    0.3942565236382650    0.0000131960218726    0.8486742327216750   H3096
    0.7275898569715983    0.3333465293552059    0.1820075660550085   H3097
    0.7275898569715983    0.3333465293552059    0.5153408993883417   H3098
    0.7275898569715983    0.3333465293552059    0.8486742327216750   H3099
    0.7275898569715983    0.6666798626885392    0.1820075660550085   H3100
    0.7275898569715983    0.6666798626885392    0.5153408993883417   H3101
    0.7275898569715983    0.6666798626885392    0.8486742327216750   H3102
    0.7275898569715983    0.0000131960218726    0.1820075660550085   H3103
    0.7275898569715983    0.0000131960218726    0.5153408993883417   H3104
    0.7275898569715983    0.0000131960218726    0.8486742327216750   H3105
    0.1391509994935561    0.2793725766160152    0.2201217459152418   H3106
    0.1391509994935561    0.2793725766160152    0.5534550792485751   H3107
    0.1391509994935561    0.2793725766160152    0.8867884125819084   H3108
    0.1391509994935561    0.6127059099493485    0.2201217459152418   H3109
    0.1391509994935561    0.6127059099493485    0.5534550792485751   H3110
    0.1391509994935561    0.6127059099493485    0.8867884125819084   H3111
    0.1391509994935561    0.9460392432826819    0.2201217459152418   H3112
    0.1391509994935561    0.9460392432826819    0.5534550792485751   H3113
    0.1391509994935561    0.9460392432826819    0.8867884125819084   H3114
    0.4724843328268894    0.2793725766160152    0.2201217459152418   H3115
    0.4724843328268894    0.2793725766160152    0.5534550792485751   H3116
    0.4724843328268894    0.2793725766160152    0.8867884125819084   H3117
    0.4724843328268894    0.6127059099493485    0.2201217459152418   H3118
    0.4724843328268894    0.6127059099493485    0.5534550792485751   H3119
    0.4724843328268894    0.6127059099493485    0.8867884125819084   H3120
    0.4724843328268894    0.9460392432826819    0.2201217459152418   H3121
    0.4724843328268894    0.9460392432826819    0.5534550792485751   H3122
    0.4724843328268894    0.9460392432826819    0.8867884125819084   H3123
    0.8058176661602228    0.2793725766160152    0.2201217459152418   H3124
    0.8058176661602228    0.2793725766160152    0.5534550792485751   H3125
    0.8058176661602228    0.2793725766160152    0.8867884125819084   H3126
    0.8058176661602228    0.6127059099493485    0.2201217459152418   H3127
    0.8058176661602228    0.6127059099493485    0.5534550792485751   H3128
    0.8058176661602228    0.6127059099493485    0.8867884125819084   H3129
    0.8058176661602228    0.9460392432826819    0.2201217459152418   H3130
    0.8058176661602228    0.9460392432826819    0.5534550792485751   H3131
    0.8058176661602228    0.9460392432826819    0.8867884125819084   H3132
    0.2668054922531666    0.1492343611973222    0.4158008437981336   H3133
    0.2668054922531666    0.1492343611973222    0.7491341771314670   H3134
    0.2668054922531666    0.1492343611973222    0.0824675104648003   H3135
    0.2668054922531666    0.4825676945306555    0.4158008437981336   H3136
    0.2668054922531666    0.4825676945306555    0.7491341771314670   H3137
    0.2668054922531666    0.4825676945306555    0.0824675104648003   H3138
    0.2668054922531666    0.8159010278639888    0.4158008437981336   H3139
    0.2668054922531666    0.8159010278639888    0.7491341771314670   H3140
    0.2668054922531666    0.8159010278639888    0.0824675104648003   H3141
    0.6001388255864999    0.1492343611973222    0.4158008437981336   H3142
    0.6001388255864999    0.1492343611973222    0.7491341771314670   H3143
    0.6001388255864999    0.1492343611973222    0.0824675104648003   H3144
    0.6001388255864999    0.4825676945306555    0.4158008437981336   H3145
    0.6001388255864999    0.4825676945306555    0.7491341771314670   H3146
    0.6001388255864999    0.4825676945306555    0.0824675104648003   H3147
    0.6001388255864999    0.8159010278639888    0.4158008437981336   H3148
    0.6001388255864999    0.8159010278639888    0.7491341771314670   H3149
    0.6001388255864999    0.8159010278639888    0.0824675104648003   H3150
    0.9334721589198332    0.1492343611973222    0.4158008437981336   H3151
    0.9334721589198332    0.1492343611973222    0.7491341771314670   H3152
    0.9334721589198332    0.1492343611973222    0.0824675104648003   H3153
    0.9334721589198332    0.4825676945306555    0.4158008437981336   H3154
    0.9334721589198332    0.4825676945306555    0.7491341771314670   H3155
    0.9334721589198332    0.4825676945306555    0.0824675104648003   H3156
    0.9334721589198332    0.8159010278639888    0.4158008437981336   H3157
    0.9334721589198332    0.8159010278639888    0.7491341771314670   H3158
    0.9334721589198332    0.8159010278639888    0.0824675104648003   H3159
    0.1864887885069905    0.3621743731084595    0.5201211403609634   H3160
    0.1864887885069905    0.3621743731084595    0.8534544736942966   H3161
    0.1864887885069905    0.3621743731084595    0.1867878070276299   H3162
    0.1864887885069905    0.6955077064417928    0.5201211403609634   H3163
    0.1864887885069905    0.6955077064417928    0.8534544736942966   H3164
    0.1864887885069905    0.6955077064417928    0.1867878070276299   H3165
    0.1864887885069905    0.0288410397751262    0.5201211403609634   H3166
    0.1864887885069905    0.0288410397751262    0.8534544736942966   H3167
    0.1864887885069905    0.0288410397751262    0.1867878070276299   H3168
    0.5198221218403238    0.3621743731084595    0.5201211403609634   H3169
    0.5198221218403238    0.3621743731084595    0.8534544736942966   H3170
    0.5198221218403238    0.3621743731084595    0.1867878070276299   H3171
    0.5198221218403238    0.6955077064417928    0.5201211403609634   H3172
    0.5198221218403238    0.6955077064417928    0.8534544736942966   H3173
    0.5198221218403238    0.6955077064417928    0.1867878070276299   H3174
    0.5198221218403238    0.0288410397751262    0.5201211403609634   H3175
    0.5198221218403238    0.0288410397751262    0.8534544736942966   H3176
    0.5198221218403238    0.0288410397751262    0.1867878070276299   H3177
    0.8531554551736571    0.3621743731084595    0.5201211403609634   H3178
    0.8531554551736571    0.3621743731084595    0.8534544736942966   H3179
    0.8531554551736571    0.3621743731084595    0.1867878070276299   H3180
    0.8531554551736571    0.6955077064417928    0.5201211403609634   H3181
    0.8531554551736571    0.6955077064417928    0.8534544736942966   H3182
    0.8531554551736571    0.6955077064417928    0.1867878070276299   H3183
    0.8531554551736571    0.0288410397751262    0.5201211403609634   H3184
    0.8531554551736571    0.0288410397751262    0.8534544736942966   H3185
    0.8531554551736571    0.0288410397751262    0.1867878070276299   H3186
    0.2356995679205098    0.2541189766508977    0.1067579962955468   H3187
    0.2356995679205098    0.2541189766508977    0.4400913296288801   H3188
    0.2356995679205098    0.2541189766508977    0.7734246629622135   H3189
    0.2356995679205098    0.5874523099842310    0.1067579962955468   H3190
    0.2356995679205098    0.5874523099842310    0.4400913296288801   H3191
    0.2356995679205098    0.5874523099842310    0.7734246629622135   H3192
    0.2356995679205098    0.9207856433175643    0.1067579962955468   H3193
    0.2356995679205098    0.9207856433175643    0.4400913296288801   H3194
    0.2356995679205098    0.9207856433175643    0.7734246629622135   H3195
    0.5690329012538431    0.2541189766508977    0.1067579962955468   H3196
    0.5690329012538431    0.2541189766508977    0.4400913296288801   H3197
    0.5690329012538431    0.2541189766508977    0.7734246629622135   H3198
    0.5690329012538431    0.5874523099842310    0.1067579962955468   H3199
    0.5690329012538431    0.5874523099842310    0.4400913296288801   H3200
    0.5690329012538431    0.5874523099842310    0.7734246629622135   H3201
    0.5690329012538431    0.9207856433175643    0.1067579962955468   H3202
    0.5690329012538431    0.9207856433175643    0.4400913296288801   H3203
    0.5690329012538431    0.9207856433175643    0.7734246629622135   H3204
    0.9023662345871764    0.2541189766508977    0.1067579962955468   H3205
    0.9023662345871764    0.2541189766508977    0.4400913296288801   H3206
    0.9023662345871764    0.2541189766508977    0.7734246629622135   H3207
    0.9023662345871764    0.5874523099842310    0.1067579962955468   H3208
    0.9023662345871764    0.5874523099842310    0.4400913296288801   H3209
    0.9023662345871764    0.5874523099842310    0.7734246629622135   H3210
    0.9023662345871764    0.9207856433175643    0.1067579962955468   H3211
    0.9023662345871764    0.9207856433175643    0.4400913296288801   H3212
    0.9023662345871764    0.9207856433175643    0.7734246629622135   H3213
    0.2039279600969393    0.2720166393702761    0.0991483756472269   H3214
    0.2039279600969393    0.2720166393702761    0.4324817089805602   H3215
    0.2039279600969393    0.2720166393702761    0.7658150423138936   H3216
    0.2039279600969393    0.6053499727036094    0.0991483756472269   H3217
    0.2039279600969393    0.6053499727036094    0.4324817089805602   H3218
    0.2039279600969393    0.6053499727036094    0.7658150423138936   H3219
    0.2039279600969393    0.9386833060369427    0.0991483756472269   H3220
    0.2039279600969393    0.9386833060369427    0.4324817089805602   H3221
    0.2039279600969393    0.9386833060369427    0.7658150423138936   H3222
    0.5372612934302725    0.2720166393702761    0.0991483756472269   H3223
    0.5372612934302725    0.2720166393702761    0.4324817089805602   H3224
    0.5372612934302725    0.2720166393702761    0.7658150423138936   H3225
    0.5372612934302725    0.6053499727036094    0.0991483756472269   H3226
    0.5372612934302725    0.6053499727036094    0.4324817089805602   H3227
    0.5372612934302725    0.6053499727036094    0.7658150423138936   H3228
    0.5372612934302725    0.9386833060369427    0.0991483756472269   H3229
    0.5372612934302725    0.9386833060369427    0.4324817089805602   H3230
    0.5372612934302725    0.9386833060369427    0.7658150423138936   H3231
    0.8705946267636060    0.2720166393702761    0.0991483756472269   H3232
    0.8705946267636060    0.2720166393702761    0.4324817089805602   H3233
    0.8705946267636060    0.2720166393702761    0.7658150423138936   H3234
    0.8705946267636060    0.6053499727036094    0.0991483756472269   H3235
    0.8705946267636060    0.6053499727036094    0.4324817089805602   H3236
    0.8705946267636060    0.6053499727036094    0.7658150423138936   H3237
    0.8705946267636060    0.9386833060369427    0.0991483756472269   H3238
    0.8705946267636060    0.9386833060369427    0.4324817089805602   H3239
    0.8705946267636060    0.9386833060369427    0.7658150423138936   H3240
    0.1652098263915250    0.1871090330171542    0.2090467676165964   H3241
    0.1652098263915250    0.1871090330171542    0.5423801009499296   H3242
    0.1652098263915250    0.1871090330171542    0.8757134342832630   H3243
    0.1652098263915250    0.5204423663504876    0.2090467676165964   H3244
    0.1652098263915250    0.5204423663504876    0.5423801009499296   H3245
    0.1652098263915250    0.5204423663504876    0.8757134342832630   H3246
    0.1652098263915250    0.8537756996838208    0.2090467676165964   H3247
    0.1652098263915250    0.8537756996838208    0.5423801009499296   H3248
    0.1652098263915250    0.8537756996838208    0.8757134342832630   H3249
    0.4985431597248584    0.1871090330171542    0.2090467676165964   H3250
    0.4985431597248584    0.1871090330171542    0.5423801009499296   H3251
    0.4985431597248584    0.1871090330171542    0.8757134342832630   H3252
    0.4985431597248584    0.5204423663504876    0.2090467676165964   H3253
    0.4985431597248584    0.5204423663504876    0.5423801009499296   H3254
    0.4985431597248584    0.5204423663504876    0.8757134342832630   H3255
    0.4985431597248584    0.8537756996838208    0.2090467676165964   H3256
    0.4985431597248584    0.8537756996838208    0.5423801009499296   H3257
    0.4985431597248584    0.8537756996838208    0.8757134342832630   H3258
    0.8318764930581917    0.1871090330171542    0.2090467676165964   H3259
    0.8318764930581917    0.1871090330171542    0.5423801009499296   H3260
    0.8318764930581917    0.1871090330171542    0.8757134342832630   H3261
    0.8318764930581917    0.5204423663504876    0.2090467676165964   H3262
    0.8318764930581917    0.5204423663504876    0.5423801009499296   H3263
    0.8318764930581917    0.5204423663504876    0.8757134342832630   H3264
    0.8318764930581917    0.8537756996838208    0.2090467676165964   H3265
    0.8318764930581917    0.8537756996838208    0.5423801009499296   H3266
    0.8318764930581917    0.8537756996838208    0.8757134342832630   H3267
    0.0918104858058652    0.1321489347403872    0.0909434368900836   H3268
    0.0918104858058652    0.1321489347403872    0.4242767702234169   H3269
    0.0918104858058652    0.1321489347403872    0.7576101035567502   H3270
    0.0918104858058652    0.4654822680737206    0.0909434368900836   H3271
    0.0918104858058652    0.4654822680737206    0.4242767702234169   H3272
    0.0918104858058652    0.4654822680737206    0.7576101035567502   H3273
    0.0918104858058652    0.7988156014070539    0.0909434368900836   H3274
    0.0918104858058652    0.7988156014070539    0.4242767702234169   H3275
    0.0918104858058652    0.7988156014070539    0.7576101035567502   H3276
    0.4251438191391985    0.1321489347403872    0.0909434368900836   H3277
    0.4251438191391985    0.1321489347403872    0.4242767702234169   H3278
    0.4251438191391985    0.1321489347403872    0.7576101035567502   H3279
    0.4251438191391985    0.4654822680737206    0.0909434368900836   H3280
    0.4251438191391985    0.4654822680737206    0.4242767702234169   H3281
    0.4251438191391985    0.4654822680737206    0.7576101035567502   H3282
    0.4251438191391985    0.7988156014070539    0.0909434368900836   H3283
    0.4251438191391985    0.7988156014070539    0.4242767702234169   H3284
    0.4251438191391985    0.7988156014070539    0.7576101035567502   H3285
    0.7584771524725318    0.1321489347403872    0.0909434368900836   H3286
    0.7584771524725318    0.1321489347403872    0.4242767702234169   H3287
    0.7584771524725318    0.1321489347403872    0.7576101035567502   H3288
    0.7584771524725318    0.4654822680737206    0.0909434368900836   H3289
    0.7584771524725318    0.4654822680737206    0.4242767702234169   H3290
    0.7584771524725318    0.4654822680737206    0.7576101035567502   H3291
    0.7584771524725318    0.7988156014070539    0.0909434368900836   H3292
    0.7584771524725318    0.7988156014070539    0.4242767702234169   H3293
    0.7584771524725318    0.7988156014070539    0.7576101035567502   H3294
    0.0034455606230350    0.1122638801511935    0.0569524246245095   H3295
    0.0034455606230350    0.1122638801511935    0.3902857579578428   H3296
    0.0034455606230350    0.1122638801511935    0.7236190912911762   H3297
    0.0034455606230350    0.4455972134845268    0.0569524246245095   H3298
    0.0034455606230350    0.4455972134845268    0.3902857579578428   H3299
    0.0034455606230350    0.4455972134845268    0.7236190912911762   H3300
    0.0034455606230350    0.7789305468178602    0.0569524246245095   H3301
    0.0034455606230350    0.7789305468178602    0.3902857579578428   H3302
    0.0034455606230350    0.7789305468178602    0.7236190912911762   H3303
    0.3367788939563683    0.1122638801511935    0.0569524246245095   H3304
    0.3367788939563683    0.1122638801511935    0.3902857579578428   H3305
    0.3367788939563683    0.1122638801511935    0.7236190912911762   H3306
    0.3367788939563683    0.4455972134845268    0.0569524246245095   H3307
    0.3367788939563683    0.4455972134845268    0.3902857579578428   H3308
    0.3367788939563683    0.4455972134845268    0.7236190912911762   H3309
    0.3367788939563683    0.7789305468178602    0.0569524246245095   H3310
    0.3367788939563683    0.7789305468178602    0.3902857579578428   H3311
    0.3367788939563683    0.7789305468178602    0.7236190912911762   H3312
    0.6701122272897015    0.1122638801511935    0.0569524246245095   H3313
    0.6701122272897015    0.1122638801511935    0.3902857579578428   H3314
    0.6701122272897015    0.1122638801511935    0.7236190912911762   H3315
    0.6701122272897015    0.4455972134845268    0.0569524246245095   H3316
    0.6701122272897015    0.4455972134845268    0.3902857579578428   H3317
    0.6701122272897015    0.4455972134845268    0.7236190912911762   H3318
    0.6701122272897015    0.7789305468178602    0.0569524246245095   H3319
    0.6701122272897015    0.7789305468178602    0.3902857579578428   H3320
    0.6701122272897015    0.7789305468178602    0.7236190912911762   H3321
    0.0633397290525660    0.1293713662608247    0.1030065143723934   H3322
    0.0633397290525660    0.1293713662608247    0.4363398477057268   H3323
    0.0633397290525660    0.1293713662608247    0.7696731810390600   H3324
    0.0633397290525660    0.4627046995941580    0.1030065143723934   H3325
    0.0633397290525660    0.4627046995941580    0.4363398477057268   H3326
    0.0633397290525660    0.4627046995941580    0.7696731810390600   H3327
    0.0633397290525660    0.7960380329274913    0.1030065143723934   H3328
    0.0633397290525660    0.7960380329274913    0.4363398477057268   H3329
    0.0633397290525660    0.7960380329274913    0.7696731810390600   H3330
    0.3966730623858994    0.1293713662608247    0.1030065143723934   H3331
    0.3966730623858994    0.1293713662608247    0.4363398477057268   H3332
    0.3966730623858994    0.1293713662608247    0.7696731810390600   H3333
    0.3966730623858994    0.4627046995941580    0.1030065143723934   H3334
    0.3966730623858994    0.4627046995941580    0.4363398477057268   H3335
    0.3966730623858994    0.4627046995941580    0.7696731810390600   H3336
    0.3966730623858994    0.7960380329274913    0.1030065143723934   H3337
    0.3966730623858994    0.7960380329274913    0.4363398477057268   H3338
    0.3966730623858994    0.7960380329274913    0.7696731810390600   H3339
    0.7300063957192326    0.1293713662608247    0.1030065143723934   H3340
    0.7300063957192326    0.1293713662608247    0.4363398477057268   H3341
    0.7300063957192326    0.1293713662608247    0.7696731810390600   H3342
    0.7300063957192326    0.4627046995941580    0.1030065143723934   H3343
    0.7300063957192326    0.4627046995941580    0.4363398477057268   H3344
    0.7300063957192326    0.4627046995941580    0.7696731810390600   H3345
    0.7300063957192326    0.7960380329274913    0.1030065143723934   H3346
    0.7300063957192326    0.7960380329274913    0.4363398477057268   H3347
    0.7300063957192326    0.7960380329274913    0.7696731810390600   H3348
    0.1530321600306379    0.1403813489657530    0.2259402651456252   H3349
    0.1530321600306379    0.1403813489657530    0.5592735984789585   H3350
    0.1530321600306379    0.1403813489657530    0.8926069318122918   H3351
    0.1530321600306379    0.4737146822990864    0.2259402651456252   H3352
    0.1530321600306379    0.4737146822990864    0.5592735984789585   H3353
    0.1530321600306379    0.4737146822990864    0.8926069318122918   H3354
    0.1530321600306379    0.8070480156324198    0.2259402651456252   H3355
    0.1530321600306379    0.8070480156324198    0.5592735984789585   H3356
    0.1530321600306379    0.8070480156324198    0.8926069318122918   H3357
    0.4863654933639712    0.1403813489657530    0.2259402651456252   H3358
    0.4863654933639712    0.1403813489657530    0.5592735984789585   H3359
    0.4863654933639712    0.1403813489657530    0.8926069318122918   H3360
    0.4863654933639712    0.4737146822990864    0.2259402651456252   H3361
    0.4863654933639712    0.4737146822990864    0.5592735984789585   H3362
    0.4863654933639712    0.4737146822990864    0.8926069318122918   H3363
    0.4863654933639712    0.8070480156324198    0.2259402651456252   H3364
    0.4863654933639712    0.8070480156324198    0.5592735984789585   H3365
    0.4863654933639712    0.8070480156324198    0.8926069318122918   H3366
    0.8196988266973046    0.1403813489657530    0.2259402651456252   H3367
    0.8196988266973046    0.1403813489657530    0.5592735984789585   H3368
    0.8196988266973046    0.1403813489657530    0.8926069318122918   H3369
    0.8196988266973046    0.4737146822990864    0.2259402651456252   H3370
    0.8196988266973046    0.4737146822990864    0.5592735984789585   H3371
    0.8196988266973046    0.4737146822990864    0.8926069318122918   H3372
    0.8196988266973046    0.8070480156324198    0.2259402651456252   H3373
    0.8196988266973046    0.8070480156324198    0.5592735984789585   H3374
    0.8196988266973046    0.8070480156324198    0.8926069318122918   H3375
    0.2330125163443125    0.3376361413978329    0.0812651777555288   H3376
    0.2330125163443125    0.3376361413978329    0.4145985110888621   H3377
    0.2330125163443125    0.3376361413978329    0.7479318444221954   H3378
    0.2330125163443125    0.6709694747311661    0.0812651777555288   H3379
    0.2330125163443125    0.6709694747311661    0.4145985110888621   H3380
    0.2330125163443125    0.6709694747311661    0.7479318444221954   H3381
    0.2330125163443125    0.0043028080644993    0.0812651777555288   H3382
    0.2330125163443125    0.0043028080644993    0.4145985110888621   H3383
    0.2330125163443125    0.0043028080644993    0.7479318444221954   H3384
    0.5663458496776458    0.3376361413978329    0.0812651777555288   H3385
    0.5663458496776458    0.3376361413978329    0.4145985110888621   H3386
    0.5663458496776458    0.3376361413978329    0.7479318444221954   H3387
    0.5663458496776458    0.6709694747311661    0.0812651777555288   H3388
    0.5663458496776458    0.6709694747311661    0.4145985110888621   H3389
    0.5663458496776458    0.6709694747311661    0.7479318444221954   H3390
    0.5663458496776458    0.0043028080644993    0.0812651777555288   H3391
    0.5663458496776458    0.0043028080644993    0.4145985110888621   H3392
    0.5663458496776458    0.0043028080644993    0.7479318444221954   H3393
    0.8996791830109792    0.3376361413978329    0.0812651777555288   H3394
    0.8996791830109792    0.3376361413978329    0.4145985110888621   H3395
    0.8996791830109792    0.3376361413978329    0.7479318444221954   H3396
    0.8996791830109792    0.6709694747311661    0.0812651777555288   H3397
    0.8996791830109792    0.6709694747311661    0.4145985110888621   H3398
    0.8996791830109792    0.6709694747311661    0.7479318444221954   H3399
    0.8996791830109792    0.0043028080644993    0.0812651777555288   H3400
    0.8996791830109792    0.0043028080644993    0.4145985110888621   H3401
    0.8996791830109792    0.0043028080644993    0.7479318444221954   H3402
    0.2267289342011827    0.2384939153304065    0.0464314586571349   H3403
    0.2267289342011827    0.2384939153304065    0.3797647919904682   H3404
    0.2267289342011827    0.2384939153304065    0.7130981253238016   H3405
    0.2267289342011827    0.5718272486637398    0.0464314586571349   H3406
    0.2267289342011827    0.5718272486637398    0.3797647919904682   H3407
    0.2267289342011827    0.5718272486637398    0.7130981253238016   H3408
    0.2267289342011827    0.9051605819970732    0.0464314586571349   H3409
    0.2267289342011827    0.9051605819970732    0.3797647919904682   H3410
    0.2267289342011827    0.9051605819970732    0.7130981253238016   H3411
    0.5600622675345159    0.2384939153304065    0.0464314586571349   H3412
    0.5600622675345159    0.2384939153304065    0.3797647919904682   H3413
    0.5600622675345159    0.2384939153304065    0.7130981253238016   H3414
    0.5600622675345159    0.5718272486637398    0.0464314586571349   H3415
    0.5600622675345159    0.5718272486637398    0.3797647919904682   H3416
    0.5600622675345159    0.5718272486637398    0.7130981253238016   H3417
    0.5600622675345159    0.9051605819970732    0.0464314586571349   H3418
    0.5600622675345159    0.9051605819970732    0.3797647919904682   H3419
    0.5600622675345159    0.9051605819970732    0.7130981253238016   H3420
    0.8933956008678493    0.2384939153304065    0.0464314586571349   H3421
    0.8933956008678493    0.2384939153304065    0.3797647919904682   H3422
    0.8933956008678493    0.2384939153304065    0.7130981253238016   H3423
    0.8933956008678493    0.5718272486637398    0.0464314586571349   H3424
    0.8933956008678493    0.5718272486637398    0.3797647919904682   H3425
    0.8933956008678493    0.5718272486637398    0.7130981253238016   H3426
    0.8933956008678493    0.9051605819970732    0.0464314586571349   H3427
    0.8933956008678493    0.9051605819970732    0.3797647919904682   H3428
    0.8933956008678493    0.9051605819970732    0.7130981253238016   H3429
    0.1896361900477501    0.2389006958005186    0.0411237803697246   H3430
    0.1896361900477501    0.2389006958005186    0.3744571137030580   H3431
    0.1896361900477501    0.2389006958005186    0.7077904470363913   H3432
    0.1896361900477501    0.5722340291338519    0.0411237803697246   H3433
    0.1896361900477501    0.5722340291338519    0.3744571137030580   H3434
    0.1896361900477501    0.5722340291338519    0.7077904470363913   H3435
    0.1896361900477501    0.9055673624671853    0.0411237803697246   H3436
    0.1896361900477501    0.9055673624671853    0.3744571137030580   H3437
    0.1896361900477501    0.9055673624671853    0.7077904470363913   H3438
    0.5229695233810834    0.2389006958005186    0.0411237803697246   H3439
    0.5229695233810834    0.2389006958005186    0.3744571137030580   H3440
    0.5229695233810834    0.2389006958005186    0.7077904470363913   H3441
    0.5229695233810834    0.5722340291338519    0.0411237803697246   H3442
    0.5229695233810834    0.5722340291338519    0.3744571137030580   H3443
    0.5229695233810834    0.5722340291338519    0.7077904470363913   H3444
    0.5229695233810834    0.9055673624671853    0.0411237803697246   H3445
    0.5229695233810834    0.9055673624671853    0.3744571137030580   H3446
    0.5229695233810834    0.9055673624671853    0.7077904470363913   H3447
    0.8563028567144167    0.2389006958005186    0.0411237803697246   H3448
    0.8563028567144167    0.2389006958005186    0.3744571137030580   H3449
    0.8563028567144167    0.2389006958005186    0.7077904470363913   H3450
    0.8563028567144167    0.5722340291338519    0.0411237803697246   H3451
    0.8563028567144167    0.5722340291338519    0.3744571137030580   H3452
    0.8563028567144167    0.5722340291338519    0.7077904470363913   H3453
    0.8563028567144167    0.9055673624671853    0.0411237803697246   H3454
    0.8563028567144167    0.9055673624671853    0.3744571137030580   H3455
    0.8563028567144167    0.9055673624671853    0.7077904470363913   H3456
    0.1874672483966920    0.2452793217901679    0.2517075590768399   H3457
    0.1874672483966920    0.2452793217901679    0.5850408924101733   H3458
    0.1874672483966920    0.2452793217901679    0.9183742257435066   H3459
    0.1874672483966920    0.5786126551235011    0.2517075590768399   H3460
    0.1874672483966920    0.5786126551235011    0.5850408924101733   H3461
    0.1874672483966920    0.5786126551235011    0.9183742257435066   H3462
    0.1874672483966920    0.9119459884568345    0.2517075590768399   H3463
    0.1874672483966920    0.9119459884568345    0.5850408924101733   H3464
    0.1874672483966920    0.9119459884568345    0.9183742257435066   H3465
    0.5208005817300254    0.2452793217901679    0.2517075590768399   H3466
    0.5208005817300254    0.2452793217901679    0.5850408924101733   H3467
    0.5208005817300254    0.2452793217901679    0.9183742257435066   H3468
    0.5208005817300254    0.5786126551235011    0.2517075590768399   H3469
    0.5208005817300254    0.5786126551235011    0.5850408924101733   H3470
    0.5208005817300254    0.5786126551235011    0.9183742257435066   H3471
    0.5208005817300254    0.9119459884568345    0.2517075590768399   H3472
    0.5208005817300254    0.9119459884568345    0.5850408924101733   H3473
    0.5208005817300254    0.9119459884568345    0.9183742257435066   H3474
    0.8541339150633587    0.2452793217901679    0.2517075590768399   H3475
    0.8541339150633587    0.2452793217901679    0.5850408924101733   H3476
    0.8541339150633587    0.2452793217901679    0.9183742257435066   H3477
    0.8541339150633587    0.5786126551235011    0.2517075590768399   H3478
    0.8541339150633587    0.5786126551235011    0.5850408924101733   H3479
    0.8541339150633587    0.5786126551235011    0.9183742257435066   H3480
    0.8541339150633587    0.9119459884568345    0.2517075590768399   H3481
    0.8541339150633587    0.9119459884568345    0.5850408924101733   H3482
    0.8541339150633587    0.9119459884568345    0.9183742257435066   H3483
    0.0253359508762959    0.0476873260482694    0.0416112053355256   H3484
    0.0253359508762959    0.0476873260482694    0.3749445386688589   H3485
    0.0253359508762959    0.0476873260482694    0.7082778720021922   H3486
    0.0253359508762959    0.3810206593816028    0.0416112053355256   H3487
    0.0253359508762959    0.3810206593816028    0.3749445386688589   H3488
    0.0253359508762959    0.3810206593816028    0.7082778720021922   H3489
    0.0253359508762959    0.7143539927149360    0.0416112053355256   H3490
    0.0253359508762959    0.7143539927149360    0.3749445386688589   H3491
    0.0253359508762959    0.7143539927149360    0.7082778720021922   H3492
    0.3586692842096292    0.0476873260482694    0.0416112053355256   H3493
    0.3586692842096292    0.0476873260482694    0.3749445386688589   H3494
    0.3586692842096292    0.0476873260482694    0.7082778720021922   H3495
    0.3586692842096292    0.3810206593816028    0.0416112053355256   H3496
    0.3586692842096292    0.3810206593816028    0.3749445386688589   H3497
    0.3586692842096292    0.3810206593816028    0.7082778720021922   H3498
    0.3586692842096292    0.7143539927149360    0.0416112053355256   H3499
    0.3586692842096292    0.7143539927149360    0.3749445386688589   H3500
    0.3586692842096292    0.7143539927149360    0.7082778720021922   H3501
    0.6920026175429626    0.0476873260482694    0.0416112053355256   H3502
    0.6920026175429626    0.0476873260482694    0.3749445386688589   H3503
    0.6920026175429626    0.0476873260482694    0.7082778720021922   H3504
    0.6920026175429626    0.3810206593816028    0.0416112053355256   H3505
    0.6920026175429626    0.3810206593816028    0.3749445386688589   H3506
    0.6920026175429626    0.3810206593816028    0.7082778720021922   H3507
    0.6920026175429626    0.7143539927149360    0.0416112053355256   H3508
    0.6920026175429626    0.7143539927149360    0.3749445386688589   H3509
    0.6920026175429626    0.7143539927149360    0.7082778720021922   H3510
    0.8898794362926922    0.3626659548657187    0.3249153433599704   H3511
    0.8898794362926922    0.3626659548657187    0.6582486766933038   H3512
    0.8898794362926922    0.3626659548657187    0.9915820100266372   H3513
    0.8898794362926922    0.6959992881990520    0.3249153433599704   H3514
    0.8898794362926922    0.6959992881990520    0.6582486766933038   H3515
    0.8898794362926922    0.6959992881990520    0.9915820100266372   H3516
    0.8898794362926922    0.0293326215323853    0.3249153433599704   H3517
    0.8898794362926922    0.0293326215323853    0.6582486766933038   H3518
    0.8898794362926922    0.0293326215323853    0.9915820100266372   H3519
    0.2232127696260255    0.3626659548657187    0.3249153433599704   H3520
    0.2232127696260255    0.3626659548657187    0.6582486766933038   H3521
    0.2232127696260255    0.3626659548657187    0.9915820100266372   H3522
    0.2232127696260255    0.6959992881990520    0.3249153433599704   H3523
    0.2232127696260255    0.6959992881990520    0.6582486766933038   H3524
    0.2232127696260255    0.6959992881990520    0.9915820100266372   H3525
    0.2232127696260255    0.0293326215323853    0.3249153433599704   H3526
    0.2232127696260255    0.0293326215323853    0.6582486766933038   H3527
    0.2232127696260255    0.0293326215323853    0.9915820100266372   H3528
    0.5565461029593588    0.3626659548657187    0.3249153433599704   H3529
    0.5565461029593588    0.3626659548657187    0.6582486766933038   H3530
    0.5565461029593588    0.3626659548657187    0.9915820100266372   H3531
    0.5565461029593588    0.6959992881990520    0.3249153433599704   H3532
    0.5565461029593588    0.6959992881990520    0.6582486766933038   H3533
    0.5565461029593588    0.6959992881990520    0.9915820100266372   H3534
    0.5565461029593588    0.0293326215323853    0.3249153433599704   H3535
    0.5565461029593588    0.0293326215323853    0.6582486766933038   H3536
    0.5565461029593588    0.0293326215323853    0.9915820100266372   H3537
    0.0972702160970436    0.3578485386127420    0.2676088125084781   H3538
    0.0972702160970436    0.3578485386127420    0.6009421458418114   H3539
    0.0972702160970436    0.3578485386127420    0.9342754791751446   H3540
    0.0972702160970436    0.6911818719460753    0.2676088125084781   H3541
    0.0972702160970436    0.6911818719460753    0.6009421458418114   H3542
    0.0972702160970436    0.6911818719460753    0.9342754791751446   H3543
    0.0972702160970436    0.0245152052794086    0.2676088125084781   H3544
    0.0972702160970436    0.0245152052794086    0.6009421458418114   H3545
    0.0972702160970436    0.0245152052794086    0.9342754791751446   H3546
    0.4306035494303769    0.3578485386127420    0.2676088125084781   H3547
    0.4306035494303769    0.3578485386127420    0.6009421458418114   H3548
    0.4306035494303769    0.3578485386127420    0.9342754791751446   H3549
    0.4306035494303769    0.6911818719460753    0.2676088125084781   H3550
    0.4306035494303769    0.6911818719460753    0.6009421458418114   H3551
    0.4306035494303769    0.6911818719460753    0.9342754791751446   H3552
    0.4306035494303769    0.0245152052794086    0.2676088125084781   H3553
    0.4306035494303769    0.0245152052794086    0.6009421458418114   H3554
    0.4306035494303769    0.0245152052794086    0.9342754791751446   H3555
    0.7639368827637103    0.3578485386127420    0.2676088125084781   H3556
    0.7639368827637103    0.3578485386127420    0.6009421458418114   H3557
    0.7639368827637103    0.3578485386127420    0.9342754791751446   H3558
    0.7639368827637103    0.6911818719460753    0.2676088125084781   H3559
    0.7639368827637103    0.6911818719460753    0.6009421458418114   H3560
    0.7639368827637103    0.6911818719460753    0.9342754791751446   H3561
    0.7639368827637103    0.0245152052794086    0.2676088125084781   H3562
    0.7639368827637103    0.0245152052794086    0.6009421458418114   H3563
    0.7639368827637103    0.0245152052794086    0.9342754791751446   H3564
    0.8893579810753616    0.3082647655987253    0.3354248200883295   H3565
    0.8893579810753616    0.3082647655987253    0.6687581534216627   H3566
    0.8893579810753616    0.3082647655987253    0.0020914867549959   H3567
    0.8893579810753616    0.6415980989320587    0.3354248200883295   H3568
    0.8893579810753616    0.6415980989320587    0.6687581534216627   H3569
    0.8893579810753616    0.6415980989320587    0.0020914867549959   H3570
    0.8893579810753616    0.9749314322653919    0.3354248200883295   H3571
    0.8893579810753616    0.9749314322653919    0.6687581534216627   H3572
    0.8893579810753616    0.9749314322653919    0.0020914867549959   H3573
    0.2226913144086949    0.3082647655987253    0.3354248200883295   H3574
    0.2226913144086949    0.3082647655987253    0.6687581534216627   H3575
    0.2226913144086949    0.3082647655987253    0.0020914867549959   H3576
    0.2226913144086949    0.6415980989320587    0.3354248200883295   H3577
    0.2226913144086949    0.6415980989320587    0.6687581534216627   H3578
    0.2226913144086949    0.6415980989320587    0.0020914867549959   H3579
    0.2226913144086949    0.9749314322653919    0.3354248200883295   H3580
    0.2226913144086949    0.9749314322653919    0.6687581534216627   H3581
    0.2226913144086949    0.9749314322653919    0.0020914867549959   H3582
    0.5560246477420281    0.3082647655987253    0.3354248200883295   H3583
    0.5560246477420281    0.3082647655987253    0.6687581534216627   H3584
    0.5560246477420281    0.3082647655987253    0.0020914867549959   H3585
    0.5560246477420281    0.6415980989320587    0.3354248200883295   H3586
    0.5560246477420281    0.6415980989320587    0.6687581534216627   H3587
    0.5560246477420281    0.6415980989320587    0.0020914867549959   H3588
    0.5560246477420281    0.9749314322653919    0.3354248200883295   H3589
    0.5560246477420281    0.9749314322653919    0.6687581534216627   H3590
    0.5560246477420281    0.9749314322653919    0.0020914867549959   H3591
    0.0811504824100291    0.2169278232869423    0.1709978061376748   H3592
    0.0811504824100291    0.2169278232869423    0.5043311394710082   H3593
    0.0811504824100291    0.2169278232869423    0.8376644728043414   H3594
    0.0811504824100291    0.5502611566202756    0.1709978061376748   H3595
    0.0811504824100291    0.5502611566202756    0.5043311394710082   H3596
    0.0811504824100291    0.5502611566202756    0.8376644728043414   H3597
    0.0811504824100291    0.8835944899536090    0.1709978061376748   H3598
    0.0811504824100291    0.8835944899536090    0.5043311394710082   H3599
    0.0811504824100291    0.8835944899536090    0.8376644728043414   H3600
    0.4144838157433624    0.2169278232869423    0.1709978061376748   H3601
    0.4144838157433624    0.2169278232869423    0.5043311394710082   H3602
    0.4144838157433624    0.2169278232869423    0.8376644728043414   H3603
    0.4144838157433624    0.5502611566202756    0.1709978061376748   H3604
    0.4144838157433624    0.5502611566202756    0.5043311394710082   H3605
    0.4144838157433624    0.5502611566202756    0.8376644728043414   H3606
    0.4144838157433624    0.8835944899536090    0.1709978061376748   H3607
    0.4144838157433624    0.8835944899536090    0.5043311394710082   H3608
    0.4144838157433624    0.8835944899536090    0.8376644728043414   H3609
    0.7478171490766958    0.2169278232869423    0.1709978061376748   H3610
    0.7478171490766958    0.2169278232869423    0.5043311394710082   H3611
    0.7478171490766958    0.2169278232869423    0.8376644728043414   H3612
    0.7478171490766958    0.5502611566202756    0.1709978061376748   H3613
    0.7478171490766958    0.5502611566202756    0.5043311394710082   H3614
    0.7478171490766958    0.5502611566202756    0.8376644728043414   H3615
    0.7478171490766958    0.8835944899536090    0.1709978061376748   H3616
    0.7478171490766958    0.8835944899536090    0.5043311394710082   H3617
    0.7478171490766958    0.8835944899536090    0.8376644728043414   H3618
    0.0092615898858028    0.3197669479690278    0.1349558448342026   H3619
    0.0092615898858028    0.3197669479690278    0.4682891781675359   H3620
    0.0092615898858028    0.3197669479690278    0.8016225115008693   H3621
    0.0092615898858028    0.6531002813023612    0.1349558448342026   H3622
    0.0092615898858028    0.6531002813023612    0.4682891781675359   H3623
    0.0092615898858028    0.6531002813023612    0.8016225115008693   H3624
    0.0092615898858028    0.9864336146356945    0.1349558448342026   H3625
    0.0092615898858028    0.9864336146356945    0.4682891781675359   H3626
    0.0092615898858028    0.9864336146356945    0.8016225115008693   H3627
    0.3425949232191361    0.3197669479690278    0.1349558448342026   H3628
    0.3425949232191361    0.3197669479690278    0.4682891781675359   H3629
    0.3425949232191361    0.3197669479690278    0.8016225115008693   H3630
    0.3425949232191361    0.6531002813023612    0.1349558448342026   H3631
    0.3425949232191361    0.6531002813023612    0.4682891781675359   H3632
    0.3425949232191361    0.6531002813023612    0.8016225115008693   H3633
    0.3425949232191361    0.9864336146356945    0.1349558448342026   H3634
    0.3425949232191361    0.9864336146356945    0.4682891781675359   H3635
    0.3425949232191361    0.9864336146356945    0.8016225115008693   H3636
    0.6759282565524695    0.3197669479690278    0.1349558448342026   H3637
    0.6759282565524695    0.3197669479690278    0.4682891781675359   H3638
    0.6759282565524695    0.3197669479690278    0.8016225115008693   H3639
    0.6759282565524695    0.6531002813023612    0.1349558448342026   H3640
    0.6759282565524695    0.6531002813023612    0.4682891781675359   H3641
    0.6759282565524695    0.6531002813023612    0.8016225115008693   H3642
    0.6759282565524695    0.9864336146356945    0.1349558448342026   H3643
    0.6759282565524695    0.9864336146356945    0.4682891781675359   H3644
    0.6759282565524695    0.9864336146356945    0.8016225115008693   H3645
    0.9599920314649026    0.2166508224751420    0.0024327066938304   H3646
    0.9599920314649026    0.2166508224751420    0.3357660400271637   H3647
    0.9599920314649026    0.2166508224751420    0.6690993733604971   H3648
    0.9599920314649026    0.5499841558084753    0.0024327066938304   H3649
    0.9599920314649026    0.5499841558084753    0.3357660400271637   H3650
    0.9599920314649026    0.5499841558084753    0.6690993733604971   H3651
    0.9599920314649026    0.8833174891418087    0.0024327066938304   H3652
    0.9599920314649026    0.8833174891418087    0.3357660400271637   H3653
    0.9599920314649026    0.8833174891418087    0.6690993733604971   H3654
    0.2933253647982359    0.2166508224751420    0.0024327066938304   H3655
    0.2933253647982359    0.2166508224751420    0.3357660400271637   H3656
    0.2933253647982359    0.2166508224751420    0.6690993733604971   H3657
    0.2933253647982359    0.5499841558084753    0.0024327066938304   H3658
    0.2933253647982359    0.5499841558084753    0.3357660400271637   H3659
    0.2933253647982359    0.5499841558084753    0.6690993733604971   H3660
    0.2933253647982359    0.8833174891418087    0.0024327066938304   H3661
    0.2933253647982359    0.8833174891418087    0.3357660400271637   H3662
    0.2933253647982359    0.8833174891418087    0.6690993733604971   H3663
    0.6266586981315692    0.2166508224751420    0.0024327066938304   H3664
    0.6266586981315692    0.2166508224751420    0.3357660400271637   H3665
    0.6266586981315692    0.2166508224751420    0.6690993733604971   H3666
    0.6266586981315692    0.5499841558084753    0.0024327066938304   H3667
    0.6266586981315692    0.5499841558084753    0.3357660400271637   H3668
    0.6266586981315692    0.5499841558084753    0.6690993733604971   H3669
    0.6266586981315692    0.8833174891418087    0.0024327066938304   H3670
    0.6266586981315692    0.8833174891418087    0.3357660400271637   H3671
    0.6266586981315692    0.8833174891418087    0.6690993733604971   H3672
    0.0620445075949305    0.2389570570822139    0.0141023238510279   H3673
    0.0620445075949305    0.2389570570822139    0.3474356571843611   H3674
    0.0620445075949305    0.2389570570822139    0.6807689905176946   H3675
    0.0620445075949305    0.5722903904155472    0.0141023238510279   H3676
    0.0620445075949305    0.5722903904155472    0.3474356571843611   H3677
    0.0620445075949305    0.5722903904155472    0.6807689905176946   H3678
    0.0620445075949305    0.9056237237488804    0.0141023238510279   H3679
    0.0620445075949305    0.9056237237488804    0.3474356571843611   H3680
    0.0620445075949305    0.9056237237488804    0.6807689905176946   H3681
    0.3953778409282638    0.2389570570822139    0.0141023238510279   H3682
    0.3953778409282638    0.2389570570822139    0.3474356571843611   H3683
    0.3953778409282638    0.2389570570822139    0.6807689905176946   H3684
    0.3953778409282638    0.5722903904155472    0.0141023238510279   H3685
    0.3953778409282638    0.5722903904155472    0.3474356571843611   H3686
    0.3953778409282638    0.5722903904155472    0.6807689905176946   H3687
    0.3953778409282638    0.9056237237488804    0.0141023238510279   H3688
    0.3953778409282638    0.9056237237488804    0.3474356571843611   H3689
    0.3953778409282638    0.9056237237488804    0.6807689905176946   H3690
    0.7287111742615973    0.2389570570822139    0.0141023238510279   H3691
    0.7287111742615973    0.2389570570822139    0.3474356571843611   H3692
    0.7287111742615973    0.2389570570822139    0.6807689905176946   H3693
    0.7287111742615973    0.5722903904155472    0.0141023238510279   H3694
    0.7287111742615973    0.5722903904155472    0.3474356571843611   H3695
    0.7287111742615973    0.5722903904155472    0.6807689905176946   H3696
    0.7287111742615973    0.9056237237488804    0.0141023238510279   H3697
    0.7287111742615973    0.9056237237488804    0.3474356571843611   H3698
    0.7287111742615973    0.9056237237488804    0.6807689905176946   H3699
    0.9770594940257441    0.3358541554065624    0.0478448379855070   H3700
    0.9770594940257441    0.3358541554065624    0.3811781713188403   H3701
    0.9770594940257441    0.3358541554065624    0.7145115046521737   H3702
    0.9770594940257441    0.6691874887398956    0.0478448379855070   H3703
    0.9770594940257441    0.6691874887398956    0.3811781713188403   H3704
    0.9770594940257441    0.6691874887398956    0.7145115046521737   H3705
    0.9770594940257441    0.0025208220732289    0.0478448379855070   H3706
    0.9770594940257441    0.0025208220732289    0.3811781713188403   H3707
    0.9770594940257441    0.0025208220732289    0.7145115046521737   H3708
    0.3103928273590774    0.3358541554065624    0.0478448379855070   H3709
    0.3103928273590774    0.3358541554065624    0.3811781713188403   H3710
    0.3103928273590774    0.3358541554065624    0.7145115046521737   H3711
    0.3103928273590774    0.6691874887398956    0.0478448379855070   H3712
    0.3103928273590774    0.6691874887398956    0.3811781713188403   H3713
    0.3103928273590774    0.6691874887398956    0.7145115046521737   H3714
    0.3103928273590774    0.0025208220732289    0.0478448379855070   H3715
    0.3103928273590774    0.0025208220732289    0.3811781713188403   H3716
    0.3103928273590774    0.0025208220732289    0.7145115046521737   H3717
    0.6437261606924107    0.3358541554065624    0.0478448379855070   H3718
    0.6437261606924107    0.3358541554065624    0.3811781713188403   H3719
    0.6437261606924107    0.3358541554065624    0.7145115046521737   H3720
    0.6437261606924107    0.6691874887398956    0.0478448379855070   H3721
    0.6437261606924107    0.6691874887398956    0.3811781713188403   H3722
    0.6437261606924107    0.6691874887398956    0.7145115046521737   H3723
    0.6437261606924107    0.0025208220732289    0.0478448379855070   H3724
    0.6437261606924107    0.0025208220732289    0.3811781713188403   H3725
    0.6437261606924107    0.0025208220732289    0.7145115046521737   H3726
    0.0054675834668629    0.2864827335709466    0.0097845686911499   H3727
    0.0054675834668629    0.2864827335709466    0.3431179020244832   H3728
    0.0054675834668629    0.2864827335709466    0.6764512353578166   H3729
    0.0054675834668629    0.6198160669042798    0.0097845686911499   H3730
    0.0054675834668629    0.6198160669042798    0.3431179020244832   H3731
    0.0054675834668629    0.6198160669042798    0.6764512353578166   H3732
    0.0054675834668629    0.9531494002376132    0.0097845686911499   H3733
    0.0054675834668629    0.9531494002376132    0.3431179020244832   H3734
    0.0054675834668629    0.9531494002376132    0.6764512353578166   H3735
    0.3388009168001962    0.2864827335709466    0.0097845686911499   H3736
    0.3388009168001962    0.2864827335709466    0.3431179020244832   H3737
    0.3388009168001962    0.2864827335709466    0.6764512353578166   H3738
    0.3388009168001962    0.6198160669042798    0.0097845686911499   H3739
    0.3388009168001962    0.6198160669042798    0.3431179020244832   H3740
    0.3388009168001962    0.6198160669042798    0.6764512353578166   H3741
    0.3388009168001962    0.9531494002376132    0.0097845686911499   H3742
    0.3388009168001962    0.9531494002376132    0.3431179020244832   H3743
    0.3388009168001962    0.9531494002376132    0.6764512353578166   H3744
    0.6721342501335295    0.2864827335709466    0.0097845686911499   H3745
    0.6721342501335295    0.2864827335709466    0.3431179020244832   H3746
    0.6721342501335295    0.2864827335709466    0.6764512353578166   H3747
    0.6721342501335295    0.6198160669042798    0.0097845686911499   H3748
    0.6721342501335295    0.6198160669042798    0.3431179020244832   H3749
    0.6721342501335295    0.6198160669042798    0.6764512353578166   H3750
    0.6721342501335295    0.9531494002376132    0.0097845686911499   H3751
    0.6721342501335295    0.9531494002376132    0.3431179020244832   H3752
    0.6721342501335295    0.9531494002376132    0.6764512353578166   H3753
    0.0439201287116837    0.3077685615981172    0.0632897261346199   H3754
    0.0439201287116837    0.3077685615981172    0.3966230594679532   H3755
    0.0439201287116837    0.3077685615981172    0.7299563928012867   H3756
    0.0439201287116837    0.6411018949314504    0.0632897261346199   H3757
    0.0439201287116837    0.6411018949314504    0.3966230594679532   H3758
    0.0439201287116837    0.6411018949314504    0.7299563928012867   H3759
    0.0439201287116837    0.9744352282647838    0.0632897261346199   H3760
    0.0439201287116837    0.9744352282647838    0.3966230594679532   H3761
    0.0439201287116837    0.9744352282647838    0.7299563928012867   H3762
    0.3772534620450170    0.3077685615981172    0.0632897261346199   H3763
    0.3772534620450170    0.3077685615981172    0.3966230594679532   H3764
    0.3772534620450170    0.3077685615981172    0.7299563928012867   H3765
    0.3772534620450170    0.6411018949314504    0.0632897261346199   H3766
    0.3772534620450170    0.6411018949314504    0.3966230594679532   H3767
    0.3772534620450170    0.6411018949314504    0.7299563928012867   H3768
    0.3772534620450170    0.9744352282647838    0.0632897261346199   H3769
    0.3772534620450170    0.9744352282647838    0.3966230594679532   H3770
    0.3772534620450170    0.9744352282647838    0.7299563928012867   H3771
    0.7105867953783502    0.3077685615981172    0.0632897261346199   H3772
    0.7105867953783502    0.3077685615981172    0.3966230594679532   H3773
    0.7105867953783502    0.3077685615981172    0.7299563928012867   H3774
    0.7105867953783502    0.6411018949314504    0.0632897261346199   H3775
    0.7105867953783502    0.6411018949314504    0.3966230594679532   H3776
    0.7105867953783502    0.6411018949314504    0.7299563928012867   H3777
    0.7105867953783502    0.9744352282647838    0.0632897261346199   H3778
    0.7105867953783502    0.9744352282647838    0.3966230594679532   H3779
    0.7105867953783502    0.9744352282647838    0.7299563928012867   H3780
    0.0292868089437389    0.3655099904980815    0.1723444590039866   H3781
    0.0292868089437389    0.3655099904980815    0.5056777923373199   H3782
    0.0292868089437389    0.3655099904980815    0.8390111256706533   H3783
    0.0292868089437389    0.6988433238314148    0.1723444590039866   H3784
    0.0292868089437389    0.6988433238314148    0.5056777923373199   H3785
    0.0292868089437389    0.6988433238314148    0.8390111256706533   H3786
    0.0292868089437389    0.0321766571647482    0.1723444590039866   H3787
    0.0292868089437389    0.0321766571647482    0.5056777923373199   H3788
    0.0292868089437389    0.0321766571647482    0.8390111256706533   H3789
    0.3626201422770722    0.3655099904980815    0.1723444590039866   H3790
    0.3626201422770722    0.3655099904980815    0.5056777923373199   H3791
    0.3626201422770722    0.3655099904980815    0.8390111256706533   H3792
    0.3626201422770722    0.6988433238314148    0.1723444590039866   H3793
    0.3626201422770722    0.6988433238314148    0.5056777923373199   H3794
    0.3626201422770722    0.6988433238314148    0.8390111256706533   H3795
    0.3626201422770722    0.0321766571647482    0.1723444590039866   H3796
    0.3626201422770722    0.0321766571647482    0.5056777923373199   H3797
    0.3626201422770722    0.0321766571647482    0.8390111256706533   H3798
    0.6959534756104055    0.3655099904980815    0.1723444590039866   H3799
    0.6959534756104055    0.3655099904980815    0.5056777923373199   H3800
    0.6959534756104055    0.3655099904980815    0.8390111256706533   H3801
    0.6959534756104055    0.6988433238314148    0.1723444590039866   H3802
    0.6959534756104055    0.6988433238314148    0.5056777923373199   H3803
    0.6959534756104055    0.6988433238314148    0.8390111256706533   H3804
    0.6959534756104055    0.0321766571647482    0.1723444590039866   H3805
    0.6959534756104055    0.0321766571647482    0.5056777923373199   H3806
    0.6959534756104055    0.0321766571647482    0.8390111256706533   H3807
    0.1479743392276312    0.3354712420501898    0.2591860281485172   H3808
    0.1479743392276312    0.3354712420501898    0.5925193614818505   H3809
    0.1479743392276312    0.3354712420501898    0.9258526948151840   H3810
    0.1479743392276312    0.6688045753835230    0.2591860281485172   H3811
    0.1479743392276312    0.6688045753835230    0.5925193614818505   H3812
    0.1479743392276312    0.6688045753835230    0.9258526948151840   H3813
    0.1479743392276312    0.0021379087168563    0.2591860281485172   H3814
    0.1479743392276312    0.0021379087168563    0.5925193614818505   H3815
    0.1479743392276312    0.0021379087168563    0.9258526948151840   H3816
    0.4813076725609645    0.3354712420501898    0.2591860281485172   H3817
    0.4813076725609645    0.3354712420501898    0.5925193614818505   H3818
    0.4813076725609645    0.3354712420501898    0.9258526948151840   H3819
    0.4813076725609645    0.6688045753835230    0.2591860281485172   H3820
    0.4813076725609645    0.6688045753835230    0.5925193614818505   H3821
    0.4813076725609645    0.6688045753835230    0.9258526948151840   H3822
    0.4813076725609645    0.0021379087168563    0.2591860281485172   H3823
    0.4813076725609645    0.0021379087168563    0.5925193614818505   H3824
    0.4813076725609645    0.0021379087168563    0.9258526948151840   H3825
    0.8146410058942979    0.3354712420501898    0.2591860281485172   H3826
    0.8146410058942979    0.3354712420501898    0.5925193614818505   H3827
    0.8146410058942979    0.3354712420501898    0.9258526948151840   H3828
    0.8146410058942979    0.6688045753835230    0.2591860281485172   H3829
    0.8146410058942979    0.6688045753835230    0.5925193614818505   H3830
    0.8146410058942979    0.6688045753835230    0.9258526948151840   H3831
    0.8146410058942979    0.0021379087168563    0.2591860281485172   H3832
    0.8146410058942979    0.0021379087168563    0.5925193614818505   H3833
    0.8146410058942979    0.0021379087168563    0.9258526948151840   H3834
    0.1255416119749896    0.4492301237951702    0.2727059065144550   H3835
    0.1255416119749896    0.4492301237951702    0.6060392398477884   H3836
    0.1255416119749896    0.4492301237951702    0.9393725731811218   H3837
    0.1255416119749896    0.7825634571285036    0.2727059065144550   H3838
    0.1255416119749896    0.7825634571285036    0.6060392398477884   H3839
    0.1255416119749896    0.7825634571285036    0.9393725731811218   H3840
    0.1255416119749896    0.1158967904618369    0.2727059065144550   H3841
    0.1255416119749896    0.1158967904618369    0.6060392398477884   H3842
    0.1255416119749896    0.1158967904618369    0.9393725731811218   H3843
    0.4588749453083230    0.4492301237951702    0.2727059065144550   H3844
    0.4588749453083230    0.4492301237951702    0.6060392398477884   H3845
    0.4588749453083230    0.4492301237951702    0.9393725731811218   H3846
    0.4588749453083230    0.7825634571285036    0.2727059065144550   H3847
    0.4588749453083230    0.7825634571285036    0.6060392398477884   H3848
    0.4588749453083230    0.7825634571285036    0.9393725731811218   H3849
    0.4588749453083230    0.1158967904618369    0.2727059065144550   H3850
    0.4588749453083230    0.1158967904618369    0.6060392398477884   H3851
    0.4588749453083230    0.1158967904618369    0.9393725731811218   H3852
    0.7922082786416562    0.4492301237951702    0.2727059065144550   H3853
    0.7922082786416562    0.4492301237951702    0.6060392398477884   H3854
    0.7922082786416562    0.4492301237951702    0.9393725731811218   H3855
    0.7922082786416562    0.7825634571285036    0.2727059065144550   H3856
    0.7922082786416562    0.7825634571285036    0.6060392398477884   H3857
    0.7922082786416562    0.7825634571285036    0.9393725731811218   H3858
    0.7922082786416562    0.1158967904618369    0.2727059065144550   H3859
    0.7922082786416562    0.1158967904618369    0.6060392398477884   H3860
    0.7922082786416562    0.1158967904618369    0.9393725731811218   H3861
    0.0641368501358077    0.2924328478821054    0.0101585555609996   H3862
    0.0641368501358077    0.2924328478821054    0.3434918888943329   H3863
    0.0641368501358077    0.2924328478821054    0.6768252222276662   H3864
    0.0641368501358077    0.6257661812154387    0.0101585555609996   H3865
    0.0641368501358077    0.6257661812154387    0.3434918888943329   H3866
    0.0641368501358077    0.6257661812154387    0.6768252222276662   H3867
    0.0641368501358077    0.9590995145487720    0.0101585555609996   H3868
    0.0641368501358077    0.9590995145487720    0.3434918888943329   H3869
    0.0641368501358077    0.9590995145487720    0.6768252222276662   H3870
    0.3974701834691410    0.2924328478821054    0.0101585555609996   H3871
    0.3974701834691410    0.2924328478821054    0.3434918888943329   H3872
    0.3974701834691410    0.2924328478821054    0.6768252222276662   H3873
    0.3974701834691410    0.6257661812154387    0.0101585555609996   H3874
    0.3974701834691410    0.6257661812154387    0.3434918888943329   H3875
    0.3974701834691410    0.6257661812154387    0.6768252222276662   H3876
    0.3974701834691410    0.9590995145487720    0.0101585555609996   H3877
    0.3974701834691410    0.9590995145487720    0.3434918888943329   H3878
    0.3974701834691410    0.9590995145487720    0.6768252222276662   H3879
    0.7308035168024742    0.2924328478821054    0.0101585555609996   H3880
    0.7308035168024742    0.2924328478821054    0.3434918888943329   H3881
    0.7308035168024742    0.2924328478821054    0.6768252222276662   H3882
    0.7308035168024742    0.6257661812154387    0.0101585555609996   H3883
    0.7308035168024742    0.6257661812154387    0.3434918888943329   H3884
    0.7308035168024742    0.6257661812154387    0.6768252222276662   H3885
    0.7308035168024742    0.9590995145487720    0.0101585555609996   H3886
    0.7308035168024742    0.9590995145487720    0.3434918888943329   H3887
    0.7308035168024742    0.9590995145487720    0.6768252222276662   H3888
    0.9231727612741520    0.2655548365620566    0.9961096524879860   H3889
    0.9231727612741520    0.2655548365620566    0.3294429858213194   H3890
    0.9231727612741520    0.2655548365620566    0.6627763191546526   H3891
    0.9231727612741520    0.5988881698953900    0.9961096524879860   H3892
    0.9231727612741520    0.5988881698953900    0.3294429858213194   H3893
    0.9231727612741520    0.5988881698953900    0.6627763191546526   H3894
    0.9231727612741520    0.9322215032287233    0.9961096524879860   H3895
    0.9231727612741520    0.9322215032287233    0.3294429858213194   H3896
    0.9231727612741520    0.9322215032287233    0.6627763191546526   H3897
    0.2565060946074854    0.2655548365620566    0.9961096524879860   H3898
    0.2565060946074854    0.2655548365620566    0.3294429858213194   H3899
    0.2565060946074854    0.2655548365620566    0.6627763191546526   H3900
    0.2565060946074854    0.5988881698953900    0.9961096524879860   H3901
    0.2565060946074854    0.5988881698953900    0.3294429858213194   H3902
    0.2565060946074854    0.5988881698953900    0.6627763191546526   H3903
    0.2565060946074854    0.9322215032287233    0.9961096524879860   H3904
    0.2565060946074854    0.9322215032287233    0.3294429858213194   H3905
    0.2565060946074854    0.9322215032287233    0.6627763191546526   H3906
    0.5898394279408187    0.2655548365620566    0.9961096524879860   H3907
    0.5898394279408187    0.2655548365620566    0.3294429858213194   H3908
    0.5898394279408187    0.2655548365620566    0.6627763191546526   H3909
    0.5898394279408187    0.5988881698953900    0.9961096524879860   H3910
    0.5898394279408187    0.5988881698953900    0.3294429858213194   H3911
    0.5898394279408187    0.5988881698953900    0.6627763191546526   H3912
    0.5898394279408187    0.9322215032287233    0.9961096524879860   H3913
    0.5898394279408187    0.9322215032287233    0.3294429858213194   H3914
    0.5898394279408187    0.9322215032287233    0.6627763191546526   H3915
    0.9572060749595347    0.2826219812238523    0.9894463148192564   H3916
    0.9572060749595347    0.2826219812238523    0.3227796481525897   H3917
    0.9572060749595347    0.2826219812238523    0.6561129814859230   H3918
    0.9572060749595347    0.6159553145571857    0.9894463148192564   H3919
    0.9572060749595347    0.6159553145571857    0.3227796481525897   H3920
    0.9572060749595347    0.6159553145571857    0.6561129814859230   H3921
    0.9572060749595347    0.9492886478905189    0.9894463148192564   H3922
    0.9572060749595347    0.9492886478905189    0.3227796481525897   H3923
    0.9572060749595347    0.9492886478905189    0.6561129814859230   H3924
    0.2905394082928681    0.2826219812238523    0.9894463148192564   H3925
    0.2905394082928681    0.2826219812238523    0.3227796481525897   H3926
    0.2905394082928681    0.2826219812238523    0.6561129814859230   H3927
    0.2905394082928681    0.6159553145571857    0.9894463148192564   H3928
    0.2905394082928681    0.6159553145571857    0.3227796481525897   H3929
    0.2905394082928681    0.6159553145571857    0.6561129814859230   H3930
    0.2905394082928681    0.9492886478905189    0.9894463148192564   H3931
    0.2905394082928681    0.9492886478905189    0.3227796481525897   H3932
    0.2905394082928681    0.9492886478905189    0.6561129814859230   H3933
    0.6238727416262013    0.2826219812238523    0.9894463148192564   H3934
    0.6238727416262013    0.2826219812238523    0.3227796481525897   H3935
    0.6238727416262013    0.2826219812238523    0.6561129814859230   H3936
    0.6238727416262013    0.6159553145571857    0.9894463148192564   H3937
    0.6238727416262013    0.6159553145571857    0.3227796481525897   H3938
    0.6238727416262013    0.6159553145571857    0.6561129814859230   H3939
    0.6238727416262013    0.9492886478905189    0.9894463148192564   H3940
    0.6238727416262013    0.9492886478905189    0.3227796481525897   H3941
    0.6238727416262013    0.9492886478905189    0.6561129814859230   H3942
    0.1693717439436464    0.3815540139999907    0.2901834603700721   H3943
    0.1693717439436464    0.3815540139999907    0.6235167937034054   H3944
    0.1693717439436464    0.3815540139999907    0.9568501270367388   H3945
    0.1693717439436464    0.7148873473333240    0.2901834603700721   H3946
    0.1693717439436464    0.7148873473333240    0.6235167937034054   H3947
    0.1693717439436464    0.7148873473333240    0.9568501270367388   H3948
    0.1693717439436464    0.0482206806666574    0.2901834603700721   H3949
    0.1693717439436464    0.0482206806666574    0.6235167937034054   H3950
    0.1693717439436464    0.0482206806666574    0.9568501270367388   H3951
    0.5027050772769797    0.3815540139999907    0.2901834603700721   H3952
    0.5027050772769797    0.3815540139999907    0.6235167937034054   H3953
    0.5027050772769797    0.3815540139999907    0.9568501270367388   H3954
    0.5027050772769797    0.7148873473333240    0.2901834603700721   H3955
    0.5027050772769797    0.7148873473333240    0.6235167937034054   H3956
    0.5027050772769797    0.7148873473333240    0.9568501270367388   H3957
    0.5027050772769797    0.0482206806666574    0.2901834603700721   H3958
    0.5027050772769797    0.0482206806666574    0.6235167937034054   H3959
    0.5027050772769797    0.0482206806666574    0.9568501270367388   H3960
    0.8360384106103131    0.3815540139999907    0.2901834603700721   H3961
    0.8360384106103131    0.3815540139999907    0.6235167937034054   H3962
    0.8360384106103131    0.3815540139999907    0.9568501270367388   H3963
    0.8360384106103131    0.7148873473333240    0.2901834603700721   H3964
    0.8360384106103131    0.7148873473333240    0.6235167937034054   H3965
    0.8360384106103131    0.7148873473333240    0.9568501270367388   H3966
    0.8360384106103131    0.0482206806666574    0.2901834603700721   H3967
    0.8360384106103131    0.0482206806666574    0.6235167937034054   H3968
    0.8360384106103131    0.0482206806666574    0.9568501270367388   H3969
    0.0940522776810366    0.2675579769647539    0.1623807433549108   H3970
    0.0940522776810366    0.2675579769647539    0.4957140766882441   H3971
    0.0940522776810366    0.2675579769647539    0.8290474100215774   H3972
    0.0940522776810366    0.6008913102980872    0.1623807433549108   H3973
    0.0940522776810366    0.6008913102980872    0.4957140766882441   H3974
    0.0940522776810366    0.6008913102980872    0.8290474100215774   H3975
    0.0940522776810366    0.9342246436314205    0.1623807433549108   H3976
    0.0940522776810366    0.9342246436314205    0.4957140766882441   H3977
    0.0940522776810366    0.9342246436314205    0.8290474100215774   H3978
    0.4273856110143699    0.2675579769647539    0.1623807433549108   H3979
    0.4273856110143699    0.2675579769647539    0.4957140766882441   H3980
    0.4273856110143699    0.2675579769647539    0.8290474100215774   H3981
    0.4273856110143699    0.6008913102980872    0.1623807433549108   H3982
    0.4273856110143699    0.6008913102980872    0.4957140766882441   H3983
    0.4273856110143699    0.6008913102980872    0.8290474100215774   H3984
    0.4273856110143699    0.9342246436314205    0.1623807433549108   H3985
    0.4273856110143699    0.9342246436314205    0.4957140766882441   H3986
    0.4273856110143699    0.9342246436314205    0.8290474100215774   H3987
    0.7607189443477032    0.2675579769647539    0.1623807433549108   H3988
    0.7607189443477032    0.2675579769647539    0.4957140766882441   H3989
    0.7607189443477032    0.2675579769647539    0.8290474100215774   H3990
    0.7607189443477032    0.6008913102980872    0.1623807433549108   H3991
    0.7607189443477032    0.6008913102980872    0.4957140766882441   H3992
    0.7607189443477032    0.6008913102980872    0.8290474100215774   H3993
    0.7607189443477032    0.9342246436314205    0.1623807433549108   H3994
    0.7607189443477032    0.9342246436314205    0.4957140766882441   H3995
    0.7607189443477032    0.9342246436314205    0.8290474100215774   H3996
    0.1040618551051348    0.3098294836559160    0.2283940074519246   H3997
    0.1040618551051348    0.3098294836559160    0.5617273407852579   H3998
    0.1040618551051348    0.3098294836559160    0.8950606741185912   H3999
    0.1040618551051348    0.6431628169892494    0.2283940074519246   H4000
    0.1040618551051348    0.6431628169892494    0.5617273407852579   H4001
    0.1040618551051348    0.6431628169892494    0.8950606741185912   H4002
    0.1040618551051348    0.9764961503225826    0.2283940074519246   H4003
    0.1040618551051348    0.9764961503225826    0.5617273407852579   H4004
    0.1040618551051348    0.9764961503225826    0.8950606741185912   H4005
    0.4373951884384681    0.3098294836559160    0.2283940074519246   H4006
    0.4373951884384681    0.3098294836559160    0.5617273407852579   H4007
    0.4373951884384681    0.3098294836559160    0.8950606741185912   H4008
    0.4373951884384681    0.6431628169892494    0.2283940074519246   H4009
    0.4373951884384681    0.6431628169892494    0.5617273407852579   H4010
    0.4373951884384681    0.6431628169892494    0.8950606741185912   H4011
    0.4373951884384681    0.9764961503225826    0.2283940074519246   H4012
    0.4373951884384681    0.9764961503225826    0.5617273407852579   H4013
    0.4373951884384681    0.9764961503225826    0.8950606741185912   H4014
    0.7707285217718015    0.3098294836559160    0.2283940074519246   H4015
    0.7707285217718015    0.3098294836559160    0.5617273407852579   H4016
    0.7707285217718015    0.3098294836559160    0.8950606741185912   H4017
    0.7707285217718015    0.6431628169892494    0.2283940074519246   H4018
    0.7707285217718015    0.6431628169892494    0.5617273407852579   H4019
    0.7707285217718015    0.6431628169892494    0.8950606741185912   H4020
    0.7707285217718015    0.9764961503225826    0.2283940074519246   H4021
    0.7707285217718015    0.9764961503225826    0.5617273407852579   H4022
    0.7707285217718015    0.9764961503225826    0.8950606741185912   H4023
    0.0399115769323581    0.3763449965047793    0.2192752943537155   H4024
    0.0399115769323581    0.3763449965047793    0.5526086276870488   H4025
    0.0399115769323581    0.3763449965047793    0.8859419610203820   H4026
    0.0399115769323581    0.7096783298381126    0.2192752943537155   H4027
    0.0399115769323581    0.7096783298381126    0.5526086276870488   H4028
    0.0399115769323581    0.7096783298381126    0.8859419610203820   H4029
    0.0399115769323581    0.0430116631714459    0.2192752943537155   H4030
    0.0399115769323581    0.0430116631714459    0.5526086276870488   H4031
    0.0399115769323581    0.0430116631714459    0.8859419610203820   H4032
    0.3732449102656914    0.3763449965047793    0.2192752943537155   H4033
    0.3732449102656914    0.3763449965047793    0.5526086276870488   H4034
    0.3732449102656914    0.3763449965047793    0.8859419610203820   H4035
    0.3732449102656914    0.7096783298381126    0.2192752943537155   H4036
    0.3732449102656914    0.7096783298381126    0.5526086276870488   H4037
    0.3732449102656914    0.7096783298381126    0.8859419610203820   H4038
    0.3732449102656914    0.0430116631714459    0.2192752943537155   H4039
    0.3732449102656914    0.0430116631714459    0.5526086276870488   H4040
    0.3732449102656914    0.0430116631714459    0.8859419610203820   H4041
    0.7065782435990247    0.3763449965047793    0.2192752943537155   H4042
    0.7065782435990247    0.3763449965047793    0.5526086276870488   H4043
    0.7065782435990247    0.3763449965047793    0.8859419610203820   H4044
    0.7065782435990247    0.7096783298381126    0.2192752943537155   H4045
    0.7065782435990247    0.7096783298381126    0.5526086276870488   H4046
    0.7065782435990247    0.7096783298381126    0.8859419610203820   H4047
    0.7065782435990247    0.0430116631714459    0.2192752943537155   H4048
    0.7065782435990247    0.0430116631714459    0.5526086276870488   H4049
    0.7065782435990247    0.0430116631714459    0.8859419610203820   H4050
    0.1383788383956586    0.2402077480947241    0.1853579762773143   H4051
    0.1383788383956586    0.2402077480947241    0.5186913096106476   H4052
    0.1383788383956586    0.2402077480947241    0.8520246429439809   H4053
    0.1383788383956586    0.5735410814280574    0.1853579762773143   H4054
    0.1383788383956586    0.5735410814280574    0.5186913096106476   H4055
    0.1383788383956586    0.5735410814280574    0.8520246429439809   H4056
    0.1383788383956586    0.9068744147613907    0.1853579762773143   H4057
    0.1383788383956586    0.9068744147613907    0.5186913096106476   H4058
    0.1383788383956586    0.9068744147613907    0.8520246429439809   H4059
    0.4717121717289919    0.2402077480947241    0.1853579762773143   H4060
    0.4717121717289919    0.2402077480947241    0.5186913096106476   H4061
    0.4717121717289919    0.2402077480947241    0.8520246429439809   H4062
    0.4717121717289919    0.5735410814280574    0.1853579762773143   H4063
    0.4717121717289919    0.5735410814280574    0.5186913096106476   H4064
    0.4717121717289919    0.5735410814280574    0.8520246429439809   H4065
    0.4717121717289919    0.9068744147613907    0.1853579762773143   H4066
    0.4717121717289919    0.9068744147613907    0.5186913096106476   H4067
    0.4717121717289919    0.9068744147613907    0.8520246429439809   H4068
    0.8050455050623252    0.2402077480947241    0.1853579762773143   H4069
    0.8050455050623252    0.2402077480947241    0.5186913096106476   H4070
    0.8050455050623252    0.2402077480947241    0.8520246429439809   H4071
    0.8050455050623252    0.5735410814280574    0.1853579762773143   H4072
    0.8050455050623252    0.5735410814280574    0.5186913096106476   H4073
    0.8050455050623252    0.5735410814280574    0.8520246429439809   H4074
    0.8050455050623252    0.9068744147613907    0.1853579762773143   H4075
    0.8050455050623252    0.9068744147613907    0.5186913096106476   H4076
    0.8050455050623252    0.9068744147613907    0.8520246429439809   H4077
    0.0376500673073392    0.3304763815682130    0.2332362395398345   H4078
    0.0376500673073392    0.3304763815682130    0.5665695728731678   H4079
    0.0376500673073392    0.3304763815682130    0.8999029062065012   H4080
    0.0376500673073392    0.6638097149015463    0.2332362395398345   H4081
    0.0376500673073392    0.6638097149015463    0.5665695728731678   H4082
    0.0376500673073392    0.6638097149015463    0.8999029062065012   H4083
    0.0376500673073392    0.9971430482348796    0.2332362395398345   H4084
    0.0376500673073392    0.9971430482348796    0.5665695728731678   H4085
    0.0376500673073392    0.9971430482348796    0.8999029062065012   H4086
    0.3709834006406725    0.3304763815682130    0.2332362395398345   H4087
    0.3709834006406725    0.3304763815682130    0.5665695728731678   H4088
    0.3709834006406725    0.3304763815682130    0.8999029062065012   H4089
    0.3709834006406725    0.6638097149015463    0.2332362395398345   H4090
    0.3709834006406725    0.6638097149015463    0.5665695728731678   H4091
    0.3709834006406725    0.6638097149015463    0.8999029062065012   H4092
    0.3709834006406725    0.9971430482348796    0.2332362395398345   H4093
    0.3709834006406725    0.9971430482348796    0.5665695728731678   H4094
    0.3709834006406725    0.9971430482348796    0.8999029062065012   H4095
    0.7043167339740057    0.3304763815682130    0.2332362395398345   H4096
    0.7043167339740057    0.3304763815682130    0.5665695728731678   H4097
    0.7043167339740057    0.3304763815682130    0.8999029062065012   H4098
    0.7043167339740057    0.6638097149015463    0.2332362395398345   H4099
    0.7043167339740057    0.6638097149015463    0.5665695728731678   H4100
    0.7043167339740057    0.6638097149015463    0.8999029062065012   H4101
    0.7043167339740057    0.9971430482348796    0.2332362395398345   H4102
    0.7043167339740057    0.9971430482348796    0.5665695728731678   H4103
    0.7043167339740057    0.9971430482348796    0.8999029062065012   H4104
    0.1217633708000087    0.2227766640335683    0.2085401165812893   H4105
    0.1217633708000087    0.2227766640335683    0.5418734499146225   H4106
    0.1217633708000087    0.2227766640335683    0.8752067832479559   H4107
    0.1217633708000087    0.5561099973669017    0.2085401165812893   H4108
    0.1217633708000087    0.5561099973669017    0.5418734499146225   H4109
    0.1217633708000087    0.5561099973669017    0.8752067832479559   H4110
    0.1217633708000087    0.8894433307002350    0.2085401165812893   H4111
    0.1217633708000087    0.8894433307002350    0.5418734499146225   H4112
    0.1217633708000087    0.8894433307002350    0.8752067832479559   H4113
    0.4550967041333420    0.2227766640335683    0.2085401165812893   H4114
    0.4550967041333420    0.2227766640335683    0.5418734499146225   H4115
    0.4550967041333420    0.2227766640335683    0.8752067832479559   H4116
    0.4550967041333420    0.5561099973669017    0.2085401165812893   H4117
    0.4550967041333420    0.5561099973669017    0.5418734499146225   H4118
    0.4550967041333420    0.5561099973669017    0.8752067832479559   H4119
    0.4550967041333420    0.8894433307002350    0.2085401165812893   H4120
    0.4550967041333420    0.8894433307002350    0.5418734499146225   H4121
    0.4550967041333420    0.8894433307002350    0.8752067832479559   H4122
    0.7884300374666753    0.2227766640335683    0.2085401165812893   H4123
    0.7884300374666753    0.2227766640335683    0.5418734499146225   H4124
    0.7884300374666753    0.2227766640335683    0.8752067832479559   H4125
    0.7884300374666753    0.5561099973669017    0.2085401165812893   H4126
    0.7884300374666753    0.5561099973669017    0.5418734499146225   H4127
    0.7884300374666753    0.5561099973669017    0.8752067832479559   H4128
    0.7884300374666753    0.8894433307002350    0.2085401165812893   H4129
    0.7884300374666753    0.8894433307002350    0.5418734499146225   H4130
    0.7884300374666753    0.8894433307002350    0.8752067832479559   H4131
    0.0165216132105346    0.2554625300921846    0.1911013071292206   H4132
    0.0165216132105346    0.2554625300921846    0.5244346404625539   H4133
    0.0165216132105346    0.2554625300921846    0.8577679737958872   H4134
    0.0165216132105346    0.5887958634255179    0.1911013071292206   H4135
    0.0165216132105346    0.5887958634255179    0.5244346404625539   H4136
    0.0165216132105346    0.5887958634255179    0.8577679737958872   H4137
    0.0165216132105346    0.9221291967588512    0.1911013071292206   H4138
    0.0165216132105346    0.9221291967588512    0.5244346404625539   H4139
    0.0165216132105346    0.9221291967588512    0.8577679737958872   H4140
    0.3498549465438680    0.2554625300921846    0.1911013071292206   H4141
    0.3498549465438680    0.2554625300921846    0.5244346404625539   H4142
    0.3498549465438680    0.2554625300921846    0.8577679737958872   H4143
    0.3498549465438680    0.5887958634255179    0.1911013071292206   H4144
    0.3498549465438680    0.5887958634255179    0.5244346404625539   H4145
    0.3498549465438680    0.5887958634255179    0.8577679737958872   H4146
    0.3498549465438680    0.9221291967588512    0.1911013071292206   H4147
    0.3498549465438680    0.9221291967588512    0.5244346404625539   H4148
    0.3498549465438680    0.9221291967588512    0.8577679737958872   H4149
    0.6831882798772013    0.2554625300921846    0.1911013071292206   H4150
    0.6831882798772013    0.2554625300921846    0.5244346404625539   H4151
    0.6831882798772013    0.2554625300921846    0.8577679737958872   H4152
    0.6831882798772013    0.5887958634255179    0.1911013071292206   H4153
    0.6831882798772013    0.5887958634255179    0.5244346404625539   H4154
    0.6831882798772013    0.5887958634255179    0.8577679737958872   H4155
    0.6831882798772013    0.9221291967588512    0.1911013071292206   H4156
    0.6831882798772013    0.9221291967588512    0.5244346404625539   H4157
    0.6831882798772013    0.9221291967588512    0.8577679737958872   H4158
    0.1350450846540965    0.3739943010837631    0.2201853091269987   H4159
    0.1350450846540965    0.3739943010837631    0.5535186424603320   H4160
    0.1350450846540965    0.3739943010837631    0.8868519757936655   H4161
    0.1350450846540965    0.7073276344170965    0.2201853091269987   H4162
    0.1350450846540965    0.7073276344170965    0.5535186424603320   H4163
    0.1350450846540965    0.7073276344170965    0.8868519757936655   H4164
    0.1350450846540965    0.0406609677504297    0.2201853091269987   H4165
    0.1350450846540965    0.0406609677504297    0.5535186424603320   H4166
    0.1350450846540965    0.0406609677504297    0.8868519757936655   H4167
    0.4683784179874298    0.3739943010837631    0.2201853091269987   H4168
    0.4683784179874298    0.3739943010837631    0.5535186424603320   H4169
    0.4683784179874298    0.3739943010837631    0.8868519757936655   H4170
    0.4683784179874298    0.7073276344170965    0.2201853091269987   H4171
    0.4683784179874298    0.7073276344170965    0.5535186424603320   H4172
    0.4683784179874298    0.7073276344170965    0.8868519757936655   H4173
    0.4683784179874298    0.0406609677504297    0.2201853091269987   H4174
    0.4683784179874298    0.0406609677504297    0.5535186424603320   H4175
    0.4683784179874298    0.0406609677504297    0.8868519757936655   H4176
    0.8017117513207631    0.3739943010837631    0.2201853091269987   H4177
    0.8017117513207631    0.3739943010837631    0.5535186424603320   H4178
    0.8017117513207631    0.3739943010837631    0.8868519757936655   H4179
    0.8017117513207631    0.7073276344170965    0.2201853091269987   H4180
    0.8017117513207631    0.7073276344170965    0.5535186424603320   H4181
    0.8017117513207631    0.7073276344170965    0.8868519757936655   H4182
    0.8017117513207631    0.0406609677504297    0.2201853091269987   H4183
    0.8017117513207631    0.0406609677504297    0.5535186424603320   H4184
    0.8017117513207631    0.0406609677504297    0.8868519757936655   H4185
    0.2053905140878085    0.1972829534337576    0.0575441715300892   H4186
    0.2053905140878085    0.1972829534337576    0.3908775048634225   H4187
    0.2053905140878085    0.1972829534337576    0.7242108381967559   H4188
    0.2053905140878085    0.5306162867670908    0.0575441715300892   H4189
    0.2053905140878085    0.5306162867670908    0.3908775048634225   H4190
    0.2053905140878085    0.5306162867670908    0.7242108381967559   H4191
    0.2053905140878085    0.8639496201004242    0.0575441715300892   H4192
    0.2053905140878085    0.8639496201004242    0.3908775048634225   H4193
    0.2053905140878085    0.8639496201004242    0.7242108381967559   H4194
    0.5387238474211418    0.1972829534337576    0.0575441715300892   H4195
    0.5387238474211418    0.1972829534337576    0.3908775048634225   H4196
    0.5387238474211418    0.1972829534337576    0.7242108381967559   H4197
    0.5387238474211418    0.5306162867670908    0.0575441715300892   H4198
    0.5387238474211418    0.5306162867670908    0.3908775048634225   H4199
    0.5387238474211418    0.5306162867670908    0.7242108381967559   H4200
    0.5387238474211418    0.8639496201004242    0.0575441715300892   H4201
    0.5387238474211418    0.8639496201004242    0.3908775048634225   H4202
    0.5387238474211418    0.8639496201004242    0.7242108381967559   H4203
    0.8720571807544750    0.1972829534337576    0.0575441715300892   H4204
    0.8720571807544750    0.1972829534337576    0.3908775048634225   H4205
    0.8720571807544750    0.1972829534337576    0.7242108381967559   H4206
    0.8720571807544750    0.5306162867670908    0.0575441715300892   H4207
    0.8720571807544750    0.5306162867670908    0.3908775048634225   H4208
    0.8720571807544750    0.5306162867670908    0.7242108381967559   H4209
    0.8720571807544750    0.8639496201004242    0.0575441715300892   H4210
    0.8720571807544750    0.8639496201004242    0.3908775048634225   H4211
    0.8720571807544750    0.8639496201004242    0.7242108381967559   H4212
